"Displacements:0","Displacements:1","Stress/Strain:0","Stress/Strain:1","Stress/Strain:2","Stress/Strain:3","Stress/Strain:4","Stress/Strain:5","Stress/Strain:6","Stress/Strain:7","Stress/Strain:8","Stress/Strain:9","Stress/Strain:10","Stress/Strain:11","Stress/Strain:12","Principal Stress:0","Principal Stress:1","Principal Stress:2","Principal Stress:3","Principal Stress:4","Principal Stress:5","Principal Stress:6","nodes:0","nodes:1","nodes:2"
0.0016623,0.0017455,0.020017,0.0055288,0.0076638,0.0050028,0,0,0.16059,-0.027755,0,0.13007,0,0,0,0.021793,0.0037526,0.0076638,17.413,0.01107,0.016475,2.1126e-07,0,0,0
0.0032119,0.0033236,0.018179,0.0033609,0.0064619,0.0037495,0,0,0.15232,-0.040313,0,0.097486,0,0,0,0.019291,0.0022482,0.0064619,13.242,0.0093339,0.015403,1.5995e-07,0.02,0,0
0.0060928,0.0062246,0.015147,0.00090729,0.0048162,0.0019444,0,0,0.1343,-0.050816,0,0.050556,0,0,0,0.015455,0.0005987,0.0048162,7.4515,0.0069568,0.013261,8.567e-08,0.04,0,0
0.0085838,0.0087207,0.013088,0.00043126,0.0040557,0.0011594,0,0,0.11742,-0.047118,0,0.030145,0,0,0,0.013213,0.00030632,0.0040557,5.0861,0.0058583,0.0115,5.2413e-08,0.06,0,0
0.010789,0.010963,0.011648,0.00017723,0.0035477,0.0008021,0,0,0.10531,-0.043816,0,0.020854,0,0,0,0.011713,0.00011213,0.0035477,3.9138,0.0051244,0.010322,3.6702e-08,0.08,0,0
0.012796,0.013022,0.010641,8.0845e-05,0.0032165,0.00060689,0,0,0.096516,-0.040763,0,0.015779,0,0,0,0.010681,4.0463e-05,0.0032165,3.2336,0.004646,0.0094614,2.7879e-08,0.1,0,0
0.01465,0.014944,0.0098593,3.1232e-05,0.0029671,0.000491,0,0,0.089597,-0.038167,0,0.012766,0,0,0,0.0098875,2.944e-06,0.0029671,2.8198,0.0042859,0.008786,2.2143e-08,0.12,0,0
0.01638,0.016752,0.0092167,4.1845e-06,0.0027663,0.0004169,0,0,0.083855,-0.035907,0,0.010839,0,0,0,0.0092384,-1.7511e-05,0.0027663,2.559,0.0039957,0.0082253,1.8079e-08,0.14,0,0
0.018004,0.018462,0.008663,-1.2249e-05,0.0025952,0.0003672,0,0,0.078881,-0.033897,0,0.0095473,0,0,0,0.0086809,-3.0081e-05,0.0025952,2.3962,0.0037487,0.0077398,1.5014e-08,0.16,0,0
0.019535,0.020084,0.0081695,-2.285e-05,0.002444,0.0003325,0,0,0.074432,-0.032069,0,0.0086451,0,0,0,0.008185,-3.83e-05,0.002444,2.2989,0.0035302,0.0073056,1.2597e-08,0.18,0,0
0.020982,0.021624,0.0077184,-2.9969e-05,0.0023065,0.00030714,0,0,0.070355,-0.030375,0,0.0079857,0,0,0,0.0077324,-4.3879e-05,0.0023065,2.2455,0.0033317,0.0069078,1.0632e-08,0.2,0,0
0.022349,0.023085,0.0072991,-3.4746e-05,0.0021793,0.00028735,0,0,0.066557,-0.028783,0,0.007471,0,0,0,0.0073119,-4.7584e-05,0.0021793,2.2189,0.0031479,0.006537,9e-09,0.22,0,0
0.023644,0.024465,0.0069055,-3.7736e-05,0.0020603,0.00027036,0,0,0.062988,-0.027275,0,0.0070292,0,0,0,0.0069175,-4.9716e-05,0.0020603,2.2039,0.0029761,0.0061882,7.6291e-09,0.24,0,0
0.024869,0.025766,0.0065355,-3.918e-05,0.0019489,0.00025401,0,0,0.059626,-0.025845,0,0.0066043,0,0,0,0.0065466,-5.0327e-05,0.0019489,2.1848,0.0028151,0.005859,6.473e-09,0.26,0,0
0.026029,0.026982,0.0061894,-3.916e-05,0.0018451,0.00023655,0,0,0.056476,-0.024495,0,0.0061504,0,0,0,0.0061996,-4.9351e-05,0.0018451,2.1454,0.0026651,0.0055498,5.5016e-09,0.28,0,0
0.027128,0.028111,0.0058701,-3.7694e-05,0.0017497,0.00021657,0,0,0.053565,-0.023236,0,0.0056308,0,0,0,0.0058791,-4.6698e-05,0.0017497,2.0682,0.0025274,0.0052629,4.6936e-09,0.3,0,0
0.028171,0.02915,0.0055822,-3.4808e-05,0.0016642,0.00019301,0,0,0.050934,-0.022087,0,0.0050181,0,0,0,0.0055898,-4.2349e-05,0.0016642,1.9361,0.0024039,0.0050022,4.0333e-09,0.32,0,0
0.029165,0.030093,0.0053314,-3.059e-05,0.0015903,0.00016527,0,0,0.048635,-0.021071,0,0.004297,0,0,0,0.0053373,-3.6426e-05,0.0015903,1.7345,0.002297,0.0047731,3.5077e-09,0.34,0,0
0.030117,0.030939,0.005124,-2.524e-05,0.0015296,0.00013333,0,0,0.046727,-0.020213,0,0.0034667,0,0,0,0.0051281,-2.927e-05,0.0015296,1.4557,0.0022095,0.0045814,3.1054e-09,0.36,0,0
0.031034,0.031688,0.0049657,-1.9125e-05,0.001484,9.7883e-05,0,0,0.045262,-0.01954,0,0.002545,0,0,0,0.004968,-2.1473e-05,0.001484,1.1031,0.0021435,0.0044329,2.8161e-09,0.38,0,0
0.031927,0.032342,0.0048604,-1.2828e-05,0.0014543,6.0434e-05,0,0,0.044279,-0.019072,0,0.0015713,0,0,0,0.0048614,-1.3872e-05,0.0014543,0.6963,0.0021006,0.0043321,2.6306e-09,0.4,0,0
0.032806,0.032908,0.0048093,-7.1249e-06,0.0014406,2.3418e-05,0,0,0.043792,-0.018821,0,0.00060888,0,0,0,0.0048096,-7.428e-06,0.0014406,0.2722,0.0020809,0.0042808,2.5396e-09,0.42,0,0
0.033679,0.033397,0.0048092,-2.8284e-06,0.0014419,-9.9318e-06,0,0,0.043775,-0.018782,0,-0.00025823,0,0,0,0.0048093,-2.9598e-06,0.0014419,-0.11865,0.0020828,0.0042771,2.533e-09,0.44,0,0
0.034557,0.033825,0.0048521,-4.4064e-07,0.0014555,-3.5984e-05,0,0,0.044156,-0.018927,0,-0.0009356,0,0,0,0.0048525,-7.7001e-07,0.0014555,-0.42263,0.0021024,0.0043136,2.5977e-09,0.46,0,0
0.035445,0.034213,0.0049249,2.3325e-07,0.0014775,-5.1472e-05,0,0,0.044816,-0.019205,0,-0.0013383,0,0,0,0.0049255,-3.4765e-07,0.0014775,-0.59724,0.0021342,0.0043782,2.715e-09,0.48,0,0
0.036349,0.034583,0.0050109,1.8608e-07,0.0015033,-5.4425e-05,0,0,0.045598,-0.019541,0,-0.0014151,0,0,0,0.0050115,-4.4883e-07,0.0015033,-0.62299,0.0021715,0.0044547,2.8594e-09,0.5,0,0
0.037269,0.03496,0.0050919,7.6231e-07,0.0015278,-4.4839e-05,0,0,0.046333,-0.019852,0,-0.0011658,0,0,0,0.0050924,3.1327e-07,0.0015278,-0.50683,0.0022068,0.0045259,3.0004e-09,0.52,0,0
0.038203,0.035368,0.0051511,2.8334e-06,0.0015462,-2.4626e-05,0,0,0.046864,-0.020064,0,-0.00064027,0,0,0,0.0051513,2.6431e-06,0.0015462,-0.27555,0.0022334,0.0045765,3.1063e-09,0.54,0,0
0.039144,0.035827,0.0051751,6.1879e-06,0.0015544,3.2025e-06,0,0,0.047069,-0.020126,0,8.3266e-05,0,0,0,0.0051752,6.0731e-06,0.0015544,0.0374,0.0022452,0.004595,3.1501e-09,0.56,0,0
0.040085,0.036352,0.0051544,9.6348e-06,0.0015492,3.5663e-05,0,0,0.046867,-0.020014,0,0.00092724,0,0,0,0.0051548,9.1885e-06,0.0015492,0.4046,0.0022377,0.0045744,3.1141e-09,0.58,0,0
0.041019,0.036954,0.0050834,1.1744e-05,0.0015286,7.0583e-05,0,0,0.046213,-0.019718,0,0.0018352,0,0,0,0.0050848,1.0406e-05,0.0015286,0.81166,0.0022079,0.0045112,2.9911e-09,0.6,0,0
0.041934,0.037639,0.0049595,1.1673e-05,0.0014913,0.00010665,0,0,0.045086,-0.019236,0,0.0027729,0,0,0,0.0049624,8.7725e-06,0.0014913,1.2566,0.0021542,0.0044037,2.7839e-09,0.62,0,0
0.042822,0.038408,0.0047817,9.5434e-06,0.0014374,0.00014287,0,0,0.043476,-0.018562,0,0.0037146,0,0,0,0.0047869,4.3211e-06,0.0014374,1.7435,0.0020762,0.0042513,2.5039e-09,0.64,0,0
0.043673,0.039257,0.0045511,6.1918e-06,0.0013672,0.00017792,0,0,0.041391,-0.017693,0,0.004626,0,0,0,0.0045594,-2.1512e-06,0.0013672,2.2756,0.0019748,0.0040543,2.1696e-09,0.66,0,0
0.044478,0.040177,0.0042712,2.5529e-06,0.0012821,0.00020991,0,0,0.038858,-0.016635,0,0.0054577,0,0,0,0.0042834,-9.6351e-06,0.0012821,2.8498,0.001852,0.003815,1.8053e-09,0.68,0,0
0.045227,0.041157,0.0039484,-8.7395e-07,0.0011843,0.00023661,0,0,0.035934,-0.015407,0,0.0061517,0,0,0,0.0039649,-1.7398e-05,0.0011843,3.457,0.0017106,0.0035381,1.4385e-09,0.7,0,0
0.045915,0.04218,0.0035919,-4.1526e-06,0.0010763,0.00025599,0,0,0.032702,-0.014046,0,0.0066558,0,0,0,0.0036129,-2.5129e-05,0.0010763,4.0841,0.0015547,0.0032313,1.0952e-09,0.72,0,0
0.046535,0.043225,0.0032132,-7.6597e-06,0.00096167,0.00026679,0,0,0.02927,-0.012601,0,0.0069366,0,0,0,0.0032383,-3.276e-05,0.00096167,4.7182,0.0013891,0.0029045,7.9558e-10,0.74,0,0
0.047086,0.044271,0.0028252,-1.1741e-05,0.00084405,0.00026861,0,0,0.025755,-0.011125,0,0.0069838,0,0,0,0.0028537,-4.0209e-05,0.00084405,5.3476,0.0012192,0.0025686,5.5128e-10,0.76,0,0
0.047566,0.045295,0.0024407,-1.6511e-05,0.00072725,0.00026182,0,0,0.022274,-0.0096688,0,0.0068074,0,0,0,0.0024714,-4.7232e-05,0.00072725,5.9603,0.0010505,0.0022344,3.6465e-10,0.78,0,0
0.047977,0.046277,0.0020714,-2.1832e-05,0.00061487,0.0002473,0,0,0.018935,-0.0082771,0,0.0064297,0,0,0,0.002103,-5.3409e-05,0.00061487,6.539,0.00088815,0.001912,2.3079e-10,0.8,0,0
0.048323,0.047195,0.001728,-2.7366e-05,0.00051018,0.00022603,0,0,0.015831,-0.0069881,0,0.0058767,0,0,0,0.0017588,-5.817e-05,0.00051018,7.0506,0.00073692,0.00161,1.405e-10,0.82,0,0
0.04861,0.04803,0.0014195,-3.2605e-05,0.00041607,0.00019886,0,0,0.013045,-0.0058328,0,0.0051704,0,0,0,0.0014477,-6.079e-05,0.00041607,7.4259,0.00060099,0.0013359,8.3133e-11,0.84,0,0
0.048845,0.048765,0.0011543,-3.682e-05,0.00033524,0.00016621,0,0,0.010648,-0.0048368,0,0.0043216,0,0,0,0.0011778,-6.0346e-05,0.00033524,7.5172,0.00048424,0.001096,4.8748e-11,0.86,0,0
0.049036,0.049386,0.00094063,-3.8897e-05,0.00027052,0.00012767,0,0,0.0087115,-0.0040224,0,0.0033195,0,0,0,0.00095745,-5.571e-05,0.00027052,7.0102,0.00039075,0.00089701,2.933e-11,0.88,0,0
0.049193,0.049876,0.00078866,-3.6769e-05,0.00022557,8.1422e-05,0,0,0.0073202,-0.0034104,0,0.002117,0,0,0,0.00079758,-4.569e-05,0.00022557,5.3005,0.00032582,0.00074761,1.9204e-11,0.9,0,0
0.049329,0.050225,0.00071316,-2.6549e-05,0.00020598,2.2915e-05,0,0,0.0065933,-0.0030229,0,0.00059578,0,0,0,0.00071669,-3.008e-05,0.00020598,1.5952,0.00029753,0.00066378,1.5033e-11,0.92,0,0
0.049457,0.050417,0.0007421,4.1464e-06,0.00022387,-5.7527e-05,0,0,0.0067369,-0.0028564,0,-0.0014957,0,0,0,0.00075178,-5.5388e-06,0.00022387,-4.1062,0.00032337,0.00067516,1.6139e-11,0.94,0,0
0.049598,0.050442,0.00091074,6.7936e-05,0.0002936,-0.00018358,0,0,0.0080228,-0.0029337,0,-0.004773,0,0,0,0.00095601,2.2669e-05,0.0002936,-10.717,0.00042409,0.0008331,2.6947e-11,0.96,0,0
0.049778,0.050289,0.0012177,0.0002653,0.00044489,-0.00038292,0,0,0.010046,-0.0023347,0,-0.0099559,0,0,0,0.0013663,0.00011664,0.00044489,-18.247,0.00064262,0.0011234,6.4397e-11,0.98,0,0
0.049881,0.050167,0.0014013,0.00042181,0.00054693,-0.00050353,0,0,0.011107,-0.0016265,0,-0.013092,0,0,0,0.0016253,0.00019784,0.00054693,-22.416,0.00079001,0.0012901,9.3013e-11,1,0,0
0.0013847,0.0015191,0.017207,0.0049715,0.0066536,0.0046822,0,0,0.1372,-0.021867,0,0.12174,0,0,0,0.01896,0.003219,0.0066536,19.124,0.0096108,0.014361,1.4396e-07,0,0.02,0
0.0027439,0.0029778,0.016154,0.003263,0.0058251,0.00379,0,0,0.13428,-0.033308,0,0.09854,0,0,0,0.017372,0.0020455,0.0058251,15.508,0.0084141,0.01385,1.1619e-07,0.02,0.02,0
0.0053711,0.0057572,0.014371,0.0012079,0.0046738,0.0024078,0,0,0.12607,-0.045056,0,0.062602,0,0,0,0.014883,0.00069622,0.0046738,10.139,0.0067511,0.012676,7.4385e-08,0.04,0.02,0
0.0077867,0.0082626,0.012955,0.00065415,0.0040829,0.0016365,0,0,0.11534,-0.044573,0,0.042549,0,0,0,0.01322,0.00038956,0.0040829,7.4013,0.0058975,0.01144,5.1798e-08,0.06,0.02,0
0.0099848,0.01053,0.011744,0.00035288,0.003629,0.0011899,0,0,0.10549,-0.042589,0,0.030938,0,0,0,0.011896,0.00020012,0.003629,5.828,0.0052419,0.010414,3.8046e-08,0.08,0.02,0
0.012006,0.012616,0.010801,0.00020705,0.0033025,0.0009227,0,0,0.097485,-0.040241,0,0.02399,0,0,0,0.010901,0.00010791,0.0033025,4.8711,0.0047703,0.0096026,2.9413e-08,0.1,0.02,0
0.013884,0.014562,0.010041,0.00012534,0.0030498,0.00075459,0,0,0.090882,-0.038018,0,0.019619,0,0,0,0.010112,5.4507e-05,0.0030498,4.2639,0.0044053,0.0089439,2.3556e-08,0.12,0.02,0
0.015642,0.016391,0.0094045,7.6902e-05,0.0028444,0.00064365,0,0,0.085281,-0.035978,0,0.016735,0,0,0,0.0094591,2.2228e-05,0.0028444,3.8701,0.0041086,0.0083898,1.9331e-08,0.14,0.02,0
0.017295,0.018121,0.0088534,4.6453e-05,0.00267,0.00056763,0,0,0.080385,-0.034106,0,0.014758,0,0,0,0.0088983,1.5464e-06,0.00267,3.6165,0.0038566,0.0079078,1.6124e-08,0.16,0.02,0
0.018857,0.019761,0.0083624,2.6781e-05,0.0025168,0.00051373,0,0,0.075994,-0.03237,0,0.013357,0,0,0,0.0084012,-1.1949e-05,0.0025168,3.458,0.0036353,0.0074767,1.3592e-08,0.18,0.02,0
0.020335,0.021318,0.0079151,1.412e-05,0.0023788,0.00047388,0,0,0.071973,-0.030741,0,0.012321,0,0,0,0.0079498,-2.0521e-05,0.0023788,3.3637,0.003436,0.0070823,1.1534e-08,0.2,0.02,0
0.021736,0.022794,0.0075012,6.4467e-06,0.0022523,0.00044261,0,0,0.068235,-0.029196,0,0.011508,0,0,0,0.0075329,-2.5294e-05,0.0022523,3.3095,0.0032533,0.0067156,9.8258e-09,0.22,0.02,0
0.023065,0.024189,0.0071143,2.6264e-06,0.0021351,0.00041585,0,0,0.06473,-0.027722,0,0.010812,0,0,0,0.0071438,-2.6798e-05,0.0021351,3.2734,0.003084,0.006371,8.3897e-09,0.24,0.02,0
0.024325,0.025504,0.0067518,1.985e-06,0.0020261,0.00039041,0,0,0.061434,-0.026314,0,0.010151,0,0,0,0.0067791,-2.5264e-05,0.0020261,3.2339,0.0029266,0.0060456,7.175e-09,0.26,0.02,0
0.025522,0.026734,0.0064132,4.0523e-06,0.0019252,0.00036372,0,0,0.058344,-0.024975,0,0.0094566,0,0,0,0.0064381,-2.0814e-05,0.0019252,3.1687,0.0027808,0.005739,6.148e-09,0.28,0.02,0
0.026659,0.027876,0.0061002,8.3974e-06,0.0018326,0.00033368,0,0,0.055479,-0.023715,0,0.0086756,0,0,0,0.0061223,-1.3635e-05,0.0018326,3.0545,0.0026471,0.0054525,5.2853e-09,0.3,0.02,0
0.027741,0.028925,0.0058162,1.4513e-05,0.0017492,0.00029876,0,0,0.052871,-0.022551,0,0.0077679,0,0,0,0.0058348,-4.1158e-06,0.0017492,2.8685,0.0025266,0.0051894,4.5699e-09,0.32,0.02,0
0.028774,0.029879,0.0055653,2.1736e-05,0.0016761,0.00025811,0,0,0.050559,-0.021507,0,0.0067109,0,0,0,0.00558,7.0217e-06,0.0016761,2.5915,0.002421,0.0049541,3.9884e-09,0.34,0.02,0
0.029763,0.030734,0.0053522,2.9199e-05,0.0016144,0.00021167,0,0,0.048592,-0.020608,0,0.0055034,0,0,0,0.0053628,1.8646e-05,0.0016144,2.2123,0.002332,0.0047518,3.5293e-09,0.36,0.02,0
0.030717,0.03149,0.0051813,3.5794e-05,0.0015651,0.0001604,0,0,0.04701,-0.019881,0,0.0041703,0,0,0,0.0051879,2.9205e-05,0.0015651,1.7341,0.0022607,0.0045879,3.1828e-09,0.38,0.02,0
0.031644,0.032149,0.0050553,4.0172e-05,0.0015287,0.00010642,0,0,0.045847,-0.01935,0,0.0027669,0,0,0,0.0050587,3.6823e-05,0.0015287,1.1801,0.0022081,0.004467,2.9392e-09,0.4,0.02,0
0.032551,0.032718,0.004975,4.0835e-05,0.0015048,5.3127e-05,0,0,0.045113,-0.019031,0,0.0013813,0,0,0,0.0049763,3.9593e-05,0.0015048,0.59714,0.0021735,0.0043915,2.7889e-09,0.42,0.02,0
0.033448,0.033208,0.0049375,3.6465e-05,0.0014922,5.063e-06,0,0,0.044789,-0.018925,0,0.00013164,0,0,0,0.0049379,3.6108e-05,0.0014922,0.051829,0.0021554,0.0043601,2.7206e-09,0.44,0.02,0
0.034343,0.033635,0.0049361,2.6561e-05,0.0014888,-3.2615e-05,0,0,0.044815,-0.019009,0,-0.000848,0,0,0,0.0049365,2.6198e-05,0.0014888,-0.38111,0.0021505,0.0043668,2.7194e-09,0.46,0.02,0
0.035241,0.03402,0.00496,1.216e-05,0.0014917,-5.5204e-05,0,0,0.045089,-0.019233,0,-0.0014353,0,0,0,0.0049607,1.1495e-05,0.0014917,-0.63826,0.0021546,0.0044,2.7658e-09,0.48,0.02,0
0.036146,0.034388,0.0049956,-3.9866e-06,0.0014975,-5.985e-05,0,0,0.045475,-0.019519,0,-0.0015561,0,0,0,0.0049963,-4.7378e-06,0.0014975,-0.68628,0.002163,0.0044446,2.8353e-09,0.5,0.02,0
0.03706,0.034763,0.005028,-1.8328e-05,0.0015029,-4.6603e-05,0,0,0.045827,-0.019776,0,-0.0012117,0,0,0,0.0050285,-1.8835e-05,0.0015029,-0.53007,0.0021709,0.0044845,2.901e-09,0.52,0.02,0
0.037979,0.035169,0.005044,-2.822e-05,0.0015047,-1.8369e-05,0,0,0.04601,-0.019928,0,-0.0004776,0,0,0,0.0050442,-2.8462e-05,0.0015047,-0.20534,0.0021735,0.0045062,2.9377e-09,0.54,0.02,0
0.0389,0.035628,0.0050326,-3.322e-05,0.0014998,2.037e-05,0,0,0.045926,-0.019929,0,0.00052962,0,0,0,0.005033,-3.3668e-05,0.0014998,0.24013,0.0021664,0.0045004,2.9262e-09,0.56,0.02,0
0.039817,0.036154,0.0049866,-3.4945e-05,0.0014855,6.5323e-05,0,0,0.045515,-0.019766,0,0.0016984,0,0,0,0.0049882,-3.6494e-05,0.0014855,0.76605,0.0021457,0.0044629,2.8552e-09,0.58,0.02,0
0.040721,0.036759,0.0049018,-3.5664e-05,0.0014598,0.00011356,0,0,0.044745,-0.019442,0,0.0029525,0,0,0,0.0049056,-3.9502e-05,0.0014598,1.3508,0.0021087,0.0043919,2.7216e-09,0.6,0.02,0
0.041606,0.037449,0.0047757,-3.6736e-05,0.0014217,0.00016349,0,0,0.043602,-0.01896,0,0.0042509,0,0,0,0.0047833,-4.4277e-05,0.0014217,1.9904,0.0020536,0.004287,2.5284e-09,0.62,0.02,0
0.042465,0.038224,0.0046074,-3.7905e-05,0.0013709,0.00021399,0,0,0.042076,-0.018314,0,0.0055636,0,0,0,0.0046203,-5.0762e-05,0.0013709,2.6892,0.0019801,0.0041473,2.2836e-09,0.64,0.02,0
0.043289,0.039082,0.0043973,-3.7767e-05,0.0013079,0.00026327,0,0,0.040163,-0.017493,0,0.0068451,0,0,0,0.0044172,-5.7624e-05,0.0013079,3.4475,0.0018891,0.0039723,1.9998e-09,0.66,0.02,0
0.044072,0.040012,0.0041476,-3.492e-05,0.0012338,0.00030859,0,0,0.03788,-0.016494,0,0.0080235,0,0,0,0.004176,-6.3247e-05,0.0012338,4.2547,0.0017822,0.0037624,1.6937e-09,0.68,0.02,0
0.044805,0.041004,0.0038631,-2.8952e-05,0.0011502,0.0003466,0,0,0.035267,-0.01533,0,0.0090115,0,0,0,0.0039008,-6.6611e-05,0.0011502,5.089,0.0016615,0.0035205,1.3843e-09,0.7,0.02,0
0.045482,0.04204,0.003551,-2.0624e-05,0.0010591,0.00037426,0,0,0.032394,-0.014036,0,0.0097306,0,0,0,0.0035979,-6.7542e-05,0.0010591,5.9227,0.0015298,0.003252,1.0907e-09,0.72,0.02,0
0.0461,0.043098,0.0032207,-1.1324e-05,0.00096282,0.00038962,0,0,0.029353,-0.012664,0,0.01013,0,0,0,0.0032758,-6.6372e-05,0.00096282,6.7279,0.0013907,0.0029647,8.2855e-10,0.74,0.02,0
0.046656,0.044158,0.0028829,-2.3602e-06,0.00086416,0.00039206,0,0,0.026244,-0.011265,0,0.010194,0,0,0,0.002944,-6.3447e-05,0.00086416,7.4788,0.0012482,0.0026675,6.0776e-10,0.76,0.02,0
0.04715,0.045197,0.0025483,5.4333e-06,0.00076613,0.00038206,0,0,0.023169,-0.009889,0,0.0099336,0,0,0,0.0026126,-5.8863e-05,0.00076613,8.1494,0.0011066,0.0023693,4.3178e-10,0.78,0.02,0
0.047583,0.046192,0.0022272,1.1763e-05,0.00067169,0.00036078,0,0,0.020222,-0.008579,0,0.0093802,0,0,0,0.0022914,-5.2433e-05,0.00067169,8.7065,0.00097021,0.0020787,2.9855e-10,0.8,0.02,0
0.047959,0.047122,0.0019288,1.6792e-05,0.00058366,0.00032958,0,0,0.017486,-0.0073693,0,0.008569,0,0,0,0.0019893,-4.373e-05,0.00058366,9.0983,0.00084307,0.0018032,2.0235e-10,0.82,0.02,0
0.048283,0.047968,0.0016612,2.1089e-05,0.00050469,0.00028965,0,0,0.015035,-0.0062868,0,0.0075309,0,0,0,0.0017144,-3.212e-05,0.00050469,9.235,0.00072899,0.0015498,1.3585e-10,0.84,0.02,0
0.04856,0.048713,0.001432,2.5655e-05,0.00043731,0.00024161,0,0,0.012931,-0.0053515,0,0.0062818,0,0,0,0.0014745,-1.6772e-05,0.00043731,8.9545,0.00063167,0.0013244,9.1687e-11,0.86,0.02,0
0.0488,0.049341,0.0012486,3.2073e-05,0.00038421,0.00018503,0,0,0.011237,-0.0045778,0,0.0048107,0,0,0,0.0012775,3.1999e-06,0.00038421,7.9639,0.00055497,0.0011338,6.3527e-11,0.88,0.02,0
0.04901,0.049838,0.0011192,4.2969e-05,0.00034864,0.00011781,0,0,0.010017,-0.0039738,0,0.0030632,0,0,0,0.0011338,2.8303e-05,0.00034864,5.7711,0.0005036,0.00098666,4.6611e-11,0.9,0.02,0
0.049201,0.05019,0.0010537,6.2824e-05,0.00033494,3.5148e-05,0,0,0.0093432,-0.0035375,0,0.00091385,0,0,0,0.001059,5.746e-05,0.00033494,1.7787,0.00048381,0.00089751,3.7992e-11,0.92,0.02,0
0.049384,0.050385,0.001065,0.00010175,0.00035003,-7.1996e-05,0,0,0.0092947,-0.0032276,0,-0.0018719,0,0,0,0.0010777,8.9062e-05,0.00035003,-4.1155,0.00050559,0.00088922,3.6808e-11,0.94,0.02,0
0.049572,0.050412,0.0011571,0.00017143,0.00039857,-0.00021752,0,0,0.0098613,-0.0029528,0,-0.0056556,0,0,0,0.0012131,0.00011548,0.00039857,-11.224,0.00057571,0.00098829,4.496e-11,0.96,0.02,0
0.049778,0.050268,0.00132,0.00033839,0.00049751,-0.00039909,0,0,0.010692,-0.0020687,0,-0.010376,0,0,0,0.0014743,0.00018408,0.00049751,-18.872,0.00071863,0.0011668,6.9297e-11,0.98,0.02,0
0.049886,0.050154,0.0014175,0.00046171,0.00056376,-0.00049626,0,0,0.011099,-0.0013267,0,-0.012903,0,0,0,0.0016366,0.00024257,0.00056376,-22.787,0.00081432,0.0012657,8.6782e-11,1,0.02,0
0.0010208,0.0011995,0.013405,0.004471,0.0053627,0.0042345,0,0,0.10455,-0.011592,0,0.1101,0,0,0,0.015151,0.0027247,0.0053627,22.002,0.0077461,0.01135,6.3001e-08,0,0.04,0
0.0020909,0.0024518,0.013224,0.0034348,0.0049977,0.0038749,0,0,0.10694,-0.020317,0,0.10075,0,0,0,0.014659,0.0020003,0.0049977,19.539,0.0072188,0.011468,6.0819e-08,0.02,0.04,0
0.0042777,0.0049713,0.012879,0.0019016,0.0044342,0.0031638,0,0,0.10979,-0.032925,0,0.082258,0,0,0,0.013799,0.00098161,0.0044342,15.227,0.006405,0.01149,5.5532e-08,0.04,0.04,0
0.0064823,0.0074221,0.012369,0.0011374,0.0040519,0.0024982,0,0,0.10812,-0.037889,0,0.064953,0,0,0,0.012954,0.00055202,0.0040519,12.054,0.0058527,0.011076,4.7555e-08,0.06,0.04,0
0.0086026,0.0097024,0.011644,0.00071529,0.0037078,0.0019602,0,0,0.10317,-0.038902,0,0.050965,0,0,0,0.012022,0.0003369,0.0037078,9.8508,0.0053556,0.010417,3.8552e-08,0.08,0.04,0
0.010609,0.011822,0.010916,0.00046721,0.0034151,0.0015823,0,0,0.097517,-0.038322,0,0.04114,0,0,0,0.011177,0.00020697,0.0034151,8.3798,0.0049329,0.0097691,3.1274e-08,0.1,0.04,0
0.012503,0.013804,0.010259,0.00031562,0.0031723,0.0013215,0,0,0.092124,-0.037137,0,0.034359,0,0,0,0.01045,0.00012412,0.0031723,7.388,0.0045823,0.0091894,2.5741e-08,0.12,0.04,0
0.014294,0.01567,0.0096761,0.00021927,0.0029686,0.0011394,0,0,0.087197,-0.035741,0,0.029625,0,0,0,0.0098259,6.9443e-05,0.0029686,6.7157,0.004288,0.008678,2.1506e-08,0.14,0.04,0
0.015991,0.017435,0.0091569,0.0001563,0.002794,0.0010099,0,0,0.082718,-0.03429,0,0.026257,0,0,0,0.0092805,3.2727e-05,0.002794,6.2632,0.0040357,0.0082225,1.819e-08,0.16,0.04,0
0.017603,0.019108,0.0086884,0.00011481,0.002641,0.00091542,0,0,0.078617,-0.03284,0,0.023801,0,0,0,0.0087949,8.3683e-06,0.002641,5.9646,0.0038147,0.0078104,1.5528e-08,0.18,0.04,0
0.019136,0.020695,0.0082599,8.8099e-05,0.0025044,0.00084424,0,0,0.074822,-0.031412,0,0.02195,0,0,0,0.0083547,-6.7079e-06,0.0025044,5.7724,0.0036175,0.0074312,1.3341e-08,0.2,0.04,0
0.020596,0.022201,0.0078635,7.2287e-05,0.0023807,0.0007878,0,0,0.071276,-0.03001,0,0.020483,0,0,0,0.0079499,-1.4132e-05,0.0023807,5.6487,0.0034388,0.0070773,1.1512e-08,0.22,0.04,0
0.021987,0.023626,0.0074936,6.5027e-05,0.0022676,0.00073959,0,0,0.067938,-0.028633,0,0.019229,0,0,0,0.0075733,-1.4723e-05,0.0022676,5.5599,0.0032754,0.0067431,9.9597e-09,0.24,0.04,0
0.023313,0.024968,0.007147,6.4766e-05,0.0021635,0.00069441,0,0,0.064785,-0.027284,0,0.018055,0,0,0,0.0072206,-8.9041e-06,0.0021635,5.4732,0.0031251,0.006425,8.6311e-09,0.26,0.04,0
0.024578,0.026225,0.0068223,7.028e-05,0.0020678,0.00064803,0,0,0.061809,-0.025967,0,0.016849,0,0,0,0.0068896,2.97e-06,0.0020678,5.3556,0.0029868,0.0061213,7.4886e-09,0.28,0.04,0
0.025786,0.027392,0.0065196,8.035e-05,0.00198,0.00059701,0,0,0.059015,-0.024695,0,0.015522,0,0,0,0.0065797,2.0312e-05,0.00198,5.1732,0.00286,0.0058319,6.5068e-09,0.3,0.04,0
0.026939,0.028465,0.0062402,9.3538e-05,0.0019001,0.00053886,0,0,0.056421,-0.023485,0,0.01401,0,0,0,0.0062917,4.2019e-05,0.0019001,4.8929,0.0027446,0.0055586,5.6678e-09,0.32,0.04,0
0.028042,0.02944,0.0059859,0.00010804,0.0018282,0.00047212,0,0,0.05405,-0.022362,0,0.012275,0,0,0,0.0060277,6.6243e-05,0.0018282,4.486,0.0026407,0.0053047,4.9588e-09,0.34,0.04,0
0.029101,0.030314,0.0057592,0.00012164,0.0017643,0.00039668,0,0,0.051934,-0.021354,0,0.010314,0,0,0,0.0057906,9.0267e-05,0.0017643,3.9341,0.0025484,0.0050748,4.37e-09,0.36,0.04,0
0.03012,0.031085,0.0055622,0.00013171,0.0017082,0.00031396,0,0,0.050102,-0.020494,0,0.008163,0,0,0,0.0055834,0.00011055,0.0017082,3.2369,0.0024674,0.0048745,3.8935e-09,0.38,0.04,0
0.031105,0.031756,0.0053965,0.00013527,0.0016595,0.00022719,0,0,0.04858,-0.019815,0,0.0059069,0,0,0,0.0054088,0.00012296,0.0016595,2.4207,0.0023971,0.0047095,3.5215e-09,0.4,0.04,0
0.032063,0.032333,0.0052622,0.00012917,0.0016174,0.00014148,0,0,0.047382,-0.019347,0,0.0036784,0,0,0,0.005268,0.00012336,0.0016174,1.5459,0.0023363,0.0045841,3.2451e-09,0.42,0.04,0
0.033,0.032827,0.0051577,0.00011066,0.0015805,6.3814e-05,0,0,0.046504,-0.019108,0,0.0016592,0,0,0,0.0051598,0.00010855,0.0015805,0.70711,0.002283,0.0044997,3.0526e-09,0.44,0.04,0
0.033923,0.033253,0.0050787,7.8696e-05,0.0015472,2.4053e-06,0,0,0.045909,-0.019091,0,6.2538e-05,0,0,0,0.0050794,7.7947e-05,0.0015472,0.020794,0.0022349,0.0044526,2.9276e-09,0.46,0.04,0
0.034837,0.033635,0.005018,3.5748e-05,0.0015161,-3.4955e-05,0,0,0.045525,-0.019245,0,-0.00090884,0,0,0,0.0050187,3.5128e-05,0.0015161,-0.40335,0.00219,0.0044327,2.8484e-09,0.48,0.04,0
0.035744,0.033998,0.0049667,-1.1422e-05,0.0014866,-4.3423e-05,0,0,0.045242,-0.019474,0,-0.001129,0,0,0,0.0049674,-1.208e-05,0.0014866,-0.49854,0.0021473,0.0044248,2.7901e-09,0.5,0.04,0
0.036646,0.034369,0.0049151,-5.3792e-05,0.0014584,-2.327e-05,0,0,0.044937,-0.019658,0,-0.00060503,0,0,0,0.0049157,-5.4349e-05,0.0014584,-0.26367,0.0021066,0.0044126,2.7297e-09,0.52,0.04,0
0.037542,0.034773,0.004855,-8.4483e-05,0.0014312,2.0061e-05,0,0,0.04451,-0.019703,0,0.00052158,0,0,0,0.0048559,-8.5358e-05,0.0014312,0.24399,0.0020672,0.0043844,2.6514e-09,0.54,0.04,0
0.038427,0.035233,0.0047808,-0.00010219,0.0014036,7.8536e-05,0,0,0.043904,-0.019575,0,0.0020419,0,0,0,0.0047833,-0.00010469,0.0014036,0.94218,0.0020274,0.0043354,2.5484e-09,0.56,0.04,0
0.039298,0.035764,0.0046895,-0.00011071,0.0013736,0.00014508,0,0,0.043107,-0.019297,0,0.003772,0,0,0,0.0046957,-0.00011685,0.0013736,1.7613,0.0019842,0.0042672,2.421e-09,0.58,0.04,0
0.040151,0.036376,0.0045799,-0.0001153,0.0013394,0.00021569,0,0,0.042127,-0.018911,0,0.005608,0,0,0,0.0045922,-0.00012759,0.0013394,2.6663,0.0019347,0.0041839,2.2728e-09,0.6,0.04,0
0.040983,0.037075,0.004451,-0.00011891,0.0012996,0.00028911,0,0,0.040968,-0.018441,0,0.007517,0,0,0,0.0044724,-0.00014034,0.0012996,3.6539,0.0018772,0.0040877,2.1073e-09,0.62,0.04,0
0.04179,0.037863,0.0043014,-0.00012061,0.0012542,0.00036468,0,0,0.039613,-0.017873,0,0.0094816,0,0,0,0.0043355,-0.00015471,0.0012542,4.7329,0.0018117,0.0039776,1.9268e-09,0.64,0.04,0
0.042567,0.038736,0.0041297,-0.00011684,0.0012039,0.00044013,0,0,0.038036,-0.017169,0,0.011443,0,0,0,0.0041802,-0.00016739,0.0012039,5.9,0.0017389,0.0038499,1.7331e-09,0.66,0.04,0
0.043311,0.039685,0.0039353,-0.00010433,0.0011493,0.00051084,0,0,0.036218,-0.016297,0,0.013282,0,0,0,0.0040055,-0.00017453,0.0011493,7.1267,0.0016601,0.0037003,1.5291e-09,0.68,0.04,0
0.044016,0.040699,0.0037196,-8.2468e-05,0.0010911,0.00057084,0,0,0.03417,-0.015257,0,0.014842,0,0,0,0.003811,-0.00017391,0.0010911,8.3612,0.0015761,0.003527,1.3202e-09,0.7,0.04,0
0.044678,0.041759,0.0034864,-5.3606e-05,0.0010298,0.00061469,0,0,0.031936,-0.014085,0,0.015982,0,0,0,0.0035983,-0.00016545,0.0010298,9.5422,0.0014876,0.0033311,1.1138e-09,0.72,0.04,0
0.045293,0.042844,0.0032417,-2.1483e-05,0.00096605,0.0006389,0,0,0.029583,-0.012838,0,0.016612,0,0,0,0.0033705,-0.0001503,0.00096605,10.612,0.0013954,0.0031164,9.1778e-10,0.74,0.04,0
0.045861,0.04393,0.0029924,1.0525e-05,0.00090086,0.00064235,0,0,0.027189,-0.011574,0,0.016701,0,0,0,0.0031325,-0.0001296,0.00090086,11.519,0.0013012,0.0028883,7.3935e-10,0.76,0.04,0
0.046381,0.044995,0.0027461,4.0206e-05,0.00083588,0.00062566,0,0,0.024832,-0.010344,0,0.016267,0,0,0,0.0028904,-0.00010408,0.00083588,12.218,0.0012074,0.0026525,5.8335e-10,0.78,0.04,0
0.046855,0.046014,0.0025101,6.6521e-05,0.00077298,0.00059053,0,0,0.022582,-0.009184,0,0.015354,0,0,0,0.0026506,-7.4003e-05,0.00077298,12.655,0.0011165,0.0024152,4.5207e-10,0.8,0.04,0
0.047284,0.046967,0.0022913,8.9404e-05,0.0007142,0.00053905,0,0,0.020502,-0.0081223,0,0.014015,0,0,0,0.00242,-3.9369e-05,0.0007142,12.758,0.0010316,0.0021825,3.4549e-10,0.82,0.04,0
0.047675,0.047833,0.0020957,0.00010966,0.00066162,0.0004731,0,0,0.018643,-0.0071754,0,0.012301,0,0,0,0.0022054,4.0625e-08,0.00066162,12.422,0.00095567,0.0019602,2.6183e-10,0.84,0.04,0
0.04803,0.048596,0.0019291,0.00012898,0.00061741,0.00039384,0,0,0.017051,-0.0063496,0,0.01024,0,0,0,0.0020134,4.4595e-05,0.00061741,11.487,0.00089181,0.0017541,1.9826e-10,0.86,0.04,0
0.048357,0.049238,0.0017961,0.00015003,0.00058383,0.00030115,0,0,0.015759,-0.0056394,0,0.0078298,0,0,0,0.0018516,9.452e-05,0.00058383,9.715,0.00084331,0.0015708,1.5162e-10,0.88,0.04,0
0.04866,0.049747,0.0017005,0.00017677,0.00056319,0.00019316,0,0,0.014786,-0.0050235,0,0.0050222,0,0,0,0.0017282,0.00014915,0.00056319,6.7837,0.0008135,0.0014183,1.1899e-10,0.9,0.04,0
0.048948,0.050109,0.0016436,0.00021508,0.00055761,6.6005e-05,0,0,0.014118,-0.0044529,0,0.0017161,0,0,0,0.0016531,0.00020564,0.00055761,2.3483,0.00080544,0.0013078,9.82e-11,0.92,0.04,0
0.049225,0.050313,0.0016191,0.00027379,0.00056786,-8.5005e-05,0,0,0.013666,-0.0038228,0,-0.0022101,0,0,0,0.0016349,0.00025791,0.00056786,-3.767,0.00082024,0.0012516,8.801e-11,0.94,0.04,0
0.049495,0.050353,0.0016082,0.00036679,0.00059251,-0.00025871,0,0,0.013205,-0.0029344,0,-0.0067265,0,0,0,0.0016743,0.00030076,0.00059251,-11.289,0.00085584,0.001254,8.7998e-11,0.96,0.04,0
0.049753,0.050232,0.0016068,0.00051,0.00063505,-0.00041472,0,0,0.012633,-0.0016257,0,-0.010783,0,0,0,0.0017567,0.00036018,0.00063505,-18.547,0.0009173,0.0012826,9.4082e-11,0.98,0.04,0
0.049879,0.050133,0.0016106,0.00059599,0.00066199,-0.00047904,0,0,0.012332,-0.00085793,0,-0.012455,0,0,0,0.0018058,0.00040084,0.00066199,-21.764,0.0009562,0.0012957,9.764e-11,1,0.04,0
0.00088508,0.0010555,0.011803,0.0044314,0.0048704,0.0039566,0,0,0.090127,-0.0057072,0,0.10287,0,0,0,0.013534,0.0027007,0.0048704,23.594,0.007035,0.0099305,4.2839e-08,0,0.06,0
0.0018025,0.0021651,0.011751,0.0037588,0.004653,0.003831,0,0,0.092276,-0.011625,0,0.099605,0,0,0,0.013314,0.0021964,0.004653,22.056,0.006721,0.01012,4.3149e-08,0.02,0.06,0
0.003691,0.0044402,0.01167,0.0025429,0.0042639,0.0035033,0,0,0.09628,-0.022373,0,0.091086,0,0,0,0.012891,0.001322,0.0042639,18.923,0.0061589,0.010418,4.3046e-08,0.04,0.06,0
0.0056537,0.0067471,0.011516,0.0016621,0.0039535,0.0030493,0,0,0.098317,-0.029789,0,0.079283,0,0,0,0.012415,0.0007637,0.0039535,15.963,0.0057106,0.01043,4.0623e-08,0.06,0.06,0
0.0076237,0.0089736,0.011181,0.0011122,0.003688,0.0025738,0,0,0.097411,-0.033486,0,0.066919,0,0,0,0.011826,0.00046715,0.003688,13.564,0.0053271,0.01014,3.6066e-08,0.08,0.06,0
0.0095502,0.011083,0.010729,0.00076227,0.0034474,0.0021751,0,0,0.09466,-0.034906,0,0.056552,0,0,0,0.011202,0.00028892,0.0034474,11.78,0.0049795,0.0097268,3.1136e-08,0.1,0.06,0
0.01141,0.013076,0.010245,0.00053348,0.0032336,0.0018681,0,0,0.091152,-0.035102,0,0.048572,0,0,0,0.010607,0.00017172,0.0032336,10.493,0.0046708,0.0092909,2.672e-08,0.12,0.06,0
0.013196,0.014961,0.0097731,0.00038058,0.0030461,0.001638,0,0,0.087451,-0.034652,0,0.042587,0,0,0,0.010062,9.1535e-05,0.0030461,9.5763,0.0043999,0.0088704,2.2994e-08,0.14,0.06,0
0.014908,0.016749,0.0093274,0.00027687,0.0028813,0.0014658,0,0,0.083799,-0.033857,0,0.038111,0,0,0,0.0095682,3.6015e-05,0.0028813,8.931,0.0041618,0.0084757,1.9892e-08,0.16,0.06,0
0.016548,0.018447,0.0089106,0.00020656,0.0027351,0.0013358,0,0,0.08028,-0.032871,0,0.03473,0,0,0,0.0091188,-1.6423e-06,0.0027351,8.4847,0.0039508,0.0081062,1.7298e-08,0.18,0.06,0
0.018119,0.020061,0.0085207,0.00016019,0.0026043,0.0012353,0,0,0.076914,-0.031773,0,0.032117,0,0,0,0.0087061,-2.5226e-05,0.0026043,8.1814,0.0037617,0.0077583,1.5105e-08,0.2,0.06,0
0.019625,0.021593,0.0081546,0.00013199,0.002486,0.0011544,0,0,0.073692,-0.030602,0,0.030014,0,0,0,0.0083233,-3.6757e-05,0.002486,7.975,0.0035908,0.0074273,1.3227e-08,0.22,0.06,0
0.021067,0.023044,0.007809,0.00011831,0.0023782,0.0010852,0,0,0.070601,-0.029378,0,0.028215,0,0,0,0.0079646,-3.7235e-05,0.0023782,7.8244,0.0034352,0.0071088,1.16e-08,0.24,0.06,0
0.022449,0.024412,0.0074817,0.00011669,0.0022795,0.001021,0,0,0.067628,-0.028117,0,0.026546,0,0,0,0.0076255,-2.7158e-05,0.0022795,7.69,0.0032926,0.0067994,1.0175e-08,0.26,0.06,0
0.023772,0.025695,0.0071711,0.00012509,0.0021888,0.00095633,0,0,0.064769,-0.026829,0,0.024864,0,0,0,0.0073031,-6.9925e-06,0.0021888,7.5322,0.0031617,0.0064968,8.9183e-09,0.28,0.06,0
0.02504,0.026888,0.0068765,0.00014147,0.0021054,0.00088657,0,0,0.062025,-0.025531,0,0.023051,0,0,0,0.0069956,2.2375e-05,0.0021054,7.3105,0.0030411,0.0062,7.8069e-09,0.3,0.06,0
0.026253,0.027986,0.0065983,0.00016336,0.0020285,0.00080834,0,0,0.059408,-0.024247,0,0.021017,0,0,0,0.0067025,5.9186e-05,0.0020285,6.9846,0.0029301,0.0059101,6.8253e-09,0.32,0.06,0
0.027416,0.028984,0.0063373,0.00018762,0.0019575,0.00071963,0,0,0.056937,-0.023008,0,0.01871,0,0,0,0.0064245,0.00010044,0.0019575,6.5181,0.0028275,0.0056301,5.9644e-09,0.34,0.06,0
0.028531,0.02988,0.0060945,0.00021042,0.0018915,0.00062017,0,0,0.054639,-0.021854,0,0.016124,0,0,0,0.0061632,0.00014172,0.0018915,5.8845,0.0027321,0.005365,5.219e-09,0.36,0.06,0
0.029601,0.03067,0.0058711,0.00022732,0.0018295,0.00051168,0,0,0.052541,-0.020829,0,0.013304,0,0,0,0.0059211,0.00017731,0.0018295,5.0758,0.0026427,0.0051217,4.5861e-09,0.38,0.06,0
0.030632,0.031356,0.0056683,0.00023346,0.0017705,0.00039802,0,0,0.050671,-0.019982,0,0.010348,0,0,0,0.0057012,0.00020061,0.0017705,4.1122,0.0025574,0.0049078,4.0629e-09,0.4,0.06,0
0.031628,0.031944,0.0054868,0.0002237,0.0017131,0.00028532,0,0,0.049057,-0.019363,0,0.0074183,0,0,0,0.0055058,0.00020474,0.0017131,3.0532,0.0024746,0.0047308,3.6448e-09,0.42,0.06,0
0.032595,0.032444,0.0053263,0.00019309,0.0016558,0.00018215,0,0,0.047716,-0.019015,0,0.004736,0,0,0,0.0053357,0.00018368,0.0016558,2.0047,0.0023917,0.0045964,3.3235e-09,0.44,0.06,0
0.033537,0.032872,0.0051847,0.00013877,0.001597,9.93e-05,0,0,0.046639,-0.018957,0,0.0025818,0,0,0,0.0051888,0.00013462,0.001597,1.1158,0.0023068,0.0045048,3.0838e-09,0.46,0.06,0
0.03446,0.033251,0.0050573,6.3894e-05,0.0015364,4.7943e-05,0,0,0.045772,-0.019142,0,0.0012465,0,0,0,0.0050593,6.1863e-05,0.0015364,0.54771,0.0022192,0.0044475,2.9019e-09,0.48,0.06,0
0.035368,0.033609,0.0049373,-1.923e-05,0.0014754,3.5558e-05,0,0,0.045004,-0.01943,0,0.00092451,0,0,0,0.004939,-2.0892e-05,0.0014754,0.41386,0.0021312,0.0044066,2.7483e-09,0.5,0.06,0
0.03626,0.033976,0.004818,-9.2438e-05,0.0014177,6.1405e-05,0,0,0.044204,-0.019631,0,0.0015965,0,0,0,0.0048205,-9.4945e-05,0.0014177,0.72571,0.0020477,0.0043606,2.5976e-09,0.52,0.06,0
0.037136,0.034381,0.0046948,-0.00014199,0.0013659,0.00011598,0,0,0.043277,-0.019602,0,0.0030155,0,0,0,0.0046999,-0.00014705,0.0013659,1.3925,0.0019729,0.0042953,2.4374e-09,0.54,0.06,0
0.037991,0.034845,0.0045669,-0.00016674,0.00132,0.00018605,0,0,0.042209,-0.019328,0,0.0048373,0,0,0,0.0045769,-0.00017677,0.00132,2.2785,0.0019067,0.0042099,2.2693e-09,0.56,0.06,0
0.038824,0.035382,0.0044363,-0.00017637,0.001278,0.00026158,0,0,0.041058,-0.018907,0,0.006801,0,0,0,0.004454,-0.00019411,0.001278,3.2751,0.001846,0.0041147,2.1033e-09,0.58,0.06,0
0.039634,0.036003,0.0043061,-0.00018249,0.0012371,0.00033917,0,0,0.039898,-0.018455,0,0.0088186,0,0,0,0.0043347,-0.00021104,0.0012371,4.3395,0.0017869,0.0040223,1.9487e-09,0.6,0.06,0
0.04042,0.036711,0.0041775,-0.0001908,0.001196,0.00042053,0,0,0.038759,-0.018028,0,0.010934,0,0,0,0.0042208,-0.00023413,0.001196,5.4885,0.0017276,0.0039397,1.8096e-09,0.62,0.06,0
0.041184,0.037509,0.0040481,-0.00019847,0.0011549,0.00050785,0,0,0.037612,-0.017594,0,0.013204,0,0,0,0.0041115,-0.00026187,0.0011549,6.7577,0.0016682,0.0038651,1.6831e-09,0.64,0.06,0
0.041925,0.038395,0.0039135,-0.000197,0.001115,0.00059961,0,0,0.036381,-0.017056,0,0.01559,0,0,0,0.0040031,-0.00028661,0.001115,8.1547,0.0016105,0.0037889,1.5621e-09,0.66,0.06,0
0.042639,0.039361,0.0037695,-0.0001787,0.0010772,0.00068914,0,0,0.034999,-0.016327,0,0.017918,0,0,0,0.0038906,-0.00029981,0.0010772,9.6333,0.001556,0.0036995,1.4395e-09,0.68,0.06,0
0.043325,0.040394,0.0036136,-0.00014211,0.0010414,0.00076682,0,0,0.033438,-0.015386,0,0.019937,0,0,0,0.0037685,-0.00029703,0.0010414,11.104,0.0015043,0.0035888,1.3104e-09,0.7,0.06,0
0.043977,0.041476,0.0034466,-9.2302e-05,0.0010063,0.00082397,0,0,0.031724,-0.014282,0,0.021423,0,0,0,0.0036332,-0.00027892,0.0010063,12.466,0.0014535,0.0034539,1.1739e-09,0.72,0.06,0
0.044594,0.042585,0.0032719,-3.6679e-05,0.00097055,0.00085536,0,0,0.029917,-0.013094,0,0.022239,0,0,0,0.0034836,-0.00024843,0.00097055,13.633,0.0014019,0.0032963,1.033e-09,0.74,0.06,0
0.045174,0.043695,0.0030942,1.8769e-05,0.0009339,0.00085935,0,0,0.028084,-0.011897,0,0.022343,0,0,0,0.0033211,-0.00020811,0.0009339,14.541,0.001349,0.0031192,8.9209e-10,0.76,0.06,0
0.045717,0.044783,0.002919,7.0413e-05,0.00089683,0.00083669,0,0,0.026288,-0.010743,0,0.021754,0,0,0,0.0031489,-0.00015949,0.00089683,15.138,0.0012954,0.0029269,7.5642e-10,0.78,0.06,0
0.046225,0.045824,0.0027514,0.00011648,0.00086036,0.0007894,0,0,0.024583,-0.0096704,0,0.020524,0,0,0,0.0029715,-0.0001036,0.00086036,15.369,0.0012427,0.0027242,6.3043e-10,0.8,0.06,0
0.0467,0.046797,0.0025961,0.00015664,0.00082582,0.00072013,0,0,0.023013,-0.0086993,0,0.018723,0,0,0,0.002794,-4.1308e-05,0.00082582,15.165,0.0011929,0.0025165,5.1756e-10,0.82,0.06,0
0.047146,0.047681,0.0024573,0.000192,0.00079478,0.00063152,0,0,0.021612,-0.0078362,0,0.016419,0,0,0,0.0026225,2.6732e-05,0.00079478,14.439,0.001148,0.0023098,4.1997e-10,0.84,0.06,0
0.047565,0.048459,0.0023382,0.00022507,0.00076899,0.00052557,0,0,0.0204,-0.007071,0,0.013665,0,0,0,0.0024632,0.00010011,0.00076899,13.068,0.0011108,0.0021099,3.384e-10,0.86,0.06,0
0.047962,0.049115,0.002241,0.00025982,0.00075024,0.0004032,0,0,0.01938,-0.0063754,0,0.010483,0,0,0,0.0023224,0.00017844,0.00075024,10.885,0.0010837,0.0019232,2.7246e-10,0.88,0.06,0
0.04834,0.049637,0.0021654,0.00030169,0.00074012,0.0002641,0,0,0.018528,-0.0056997,0,0.0068667,0,0,0,0.0022064,0.00026063,0.00074012,7.6748,0.0010691,0.0017563,2.2106e-10,0.9,0.06,0
0.048703,0.050012,0.0021079,0.00035783,0.00073971,0.00010748,0,0,0.017786,-0.0049645,0,0.0027946,0,0,0,0.0021218,0.00034392,0.00073971,3.2098,0.0010685,0.0016173,1.8297e-10,0.92,0.06,0
0.049051,0.050233,0.0020606,0.00043772,0.0007495,-6.5298e-05,0,0,0.017045,-0.0040532,0,-0.0016977,0,0,0,0.0020744,0.00042388,0.0007495,-2.6163,0.0010826,0.0015149,1.5741e-10,0.94,0.06,0
0.049385,0.050295,0.0020172,0.00055211,0.0007708,-0.0002469,0,0,0.016203,-0.0028429,0,-0.0064194,0,0,0,0.0020725,0.00049686,0.0007708,-9.5659,0.0011134,0.0014588,1.4477e-10,0.96,0.06,0
0.0497,0.050203,0.0019895,0.00069713,0.00080598,-0.00039156,0,0,0.015385,-0.001415,0,-0.010181,0,0,0,0.0021087,0.00057792,0.00080598,-15.817,0.0011642,0.0014314,1.4021e-10,0.98,0.06,0
0.049852,0.05012,0.0019828,0.000775,0.00082734,-0.00044463,0,0,0.015021,-0.00068044,0,-0.01156,0,0,0,0.0021332,0.00062454,0.00082734,-18.371,0.001195,0.0014192,1.3859e-10,1,0.06,0
0.00080533,0.00097125,0.010799,0.004237,0.0045107,0.0036948,0,0,0.081744,-0.0035583,0,0.096066,0,0,0,0.012462,0.0025734,0.0045107,24.232,0.0065155,0.0090777,3.2808e-08,0,0.08,0
0.0016349,0.0019868,0.010799,0.0037935,0.0043779,0.0036546,0,0,0.08348,-0.007597,0,0.095019,0,0,0,0.012367,0.0022257,0.0043779,23.19,0.0063236,0.0092576,3.3582e-08,0.02,0.08,0
0.0033392,0.0040764,0.01082,0.0029054,0.0041177,0.0035217,0,0,0.087135,-0.015761,0,0.091564,0,0,0,0.012174,0.0015518,0.0041177,20.938,0.0059479,0.0096024,3.4862e-08,0.04,0.08,0
0.0051203,0.0062305,0.010805,0.0021079,0.0038737,0.0032647,0,0,0.0901,-0.022955,0,0.084882,0,0,0,0.01191,0.0010023,0.0038737,18.523,0.0055954,0.0097942,3.4722e-08,0.06,0.08,0
0.0069432,0.008363,0.010668,0.0015051,0.0036519,0.0029214,0,0,0.091209,-0.027909,0,0.075957,0,0,0,0.011536,0.00063737,0.0036519,16.299,0.005275,0.0097477,3.2754e-08,0.08,0.08,0
0.0087687,0.010426,0.010421,0.0010802,0.0034503,0.0025814,0,0,0.090618,-0.030812,0,0.067116,0,0,0,0.0111,0.0004012,0.0034503,14.474,0.0049838,0.0095469,2.9866e-08,0.1,0.08,0
0.010568,0.0124,0.010104,0.00078269,0.0032659,0.0022869,0,0,0.088891,-0.032282,0,0.059459,0,0,0,0.010645,0.00024121,0.0032659,13.059,0.0047174,0.0092695,2.6764e-08,0.12,0.08,0
0.012324,0.014284,0.009756,0.00057345,0.0030988,0.0020471,0,0,0.086543,-0.03283,0,0.053226,0,0,0,0.0102,0.00012913,0.0030988,11.995,0.0044761,0.0089633,2.3819e-08,0.14,0.08,0
0.01403,0.01608,0.0094019,0.00042599,0.0029484,0.0018571,0,0,0.083896,-0.032791,0,0.048284,0,0,0,0.009778,4.9889e-05,0.0029484,11.211,0.0042588,0.0086511,2.1165e-08,0.16,0.08,0
0.01568,0.017793,0.0090536,0.00032299,0.002813,0.0017072,0,0,0.081128,-0.03237,0,0.044388,0,0,0,0.0093815,-4.9068e-06,0.002813,10.647,0.0040632,0.0083424,1.8815e-08,0.18,0.08,0
0.017275,0.019425,0.0087161,0.00025328,0.0026908,0.0015879,0,0,0.078329,-0.031688,0,0.041286,0,0,0,0.0090094,-3.9964e-05,0.0026908,10.248,0.0038867,0.0080397,1.6742e-08,0.2,0.08,0
0.018813,0.020977,0.0083908,0.00020968,0.0025801,0.0014902,0,0,0.075538,-0.030816,0,0.038744,0,0,0,0.0086583,-5.7819e-05,0.0025801,9.9685,0.0037269,0.0077419,1.4904e-08,0.22,0.08,0
0.020296,0.022451,0.0080771,0.00018748,0.0024794,0.0014061,0,0,0.07277,-0.029795,0,0.036558,0,0,0,0.0083243,-5.973e-05,0.0024794,9.7663,0.0035813,0.0074466,1.326e-08,0.24,0.08,0
0.021724,0.023843,0.0077741,0.00018334,0.0023872,0.0013286,0,0,0.070029,-0.028651,0,0.034543,0,0,0,0.0080038,-4.6332e-05,0.0023872,9.6008,0.0034482,0.0071509,1.1777e-08,0.26,0.08,0
0.023097,0.025151,0.0074807,0.00019448,0.0023026,0.0012516,0,0,0.067316,-0.027405,0,0.032541,0,0,0,0.0076934,-1.8232e-05,0.0023026,9.431,0.0033259,0.0068526,1.0428e-08,0.28,0.08,0
0.024417,0.02637,0.0071962,0.00021792,0.0022242,0.0011698,0,0,0.064636,-0.026082,0,0.030415,0,0,0,0.0073908,2.3365e-05,0.0022242,9.2141,0.0032128,0.0065504,9.1961e-09,0.3,0.08,0
0.025683,0.027495,0.0069205,0.00024999,0.0021511,0.0010791,0,0,0.062001,-0.024715,0,0.028057,0,0,0,0.0070945,7.6005e-05,0.0021511,8.9066,0.0031072,0.0062451,8.0701e-09,0.32,0.08,0
0.026897,0.02852,0.0066537,0.00028591,0.0020819,0.00097701,0,0,0.059434,-0.023348,0,0.025402,0,0,0,0.0068042,0.00013542,0.0020819,8.467,0.0030072,0.0059398,7.0477e-09,0.34,0.08,0
0.02806,0.02944,0.0063965,0.00031973,0.0020149,0.00086301,0,0,0.056961,-0.022037,0,0.022438,0,0,0,0.0065209,0.00019529,0.0020149,7.862,0.0029104,0.0056405,6.1312e-09,0.36,0.08,0
0.029175,0.030252,0.0061494,0.00034468,0.0019482,0.000739,0,0,0.054615,-0.020846,0,0.019214,0,0,0,0.0062466,0.00024747,0.0019482,7.0751,0.0028141,0.0053554,5.3251e-09,0.38,0.08,0
0.030245,0.030957,0.005913,0.00035374,0.00188,0.00060919,0,0,0.052429,-0.019842,0,0.015839,0,0,0,0.0059839,0.00028284,0.00188,6.1167,0.0027156,0.0050939,4.6334e-09,0.4,0.08,0
0.031272,0.031559,0.0056882,0.00034003,0.0018085,0.00047993,0,0,0.050436,-0.01909,0,0.012478,0,0,0,0.005736,0.00029222,0.0018085,5.033,0.0026122,0.0048662,4.0573e-09,0.42,0.08,0
0.032262,0.032066,0.005476,0.00029634,0.0017317,0.00035988,0,0,0.048676,-0.01866,0,0.009357,0,0,0,0.0055058,0.00026656,0.0017317,3.9174,0.0025014,0.004682,3.5942e-09,0.44,0.08,0
0.033219,0.032495,0.0052766,0.00021617,0.0016478,0.00026111,0,0,0.047174,-0.018611,0,0.006789,0,0,0,0.0052943,0.00019846,0.0016478,2.9263,0.0023802,0.0045479,3.2341e-09,0.46,0.08,0
0.034149,0.032869,0.0050867,0.00010077,0.0015562,0.00019849,0,0,0.045896,-0.018921,0,0.0051608,0,0,0,0.0050982,8.9303e-05,0.0015562,2.2696,0.0022479,0.0044603,2.9531e-09,0.48,0.08,0
0.035055,0.033221,0.004901,-3.0478e-05,0.0014612,0.00018364,0,0,0.044718,-0.019391,0,0.0047746,0,0,0,0.0049113,-4.0783e-05,0.0014612,2.13,0.0021106,0.0043981,2.7148e-09,0.5,0.08,0
0.035938,0.033583,0.0047149,-0.00014266,0.0013717,0.0002153,0,0,0.043462,-0.019687,0,0.0055977,0,0,0,0.0047286,-0.00015633,0.0013717,2.5431,0.0019813,0.0043283,2.4855e-09,0.52,0.08,0
0.036794,0.033989,0.0045278,-0.00020947,0.0012955,0.00027671,0,0,0.04202,-0.019565,0,0.0071945,0,0,0,0.0045489,-0.00023047,0.0012955,3.3597,0.0018713,0.0042283,2.2523e-09,0.54,0.08,0
0.037619,0.03446,0.0043442,-0.000233,0.0012333,0.00034623,0,0,0.040441,-0.019063,0,0.0090019,0,0,0,0.0043753,-0.0002641,0.0012333,4.3484,0.0017815,0.0041012,2.0247e-09,0.56,0.08,0
0.038411,0.035008,0.0041731,-0.00023608,0.0011811,0.00041093,0,0,0.038895,-0.018423,0,0.010684,0,0,0,0.0042155,-0.00027854,0.0011811,5.3369,0.001706,0.0039709,1.8223e-09,0.58,0.08,0
0.039175,0.035638,0.0040237,-0.00024164,0.0011346,0.0004713,0,0,0.037558,-0.017891,0,0.012254,0,0,0,0.0040787,-0.00029667,0.0011346,6.2857,0.0016389,0.0038641,1.6608e-09,0.6,0.08,0
0.039914,0.036354,0.0038997,-0.00025921,0.0010921,0.00053641,0,0,0.036498,-0.017568,0,0.013947,0,0,0,0.0039706,-0.00033008,0.0010921,7.2737,0.0015775,0.0037951,1.5441e-09,0.62,0.08,0
0.040635,0.037159,0.0037966,-0.00028188,0.0010544,0.00061521,0,0,0.035649,-0.017372,0,0.015995,0,0,0,0.0038899,-0.00037514,0.0010544,8.418,0.0015231,0.0037601,1.4647e-09,0.64,0.08,0
0.04134,0.038053,0.0037051,-0.00029145,0.0010241,0.00070895,0,0,0.034853,-0.017102,0,0.018433,0,0,0,0.0038297,-0.00041604,0.0010241,9.7781,0.0014792,0.00374,1.4078e-09,0.66,0.08,0
0.042029,0.039032,0.0036153,-0.00027086,0.0010033,0.00080839,0,0,0.033956,-0.016565,0,0.021018,0,0,0,0.0037794,-0.00043498,0.0010033,11.3,0.0014493,0.0037108,1.3576e-09,0.68,0.08,0
0.042698,0.040084,0.0035203,-0.0002171,0.00099097,0.00089821,0,0,0.032882,-0.015705,0,0.023353,0,0,0,0.0037275,-0.00042426,0.00099097,12.838,0.0014314,0.0036559,1.3008e-09,0.7,0.08,0
0.043344,0.041188,0.0034173,-0.00014104,0.00098289,0.00096511,0,0,0.031648,-0.014611,0,0.025093,0,0,0,0.0036643,-0.00038802,0.00098289,14.237,0.0014197,0.0035702,1.2297e-09,0.72,0.08,0
0.043964,0.04232,0.0033076,-5.6229e-05,0.00097541,0.0010021,0,0,0.030318,-0.013411,0,0.026054,0,0,0,0.003585,-0.00033366,0.00097541,15.386,0.0014089,0.0034555,1.1424e-09,0.74,0.08,0
0.044557,0.043454,0.0031945,2.8336e-05,0.00096685,0.0010072,0,0,0.028959,-0.012201,0,0.026188,0,0,0,0.0034888,-0.00026596,0.00096685,16.218,0.0013966,0.003315,1.0415e-09,0.76,0.08,0
0.045122,0.044565,0.0030818,0.00010775,0.00095686,0.00098118,0,0,0.027624,-0.011038,0,0.025511,0,0,0,0.003377,-0.00018744,0.00095686,16.684,0.0013821,0.0031522,9.3083e-10,0.78,0.08,0
0.045662,0.045627,0.002973,0.00017912,0.00094564,0.00092598,0,0,0.026356,-0.0099647,0,0.024075,0,0,0,0.0032525,-0.00010035,0.00094564,16.732,0.0013659,0.0029714,8.1576e-10,0.8,0.08,0
0.046176,0.046619,0.0028714,0.00024132,0.00093383,0.00084466,0,0,0.025189,-0.0090026,0,0.021961,0,0,0,0.0031198,-7.066e-06,0.00093383,16.302,0.0013489,0.0027788,7.0207e-10,0.82,0.08,0
0.046669,0.04752,0.0027799,0.00029545,0.00092259,0.00074078,0,0,0.024144,-0.0081528,0,0.01926,0,0,0,0.0029848,9.0498e-05,0.00092259,15.33,0.0013326,0.0025812,5.9515e-10,0.84,0.08,0
0.047142,0.048313,0.0026999,0.0003449,0.00091343,0.00061758,0,0,0.023224,-0.0073909,0,0.016057,0,0,0,0.0028536,0.0001912,0.00091343,13.737,0.0013194,0.0023851,4.9886e-10,0.86,0.08,0
0.047598,0.048983,0.0026316,0.00039491,0.00090794,0.00047752,0,0,0.022407,-0.0066694,0,0.012415,0,0,0,0.002732,0.00029449,0.00090794,11.421,0.0013115,0.0021964,4.1523e-10,0.88,0.08,0
0.048039,0.049519,0.0025731,0.00045207,0.00090755,0.00032229,0,0,0.021652,-0.0059213,0,0.0083796,0,0,0,0.0026254,0.00039972,0.00090755,8.2594,0.0013109,0.0020208,3.4492e-10,0.9,0.08,0
0.048464,0.049911,0.0025208,0.00052385,0.00091341,0.00015395,0,0,0.020897,-0.0050643,0,0.0040028,0,0,0,0.0025395,0.00050522,0.00091341,4.1262,0.0013194,0.0018647,2.8805e-10,0.92,0.08,0
0.048874,0.050151,0.0024709,0.00061755,0.00092653,-2.3377e-05,0,0,0.020077,-0.0040167,0,-0.0006078,0,0,0,0.0024809,0.0006075,0.00092653,-1.0293,0.0013383,0.0017367,2.4515e-10,0.94,0.08,0
0.049267,0.050239,0.0024212,0.0007351,0.00094689,-0.00020278,0,0,0.019166,-0.0027533,0,-0.0052723,0,0,0,0.0024578,0.00069855,0.00094689,-7.0509,0.0013677,0.0016497,2.1789e-10,0.96,0.08,0
0.049641,0.050176,0.0023867,0.00087201,0.00097762,-0.00034304,0,0,0.018318,-0.0013729,0,-0.0089191,0,0,0,0.002469,0.00078973,0.00097762,-12.421,0.0014121,0.0015944,2.0186e-10,0.98,0.08,0
0.049823,0.050106,0.0023771,0.00094456,0.00099649,-0.0003941,0,0,0.017948,-0.00067513,0,-0.010247,0,0,0,0.002482,0.00083963,0.00099649,-14.601,0.0014394,0.0015705,1.9527e-10,1,0.08,0
0.00075417,0.00091313,0.010129,0.0040582,0.0042562,0.0034959,0,0,0.076347,-0.0025735,0,0.090895,0,0,0,0.011725,0.0024623,0.0042562,24.533,0.0061478,0.0085093,2.7064e-08,0,0.1,0
0.001527,0.0018612,0.010145,0.0037367,0.0041645,0.003488,0,0,0.077747,-0.0055619,0,0.090687,0,0,0,0.011681,0.0022007,0.0041645,23.762,0.0060154,0.0086687,2.7827e-08,0.02,0.1,0
0.0031099,0.0038098,0.010203,0.0030663,0.0039807,0.0034429,0,0,0.080887,-0.011888,0,0.089515,0,0,0,0.0116,0.0016695,0.0039807,22.055,0.0057499,0.0090015,2.9355e-08,0.04,0.1,0
0.0047624,0.0058289,0.010251,0.0023983,0.0037947,0.0033084,0,0,0.083929,-0.018154,0,0.086019,0,0,0,0.011468,0.0011814,0.0037947,20.116,0.0054812,0.0092614,3.0152e-08,0.06,0.1,0
0.006467,0.0078572,0.010218,0.001822,0.0036121,0.0030838,0,0,0.085882,-0.023272,0,0.08018,0,0,0,0.011239,0.00080186,0.0036121,18.186,0.0052175,0.0093543,2.963e-08,0.08,0.1,0
0.0081977,0.0098508,0.0101,0.001369,0.0034407,0.0028263,0,0,0.086572,-0.026933,0,0.073483,0,0,0,0.010943,0.00052555,0.0034407,16.476,0.0049699,0.0093095,2.8178e-08,0.1,0.1,0
0.0099299,0.011785,0.0099109,0.0010272,0.0032814,0.0025772,0,0,0.086184,-0.029305,0,0.067009,0,0,0,0.010612,0.00032644,0.0032814,15.063,0.0047398,0.0091721,2.6233e-08,0.12,0.1,0
0.011645,0.013648,0.0096746,0.00077337,0.0031344,0.0023572,0,0,0.085023,-0.030693,0,0.061286,0,0,0,0.010266,0.00018169,0.0031344,13.944,0.0045275,0.0089801,2.412e-08,0.14,0.1,0
0.013331,0.015438,0.0094121,0.00058701,0.0029997,0.0021716,0,0,0.083361,-0.031365,0,0.056462,0,0,0,0.0099225,7.6567e-05,0.0029997,13.085,0.0043329,0.0087583,2.2028e-08,0.16,0.1,0
0.014979,0.017153,0.0091375,0.00045254,0.002877,0.0020186,0,0,0.081386,-0.031518,0,0.052482,0,0,0,0.009588,2.0679e-06,0.002877,12.444,0.0041557,0.0085203,2.0045e-08,0.18,0.1,0
0.016586,0.018794,0.0088592,0.00035896,0.0027654,0.0018927,0,0,0.079219,-0.031284,0,0.049209,0,0,0,0.0092653,-4.7096e-05,0.0027654,11.977,0.0039945,0.0082728,1.82e-08,0.2,0.1,0
0.018148,0.020361,0.0085814,0.00029871,0.002664,0.0017875,0,0,0.076926,-0.030749,0,0.046475,0,0,0,0.008954,-7.3866e-05,0.002664,11.644,0.0038481,0.0080176,1.6492e-08,0.22,0.1,0
0.019663,0.021852,0.0083058,0.0002666,0.0025717,0.0016964,0,0,0.074543,-0.029967,0,0.044106,0,0,0,0.0086521,-7.9734e-05,0.0025717,11.409,0.0037147,0.007754,1.4904e-08,0.24,0.1,0
0.02113,0.023266,0.0080325,0.00025879,0.0024874,0.0016128,0,0,0.072087,-0.028972,0,0.041934,0,0,0,0.0083568,-6.5442e-05,0.0024874,11.233,0.0035929,0.00748,1.3419e-08,0.26,0.1,0
0.022547,0.024599,0.007761,0.00027198,0.0024099,0.0015307,0,0,0.069565,-0.027793,0,0.039798,0,0,0,0.0080647,-3.1671e-05,0.0024099,11.078,0.003481,0.0071934,1.202e-08,0.28,0.1,0
0.023913,0.025844,0.0074908,0.00030249,0.002338,0.0014443,0,0,0.066986,-0.026461,0,0.037551,0,0,0,0.0077731,2.0178e-05,0.002338,10.903,0.0033771,0.0068928,1.0696e-08,0.3,0.1,0
0.025226,0.026997,0.0072215,0.00034547,0.0022701,0.001349,0,0,0.064368,-0.02502,0,0.035073,0,0,0,0.0074799,8.7087e-05,0.0022701,10.662,0.003279,0.0065788,9.4427e-09,0.32,0.1,0
0.026487,0.02805,0.0069533,0.00039428,0.0022043,0.0012416,0,0,0.061738,-0.02353,0,0.032283,0,0,0,0.0071841,0.00016354,0.0022043,10.312,0.003184,0.0062551,8.2663e-09,0.34,0.1,0
0.027696,0.028998,0.0066868,0.00044035,0.0021381,0.0011216,0,0,0.059132,-0.022071,0,0.029161,0,0,0,0.0068861,0.00024103,0.0021381,9.8124,0.0030884,0.0059288,7.1789e-09,0.36,0.1,0
0.028853,0.029836,0.006422,0.00047385,0.0020688,0.00099096,0,0,0.056592,-0.020734,0,0.025765,0,0,0,0.0065874,0.00030846,0.0020688,9.143,0.0029882,0.0056099,6.1957e-09,0.38,0.1,0
0.029959,0.030563,0.0061584,0.00048511,0.0019931,0.00085486,0,0,0.054149,-0.019603,0,0.022226,0,0,0,0.0062897,0.00035378,0.0019931,8.3107,0.0028789,0.0053097,5.3288e-09,0.4,0.1,0
0.031019,0.03118,0.005895,0.00046583,0.0019083,0.00072009,0,0,0.051828,-0.018752,0,0.018722,0,0,0,0.0059949,0.0003659,0.0019083,7.3548,0.0027564,0.0050382,4.5829e-09,0.42,0.1,0
0.032033,0.031697,0.0056328,0.00040911,0.0018126,0.00059439,0,0,0.049663,-0.018245,0,0.015454,0,0,0,0.0057063,0.00033564,0.0018126,6.3467,0.0026182,0.0048055,3.9584e-09,0.44,0.1,0
0.033005,0.032127,0.0053739,0.00030469,0.0017036,0.00048803,0,0,0.047714,-0.018185,0,0.012689,0,0,0,0.0054273,0.00025122,0.0017036,5.4046,0.0024607,0.0046244,3.4536e-09,0.46,0.1,0
0.033941,0.032494,0.005116,0.00014364,0.0015779,0.00041871,0,0,0.045995,-0.018645,0,0.010887,0,0,0,0.0051577,0.00010197,0.0015779,4.7537,0.0022792,0.0045033,3.0527e-09,0.48,0.1,0
0.034845,0.032833,0.0048543,-4.9e-05,0.0014416,0.00040547,0,0,0.044365,-0.019378,0,0.010542,0,0,0,0.0048946,-8.9325e-05,0.0014416,4.6788,0.0020823,0.0044224,2.7156e-09,0.5,0.1,0
0.035716,0.033189,0.0045885,-0.00020603,0.0013147,0.00044663,0,0,0.042559,-0.01977,0,0.011612,0,0,0,0.0046383,-0.00025586,0.0013147,5.2778,0.0018991,0.0043285,2.3963e-09,0.52,0.1,0
0.036547,0.033598,0.0043244,-0.00027741,0.0012141,0.00051195,0,0,0.040434,-0.01939,0,0.013311,0,0,0,0.0043906,-0.00034357,0.0012141,6.3106,0.0017537,0.0041792,2.0782e-09,0.54,0.1,0
0.037333,0.034082,0.0040739,-0.00027896,0.0011385,0.00056569,0,0,0.038161,-0.018427,0,0.014708,0,0,0,0.0041557,-0.0003607,0.0011385,7.3635,0.0016445,0.0039844,1.7797e-09,0.56,0.1,0
0.038074,0.034645,0.0038552,-0.00026212,0.0010779,0.00059425,0,0,0.036105,-0.017421,0,0.015451,0,0,0,0.0039466,-0.00035352,0.0010779,8.151,0.001557,0.0037928,1.5318e-09,0.58,0.1,0
0.038777,0.035287,0.0036867,-0.00026425,0.0010267,0.00060825,0,0,0.03458,-0.016783,0,0.015814,0,0,0,0.0037829,-0.00036043,0.0010267,8.6513,0.0014831,0.003653,1.3566e-09,0.6,0.1,0
0.039457,0.036009,0.0035745,-0.00029769,0.00098305,0.00062872,0,0,0.033689,-0.01665,0,0.016347,0,0,0,0.0036764,-0.00039961,0.00098305,9.0597,0.00142,0.0035904,1.2567e-09,0.62,0.1,0
0.040125,0.036814,0.003509,-0.00035126,0.00094732,0.00067594,0,0,0.033302,-0.016882,0,0.017574,0,0,0,0.0036252,-0.00046748,0.00094732,9.6755,0.0013684,0.0036004,1.2188e-09,0.64,0.1,0
0.040789,0.037711,0.0034731,-0.00039004,0.0009249,0.0007576,0,0,0.033126,-0.017094,0,0.019698,0,0,0,0.0036177,-0.00053464,0.0009249,10.708,0.001336,0.0036487,1.2216e-09,0.66,0.1,0
0.04145,0.038698,0.0034497,-0.00037677,0.00092188,0.00086119,0,0,0.032862,-0.016882,0,0.022391,0,0,0,0.0036363,-0.00056335,0.00092188,12.113,0.0013316,0.0036887,1.2424e-09,0.68,0.1,0
0.042103,0.039766,0.0034254,-0.00030493,0.00093615,0.00096152,0,0,0.032361,-0.016134,0,0.024999,0,0,0,0.0036603,-0.00053978,0.00093615,13.639,0.0013522,0.0036907,1.2596e-09,0.7,0.1,0
0.042744,0.040892,0.0033923,-0.00019886,0.00095802,0.0010379,0,0,0.031645,-0.015039,0,0.026987,0,0,0,0.0036718,-0.00047842,0.00095802,15.023,0.0013838,0.0036506,1.2574e-09,0.72,0.1,0
0.043369,0.042048,0.0033493,-8.2115e-05,0.00098014,0.0010821,0,0,0.030798,-0.013809,0,0.028135,0,0,0,0.0036627,-0.00039555,0.00098014,16.129,0.0014158,0.0035749,1.2299e-09,0.74,0.1,0
0.043976,0.043207,0.0032992,3.5364e-05,0.0010004,0.0010921,0,0,0.029885,-0.012545,0,0.028395,0,0,0,0.0036312,-0.00029666,0.0010004,16.901,0.001445,0.0034665,1.1762e-09,0.76,0.1,0
0.044565,0.044341,0.0032446,0.00014769,0.0010177,0.0010673,0,0,0.02895,-0.01131,0,0.027751,0,0,0,0.0035769,-0.00018463,0.0010177,17.288,0.00147,0.0033276,1.0979e-09,0.78,0.1,0
0.045134,0.045426,0.0031881,0.00024932,0.0010312,0.0010092,0,0,0.028039,-0.010165,0,0.02624,0,0,0,0.0035014,-6.3997e-05,0.0010312,17.229,0.0014895,0.0031636,9.9981e-10,0.8,0.1,0
0.045686,0.046437,0.003133,0.0003373,0.0010411,0.00092143,0,0,0.027195,-0.0091492,0,0.023957,0,0,0,0.0034097,6.0539e-05,0.0010411,16.667,0.0015038,0.0029827,8.9057e-10,0.82,0.1,0
0.046222,0.047355,0.0030817,0.0004124,0.0010482,0.00080892,0,0,0.026435,-0.0082659,0,0.021032,0,0,0,0.0033087,0.00018545,0.0010482,15.56,0.0015141,0.002794,7.7922e-10,0.84,0.1,0
0.046744,0.048163,0.0030351,0.00047893,0.0010542,0.00067665,0,0,0.025752,-0.0074788,0,0.017593,0,0,0,0.003205,0.00030912,0.0010542,13.874,0.0015228,0.002605,6.7276e-10,0.86,0.1,0
0.047252,0.048849,0.0029925,0.00054351,0.0010608,0.00052867,0,0,0.025112,-0.0067247,0,0.013745,0,0,0,0.0031045,0.00043146,0.0010608,11.569,0.0015323,0.0024211,5.7537e-10,0.88,0.1,0
0.047748,0.0494,0.0029515,0.00061362,0.0010695,0.00036818,0,0,0.024466,-0.005927,0,0.0095728,0,0,0,0.0030123,0.00055288,0.0010695,8.5912,0.0015449,0.0022467,4.891e-10,0.9,0.1,0
0.048231,0.049809,0.0029098,0.00069629,0.0010818,0.00019837,0,0,0.023763,-0.0050119,0,0.0051577,0,0,0,0.0029333,0.00067281,0.0010818,4.8778,0.0015626,0.0020869,4.1523e-10,0.92,0.1,0
0.048699,0.050072,0.0028654,0.00079607,0.0010984,2.3234e-05,0,0,0.02297,-0.0039307,0,0.00060409,0,0,0,0.0028736,0.00078785,0.0010984,0.39175,0.0015866,0.0019498,3.5552e-10,0.94,0.1,0
0.04915,0.050185,0.0028179,0.00091212,0.001119,-0.0001528,0,0,0.022085,-0.0026894,0,-0.0039727,0,0,0,0.0028403,0.0008897,0.001119,-4.8145,0.0016163,0.0018472,3.1283e-10,0.96,0.1,0
0.049582,0.050148,0.002784,0.0010442,0.0011485,-0.00029121,0,0,0.021262,-0.0013553,0,-0.0075715,0,0,0,0.0028381,0.00099014,0.0011485,-9.4712,0.0016589,0.0017748,2.8393e-10,0.98,0.1,0
0.049793,0.050093,0.0027747,0.0011148,0.0011668,-0.00034193,0,0,0.020902,-0.00067678,0,-0.0088902,0,0,0,0.0028451,0.0010444,0.0011668,-11.359,0.0016854,0.0017433,2.7168e-10,1,0.1,0
0.00071862,0.00086831,0.009658,0.0039126,0.0040712,0.0033339,0,0,0.072629,-0.0020618,0,0.086683,0,0,0,0.011187,0.0023836,0.0040712,24.634,0.0058806,0.0080932,2.3337e-08,0,0.12,0
0.0014526,0.0017643,0.0096788,0.0036598,0.0040016,0.0033394,0,0,0.073804,-0.0044435,0,0.086825,0,0,0,0.011167,0.0021716,0.0040016,24.018,0.00578,0.0082355,2.4021e-08,0.02,0.12,0
0.0029522,0.0036009,0.0097492,0.0031261,0.0038626,0.0033362,0,0,0.076526,-0.0095742,0,0.086741,0,0,0,0.011142,0.0017334,0.0038626,22.651,0.0055793,0.0085466,2.5513e-08,0.04,0.12,0
0.0045136,0.0055044,0.0098267,0.002568,0.0037184,0.0032734,0,0,0.079408,-0.014956,0,0.08511,0,0,0,0.01109,0.0013048,0.0037184,21.066,0.005371,0.0088302,2.6677e-08,0.06,0.12,0
0.0061285,0.0074321,0.0098517,0.0020464,0.0035694,0.0031351,0,0,0.081669,-0.019799,0,0.081512,0,0,0,0.01096,0.00093762,0.0035694,19.419,0.0051558,0.0090009,2.6951e-08,0.08,0.12,0
0.0077804,0.0093482,0.0098133,0.0016013,0.0034244,0.0029534,0,0,0.083056,-0.0237,0,0.07679,0,0,0,0.01077,0.00064416,0.0034244,17.883,0.0049463,0.0090623,2.6452e-08,0.1,0.12,0
0.0094507,0.011228,0.0097148,0.0012415,0.0032869,0.0027596,0,0,0.083563,-0.02659,0,0.071748,0,0,0,0.010539,0.00041737,0.0032869,16.547,0.0047478,0.0090355,2.5411e-08,0.12,0.12,0
0.011123,0.013056,0.0095679,0.00095981,0.0031583,0.0025744,0,0,0.083324,-0.028581,0,0.066935,0,0,0,0.010283,0.00024461,0.0031583,15.441,0.004562,0.008945,2.4052e-08,0.14,0.12,0
0.012784,0.014826,0.0093865,0.00074413,0.0030392,0.0024087,0,0,0.082515,-0.029836,0,0.062627,0,0,0,0.010016,0.00011474,0.0030392,14.56,0.0043899,0.0088108,2.2544e-08,0.16,0.12,0
0.014424,0.016532,0.0091826,0.00058318,0.0029297,0.0022658,0,0,0.081287,-0.030505,0,0.05891,0,0,0,0.0097459,1.9851e-05,0.0029297,13.881,0.0042318,0.0086466,2.0993e-08,0.18,0.12,0
0.016035,0.018173,0.0089647,0.00046785,0.0028298,0.0021444,0,0,0.079754,-0.030705,0,0.055753,0,0,0,0.0094777,-4.5144e-05,0.0028298,13.374,0.0040874,0.00846,1.9456e-08,0.2,0.12,0
0.017614,0.019747,0.0087379,0.00039134,0.0027388,0.002041,0,0,0.077988,-0.030516,0,0.053065,0,0,0,0.0092124,-8.3226e-05,0.0027388,13.011,0.003956,0.0082547,1.7958e-08,0.22,0.12,0
0.019155,0.021252,0.0085048,0.00034874,0.0026561,0.0019509,0,0,0.076034,-0.029995,0,0.050723,0,0,0,0.0089495,-9.5939e-05,0.0026561,12.76,0.0038365,0.0080312,1.6504e-08,0.24,0.12,0
0.020655,0.022685,0.0082664,0.00033628,0.0025808,0.0018687,0,0,0.073912,-0.029179,0,0.048585,0,0,0,0.0086866,-8.4005e-05,0.0025808,12.591,0.0037278,0.007788,1.5086e-08,0.26,0.12,0
0.022111,0.02404,0.0080223,0.00035059,0.0025119,0.0017887,0,0,0.071635,-0.028096,0,0.046505,0,0,0,0.0084209,-4.8008e-05,0.0025119,12.47,0.0036282,0.007523,1.3697e-08,0.28,0.12,0
0.02352,0.025312,0.007772,0.00038771,0.0024479,0.0017052,0,0,0.069213,-0.026783,0,0.044335,0,0,0,0.008149,1.0744e-05,0.0024479,12.36,0.0035359,0.0072344,1.2331e-08,0.3,0.12,0
0.02488,0.026494,0.0075154,0.00044197,0.0023872,0.0016129,0,0,0.066666,-0.025288,0,0.041936,0,0,0,0.0078683,8.9047e-05,0.0023872,12.217,0.0034482,0.0069225,1.099e-08,0.32,0.12,0
0.026187,0.027578,0.0072527,0.00050493,0.0023273,0.0015079,0,0,0.06403,-0.023691,0,0.039206,0,0,0,0.0075772,0.0001804,0.0023273,11.992,0.0033616,0.0065911,9.6856e-09,0.34,0.12,0
0.027441,0.028557,0.0069849,0.00056481,0.0022649,0.0013889,0,0,0.06136,-0.022101,0,0.036112,0,0,0,0.0072759,0.00027381,0.0022649,11.64,0.0032715,0.0062492,8.4441e-09,0.36,0.12,0
0.028641,0.029423,0.0067125,0.00060739,0.002196,0.0012587,0,0,0.058715,-0.020652,0,0.032727,0,0,0,0.0069658,0.00035403,0.002196,11.135,0.0031719,0.0059102,7.2962e-09,0.38,0.12,0
0.02979,0.030173,0.0064336,0.00061862,0.0021157,0.0011245,0,0,0.056133,-0.019462,0,0.029238,0,0,0,0.0066482,0.00040401,0.0021157,10.493,0.003056,0.0055886,6.2671e-09,0.4,0.12,0
0.030887,0.030809,0.0061433,0.00058852,0.0020196,0.00099625,0,0,0.053609,-0.018603,0,0.025902,0,0,0,0.0063222,0.0004096,0.0020196,9.7772,0.0029171,0.0052945,5.3639e-09,0.42,0.12,0
0.031934,0.031336,0.0058341,0.00051165,0.0019037,0.00088221,0,0,0.051095,-0.018097,0,0.022937,0,0,0,0.0059837,0.00036209,0.0019037,9.0716,0.0027498,0.0050312,4.5723e-09,0.44,0.12,0
0.032931,0.031768,0.0055077,0.00038504,0.0017678,0.00078896,0,0,0.048618,-0.017976,0,0.020513,0,0,0,0.0056359,0.00025686,0.0017678,8.4602,0.0025535,0.0048053,3.887e-09,0.46,0.12,0
0.033879,0.032124,0.0051648,0.00018401,0.0016046,0.0007287,0,0,0.046282,-0.018468,0,0.018946,0,0,0,0.0052808,6.8069e-05,0.0016046,8.0653,0.0023178,0.0046399,3.3117e-09,0.48,0.12,0
0.034782,0.032445,0.0047951,-8.4348e-05,0.0014132,0.0007274,0,0,0.043964,-0.019468,0,0.018912,0,0,0,0.0049151,-0.00020435,0.0014132,8.2199,0.0020413,0.0045336,2.8146e-09,0.5,0.12,0
0.035637,0.032793,0.0044132,-0.00028609,0.0012381,0.0007856,0,0,0.041276,-0.019815,0,0.020425,0,0,0,0.0045592,-0.00043205,0.0012381,9.2019,0.0017884,0.0044014,2.3542e-09,0.52,0.12,0
0.036433,0.033214,0.0040454,-0.0003223,0.0011169,0.00084465,0,0,0.03807,-0.01871,0,0.021961,0,0,0,0.0042235,-0.0005004,0.0011169,10.625,0.0016134,0.0041586,1.9155e-09,0.54,0.12,0
0.03716,0.033723,0.0037071,-0.00026919,0.0010314,0.00085222,0,0,0.034784,-0.016907,0,0.022158,0,0,0,0.0039005,-0.0004626,0.0010314,11.743,0.0014898,0.0038408,1.5194e-09,0.56,0.12,0
0.037824,0.034311,0.0034307,-0.00022461,0.00096183,0.00080983,0,0,0.032095,-0.015424,0,0.021056,0,0,0,0.003616,-0.00040988,0.00096183,12.14,0.0013893,0.0035451,1.2127e-09,0.58,0.12,0
0.038444,0.034967,0.0032457,-0.00022282,0.00090686,0.00074513,0,0,0.030405,-0.014686,0,0.019373,0,0,0,0.0034076,-0.0003847,0.00090686,11.819,0.0013099,0.0033394,1.0186e-09,0.6,0.12,0
0.039041,0.035688,0.003156,-0.00027527,0.00086421,0.00068941,0,0,0.029793,-0.014813,0,0.017925,0,0,0,0.0032932,-0.00041245,0.00086421,11.089,0.0012483,0.0032605,9.2792e-10,0.62,0.12,0
0.039636,0.036484,0.0031445,-0.00037838,0.00082985,0.00067455,0,0,0.030091,-0.015707,0,0.017538,0,0,0,0.0032703,-0.00050413,0.00082985,10.525,0.0011987,0.0033154,9.2162e-10,0.64,0.12,0
0.040244,0.03737,0.0031828,-0.00048166,0.00081033,0.00072454,0,0,0.030842,-0.016796,0,0.018838,0,0,0,0.0033218,-0.00062064,0.00081033,10.756,0.0011705,0.0034569,9.7636e-10,0.66,0.12,0
0.040869,0.038357,0.0032487,-0.00049706,0.00082551,0.00082798,0,0,0.031502,-0.017193,0,0.021527,0,0,0,0.0034255,-0.00067386,0.00082551,11.885,0.0011924,0.0035928,1.0684e-09,0.68,0.12,0
0.041504,0.039438,0.0033186,-0.00040725,0.00087341,0.00094138,0,0,0.031788,-0.016649,0,0.024476,0,0,0,0.003545,-0.00063363,0.00087341,13.389,0.0012616,0.0036655,1.1675e-09,0.7,0.12,0
0.042141,0.040586,0.0033713,-0.00027149,0.00092993,0.001033,0,0,0.031737,-0.015618,0,0.026858,0,0,0,0.0036454,-0.0005456,0.00092993,14.781,0.0013432,0.0036822,1.2462e-09,0.72,0.12,0
0.042774,0.041768,0.0034047,-0.00012303,0.00098451,0.0010932,0,0,0.031463,-0.014398,0,0.028424,0,0,0,0.0037171,-0.00043538,0.00098451,15.908,0.0014221,0.0036557,1.293e-09,0.74,0.12,0
0.043399,0.042953,0.0034211,3.252e-05,0.0010361,0.0011174,0,0,0.031005,-0.013046,0,0.029052,0,0,0,0.0037569,-0.00030332,0.0010361,16.72,0.0014966,0.0035837,1.2997e-09,0.76,0.12,0
0.044014,0.044112,0.0034216,0.00018449,0.0010818,0.0011017,0,0,0.030417,-0.011665,0,0.028644,0,0,0,0.0037612,-0.00015511,0.0010818,17.134,0.0015626,0.0034678,1.2616e-09,0.78,0.12,0
0.044616,0.045221,0.0034117,0.00032219,0.0011202,0.0010466,0,0,0.02979,-0.010374,0,0.027212,0,0,0,0.0037331,7.8018e-07,0.0011202,17.06,0.001618,0.0033178,1.1852e-09,0.8,0.12,0
0.045206,0.046253,0.0033967,0.00043928,0.0011508,0.00095749,0,0,0.029197,-0.0092498,0,0.024895,0,0,0,0.0036802,0.00015577,0.0011508,16.445,0.0016623,0.0031477,1.0841e-09,0.82,0.12,0
0.045784,0.047189,0.0033802,0.00053623,0.0011749,0.00084193,0,0,0.028668,-0.0083029,0,0.02189,0,0,0,0.0036119,0.00030448,0.0011749,15.28,0.0016971,0.00297,9.7276e-10,0.84,0.12,0
0.046352,0.048014,0.0033628,0.00061895,0.0011945,0.00070722,0,0,0.028188,-0.0074825,0,0.018388,0,0,0,0.0035363,0.00044546,0.0011945,13.582,0.0017254,0.0027933,8.615e-10,0.86,0.12,0
0.046911,0.048714,0.0033435,0.00069601,0.0012118,0.00055885,0,0,0.027711,-0.0067057,0,0.01453,0,0,0,0.0034593,0.00058015,0.0012118,11.367,0.0017504,0.0026216,7.5589e-10,0.88,0.12,0
0.047461,0.049282,0.0033199,0.00077606,0.0012288,0.00040065,0,0,0.027185,-0.0058856,0,0.010417,0,0,0,0.0033852,0.0007108,0.0012288,8.633,0.0017749,0.0024573,6.5834e-10,0.9,0.12,0
0.047999,0.04971,0.0032904,0.00086594,0.0012469,0.00023559,0,0,0.026565,-0.0049525,0,0.0061254,0,0,0,0.0033179,0.00083844,0.0012469,5.348,0.0018011,0.0023032,5.7048e-10,0.92,0.12,0
0.048523,0.049994,0.003254,0.00096918,0.001267,6.6384e-05,0,0,0.025832,-0.0038711,0,0.001726,0,0,0,0.0032623,0.00096088,0.001267,1.467,0.0018301,0.0021653,4.9483e-10,0.94,0.12,0
0.049032,0.050132,0.0032114,0.001085,0.0012889,-0.0001046,0,0,0.024993,-0.0026515,0,-0.0027196,0,0,0,0.0032249,0.0010715,0.0012889,-3.03,0.0018618,0.0020538,4.3541e-10,0.96,0.12,0
0.049523,0.050121,0.0031803,0.0012154,0.0013187,-0.00024024,0,0,0.0242,-0.0013427,0,-0.0062463,0,0,0,0.0032145,0.0011812,0.0013187,-7.0581,0.0019048,0.0019688,3.9128e-10,0.98,0.12,0
0.049764,0.050079,0.0031719,0.0012853,0.0013371,-0.00029021,0,0,0.023851,-0.00067412,0,-0.0075456,0,0,0,0.0032175,0.0012396,0.0013371,-8.6845,0.0019314,0.0019314,3.722e-10,1,0.12,0
0.00069287,0.00083066,0.0093141,0.0037957,0.0039329,0.0031942,0,0,0.069955,-0.0017845,0,0.083049,0,0,0,0.010776,0.0023333,0.0039329,24.595,0.0056809,0.0077682,2.0707e-08,0,0.14,0
0.0013991,0.0016835,0.0093361,0.0035827,0.0038757,0.0032054,0,0,0.070986,-0.0038083,0,0.08334,0,0,0,0.010768,0.002151,0.0038757,24.068,0.0055982,0.007898,2.1316e-08,0.02,0.14,0
0.0028394,0.0034268,0.0094109,0.0031352,0.0037638,0.0032225,0,0,0.073412,-0.0081725,0,0.083784,0,0,0,0.010773,0.001773,0.0037638,22.913,0.0054366,0.0081893,2.271e-08,0.04,0.14,0
0.0043356,0.0052306,0.0095031,0.0026595,0.0036488,0.0032017,0,0,0.076106,-0.012861,0,0.083243,0,0,0,0.01077,0.0013921,0.0036488,21.58,0.0052704,0.0084791,2.4006e-08,0.06,0.14,0
0.0058837,0.0070652,0.0095608,0.0021937,0.0035264,0.0031222,0,0,0.078448,-0.017324,0,0.081177,0,0,0,0.010709,0.0010451,0.0035264,20.169,0.0050936,0.008694,2.4717e-08,0.08,0.14,0
0.0074735,0.0089028,0.0095732,0.0017733,0.0034039,0.003001,0,0,0.0802,-0.021198,0,0.078027,0,0,0,0.010598,0.00074892,0.0034039,18.808,0.0049168,0.0088263,2.484e-08,0.1,0.14,0
0.0090917,0.010721,0.0095379,0.0014146,0.0032857,0.0028589,0,0,0.081278,-0.024325,0,0.07433,0,0,0,0.010446,0.00050625,0.0032857,17.581,0.004746,0.0088828,2.4471e-08,0.12,0.14,0
0.010725,0.012505,0.0094595,0.0011201,0.0031739,0.0027129,0,0,0.081713,-0.026699,0,0.070536,0,0,0,0.010267,0.00031259,0.0031739,16.528,0.0045845,0.0088768,2.3745e-08,0.14,0.14,0
0.01236,0.014244,0.009346,0.00088572,0.0030695,0.0025748,0,0,0.081594,-0.028389,0,0.066944,0,0,0,0.01007,0.00016152,0.0030695,15.662,0.0044337,0.0088218,2.2783e-08,0.16,0.14,0
0.013988,0.015932,0.0092057,0.00070495,0.0029732,0.0024504,0,0,0.081023,-0.029487,0,0.063709,0,0,0,0.0098633,4.7374e-05,0.0029732,14.975,0.0042946,0.0087289,2.1682e-08,0.18,0.14,0
0.015601,0.017565,0.0090456,0.00057154,0.0028852,0.0023415,0,0,0.080086,-0.030077,0,0.060879,0,0,0,0.0096511,-3.3956e-05,0.0028852,14.453,0.0041674,0.0086053,2.0503e-08,0.2,0.14,0
0.017192,0.01914,0.0088706,0.00048031,0.0028053,0.0022472,0,0,0.078849,-0.030224,0,0.058428,0,0,0,0.0094359,-8.5047e-05,0.0028053,14.076,0.004052,0.0084548,1.9282e-08,0.22,0.14,0
0.018755,0.020652,0.0086831,0.00042727,0.0027331,0.0021649,0,0,0.07735,-0.029976,0,0.056288,0,0,0,0.0092177,-0.00010724,0.0027331,13.822,0.0039478,0.0082786,1.8034e-08,0.24,0.14,0
0.020286,0.022099,0.0084843,0.00040931,0.0026681,0.0020905,0,0,0.075611,-0.029364,0,0.054354,0,0,0,0.0089947,-0.00010105,0.0026681,13.669,0.0038539,0.0080755,1.6762e-08,0.26,0.14,0
0.021779,0.023475,0.0082738,0.00042352,0.0026092,0.0020193,0,0,0.073639,-0.028414,0,0.052503,0,0,0,0.008764,-6.6762e-05,0.0026092,13.592,0.0037688,0.007843,1.5459e-08,0.28,0.14,0
0.023231,0.024773,0.0080506,0.00046631,0.0025551,0.0019457,0,0,0.071442,-0.027154,0,0.050588,0,0,0,0.0085221,-5.1757e-06,0.0025551,13.556,0.0036907,0.0075788,1.4122e-08,0.3,0.14,0
0.024637,0.025986,0.0078144,0.00053196,0.0025039,0.0018637,0,0,0.069037,-0.025635,0,0.048456,0,0,0,0.0082654,8.1025e-05,0.0025039,13.522,0.0036168,0.0072818,1.2753e-08,0.32,0.14,0
0.025993,0.027103,0.0075659,0.0006108,0.002453,0.0017679,0,0,0.066468,-0.023949,0,0.045965,0,0,0,0.0079916,0.00018517,0.002453,13.435,0.0035432,0.0069556,1.1368e-08,0.34,0.14,0
0.027296,0.028114,0.0073074,0.0006875,0.0023985,0.0016556,0,0,0.063816,-0.022243,0,0.043045,0,0,0,0.0077008,0.00029407,0.0023985,13.237,0.0034645,0.0066108,1.0005e-08,0.36,0.14,0
0.028546,0.02901,0.0070411,0.00074124,0.0023347,0.0015296,0,0,0.061183,-0.020715,0,0.039771,0,0,0,0.0073957,0.00038656,0.0023347,12.89,0.0033723,0.0062666,8.7203e-09,0.38,0.14,0
0.029743,0.029784,0.0067665,0.00075043,0.0022551,0.0014009,0,0,0.058648,-0.01956,0,0.036423,0,0,0,0.00708,0.00043694,0.0022551,12.415,0.0032573,0.0059462,7.568e-09,0.4,0.14,0
0.030891,0.030436,0.0064752,0.00069959,0.0021524,0.0012863,0,0,0.056196,-0.018887,0,0.033444,0,0,0,0.0067524,0.00042238,0.0021524,11.922,0.0031091,0.0056667,6.5687e-09,0.42,0.14,0
0.031991,0.030973,0.0061488,0.00058616,0.0020205,0.0012038,0,0,0.053668,-0.018646,0,0.031299,0,0,0,0.006403,0.00033196,0.0020205,11.593,0.0029185,0.0054276,5.6933e-09,0.44,0.14,0
0.033038,0.031408,0.0057521,0.00040827,0.0018481,0.0011608,0,0,0.050752,-0.018718,0,0.03018,0,0,0,0.0060015,0.00015888,0.0018481,11.587,0.0026695,0.0052084,4.8432e-09,0.46,0.14,0
0.034021,0.031755,0.0052636,0.0001389,0.0016207,0.0011784,0,0,0.047357,-0.019264,0,0.03064,0,0,0,0.0055411,-0.00013863,0.0016207,12.082,0.0023411,0.0050383,4.0025e-09,0.48,0.14,0
0.034932,0.032054,0.0047183,-0.00016716,0.0013653,0.0012523,0,0,0.043588,-0.019922,0,0.03256,0,0,0,0.0050557,-0.00050454,0.0013653,13.222,0.0019722,0.004903,3.2328e-09,0.5,0.14,0
0.035765,0.032396,0.0041567,-0.00031998,0.001151,0.0013083,0,0,0.039074,-0.019123,0,0.034016,0,0,0,0.004554,-0.00071729,0.001151,14.987,0.0016626,0.0046302,2.4793e-09,0.52,0.14,0
0.036495,0.03285,0.0036145,-0.00026825,0.0010039,0.0012903,0,0,0.033938,-0.016538,0,0.033547,0,0,0,0.0040465,-0.00070027,0.0010039,16.914,0.00145,0.0041654,1.7706e-09,0.54,0.14,0
0.037122,0.033406,0.0031625,-0.00016361,0.00089966,0.0011917,0,0,0.029417,-0.013822,0,0.030983,0,0,0,0.0035808,-0.00058192,0.00089966,18.062,0.0012995,0.0036549,1.2299e-09,0.56,0.14,0
0.037672,0.034028,0.002847,-0.00010402,0.00082289,0.0010407,0,0,0.026313,-0.01205,0,0.027059,0,0,0,0.003204,-0.00046108,0.00082289,17.939,0.0011886,0.0032213,8.7871e-10,0.58,0.14,0
0.038175,0.0347,0.0026604,-0.00010293,0.00076724,0.00087653,0,0,0.024611,-0.011312,0,0.02279,0,0,0,0.0029345,-0.00037704,0.00076724,16.6,0.0011082,0.0029132,6.7585e-10,0.6,0.14,0
0.038656,0.035416,0.0025931,-0.00016946,0.00072709,0.00072203,0,0,0.024258,-0.011655,0,0.018773,0,0,0,0.0027827,-0.00035908,0.00072709,14.189,0.0010502,0.0027637,5.8402e-10,0.62,0.14,0
0.039145,0.036186,0.0026479,-0.00031419,0.00070012,0.00060789,0,0,0.025322,-0.013186,0,0.015805,0,0,0,0.0027737,-0.00044,0.00070012,11.373,0.0010113,0.0028223,5.8924e-10,0.64,0.14,0
0.039669,0.037039,0.0027932,-0.00051646,0.00068301,0.00057659,0,0,0.027432,-0.015593,0,0.014991,0,0,0,0.0028961,-0.00061943,0.00068301,9.5296,0.00098658,0.0030789,6.7588e-10,0.66,0.14,0
0.040242,0.03801,0.0029815,-0.00063219,0.00070481,0.00065339,0,0,0.029598,-0.017381,0,0.016988,0,0,0,0.0031059,-0.00075654,0.00070481,9.7439,0.0010181,0.0033783,8.266e-10,0.68,0.14,0
0.040853,0.0391,0.003188,-0.00055491,0.00078993,0.00079813,0,0,0.031175,-0.017483,0,0.020751,0,0,0,0.0033602,-0.00072707,0.00078993,11.448,0.001141,0.0035791,1.0208e-09,0.7,0.14,0
0.041489,0.040267,0.0033705,-0.00038223,0.00089649,0.00093452,0,0,0.032163,-0.016623,0,0.024297,0,0,0,0.0035955,-0.00060725,0.00089649,13.223,0.0012949,0.0036887,1.2128e-09,0.72,0.14,0
0.04214,0.041472,0.0034993,-0.00019485,0.00099134,0.0010326,0,0,0.032604,-0.01542,0,0.026847,0,0,0,0.0037718,-0.00046737,0.00099134,14.624,0.0014319,0.0037305,1.3585e-09,0.74,0.14,0
0.042793,0.042685,0.0035822,8.9527e-06,0.0010773,0.001088,0,0,0.032563,-0.013889,0,0.028287,0,0,0,0.0038893,-0.00029818,0.0010773,15.703,0.0015561,0.0036972,1.437e-09,0.76,0.14,0
0.043442,0.043875,0.0036318,0.00021202,0.0011532,0.0010918,0,0,0.032223,-0.012235,0,0.028387,0,0,0,0.0039516,-0.00010779,0.0011532,16.307,0.0016657,0.0035991,1.4425e-09,0.78,0.14,0
0.044082,0.045011,0.0036607,0.00039379,0.0012163,0.0010456,0,0,0.031777,-0.010693,0,0.027186,0,0,0,0.0039674,8.7092e-05,0.0012163,16.323,0.0017569,0.0034574,1.3871e-09,0.8,0.14,0
0.044713,0.046067,0.0036789,0.00054321,0.0012666,0.00095908,0,0,0.031359,-0.0094044,0,0.024936,0,0,0,0.00395,0.00027212,0.0012666,15.721,0.0018296,0.0032957,1.2942e-09,0.82,0.14,0
0.045337,0.047023,0.0036915,0.0006615,0.0013059,0.00084474,0,0,0.031013,-0.0083772,0,0.021963,0,0,0,0.0039127,0.00044033,0.0013059,14.552,0.0018863,0.0031312,1.1859e-09,0.84,0.14,0
0.045954,0.047864,0.0036993,0.00075815,0.0013372,0.00071288,0,0,0.030707,-0.0075282,0,0.018535,0,0,0,0.0038651,0.00059233,0.0013372,12.899,0.0019316,0.0029718,1.0754e-09,0.86,0.14,0
0.046565,0.04858,0.0037005,0.00084498,0.0013636,0.00057007,0,0,0.030379,-0.0067426,0,0.014822,0,0,0,0.0038127,0.00073276,0.0013636,10.836,0.0019697,0.0028185,9.6759e-10,0.88,0.14,0
0.047169,0.049165,0.0036926,0.00093242,0.0013875,0.00041987,0,0,0.029967,-0.0059163,0,0.010917,0,0,0,0.0037582,0.00086684,0.0013875,8.3894,0.0020042,0.00267,8.6362e-10,0.9,0.14,0
0.047764,0.049611,0.0036743,0.0010278,0.0014106,0.00026419,0,0,0.029427,-0.0049767,0,0.006869,0,0,0,0.0037042,0.00099782,0.0014106,5.5387,0.0020376,0.002526,7.6432e-10,0.92,0.14,0
0.048346,0.049917,0.0036453,0.0011346,0.001434,0.00010419,0,0,0.028747,-0.0038914,0,0.0027088,0,0,0,0.0036546,0.0011253,0.001434,2.2222,0.0020713,0.0023906,6.7252e-10,0.94,0.14,0
0.048914,0.050079,0.0036071,0.0012526,0.0014579,-5.9462e-05,0,0,0.027939,-0.002669,0,-0.001546,0,0,0,0.0036153,0.0012444,0.0014579,-1.6317,0.0021059,0.0022722,5.9363e-10,0.96,0.14,0
0.049464,0.050095,0.0035783,0.0013848,0.0014889,-0.00019066,0,0,0.027162,-0.0013538,0,-0.0049571,0,0,0,0.003599,0.0013641,0.0014889,-5.0909,0.0021507,0.0021758,5.3045e-10,0.98,0.14,0
0.049734,0.050066,0.0035707,0.0014555,0.0015079,-0.00023918,0,0,0.026817,-0.00068037,0,-0.0062186,0,0,0,0.0035989,0.0014273,0.0015079,-6.4807,0.002178,0.0021329,5.0266e-10,1,0.14,0
0.00067358,0.00079693,0.0090552,0.0037011,0.0038269,0.003067,0,0,0.067968,-0.0016355,0,0.079743,0,0,0,0.01045,0.0023065,0.0038269,24.445,0.0055277,0.0074998,1.8719e-08,0,0.16,0
0.0013594,0.001612,0.0090774,0.0035115,0.0037767,0.0030805,0,0,0.06891,-0.0034474,0,0.080093,0,0,0,0.010447,0.0021418,0.0037767,23.969,0.0054552,0.0076213,1.9271e-08,0.02,0.16,0
0.0027564,0.003274,0.009154,0.0031183,0.0036817,0.0031075,0,0,0.071139,-0.0073235,0,0.080796,0,0,0,0.01047,0.0018028,0.0036817,22.944,0.005318,0.0078976,2.0571e-08,0.04,0.16,0
0.0042049,0.0049899,0.0092543,0.002702,0.0035869,0.0031115,0,0,0.073676,-0.011504,0,0.0809,0,0,0,0.010499,0.0014578,0.0035869,21.787,0.0051811,0.0081873,2.1901e-08,0.06,0.16,0
0.0057034,0.0067391,0.0093321,0.0022841,0.0034849,0.0030715,0,0,0.076014,-0.01561,0,0.07986,0,0,0,0.010485,0.0011311,0.0034849,20.56,0.0050337,0.0084279,2.2855e-08,0.08,0.16,0
0.0072455,0.0085002,0.0093778,0.0018929,0.0033812,0.0029957,0,0,0.077956,-0.019348,0,0.077888,0,0,0,0.010431,0.00083934,0.0033812,19.355,0.004884,0.0086077,2.338e-08,0.1,0.16,0
0.0088216,0.010255,0.0093871,0.0015455,0.0032798,0.0028968,0,0,0.079396,-0.022546,0,0.075318,0,0,0,0.010343,0.00058937,0.0032798,18.24,0.0047375,0.0087258,2.35e-08,0.12,0.16,0
0.010421,0.011988,0.0093608,0.0012493,0.003183,0.0027879,0,0,0.080311,-0.025139,0,0.072484,0,0,0,0.010228,0.00038178,0.003183,17.258,0.0045977,0.0087876,2.3282e-08,0.14,0.16,0
0.012034,0.01369,0.0093027,0.0010053,0.0030924,0.002679,0,0,0.080734,-0.027132,0,0.069653,0,0,0,0.010094,0.00021408,0.0030924,16.427,0.0044668,0.0088011,2.2804e-08,0.16,0.16,0
0.013651,0.015353,0.009218,0.00081126,0.0030088,0.0025769,0,0,0.08072,-0.028568,0,0.066999,0,0,0,0.0099461,8.3116e-05,0.0030088,15.753,0.004346,0.008774,2.2138e-08,0.18,0.16,0
0.015263,0.01697,0.0091116,0.0006639,0.0029327,0.0024851,0,0,0.080326,-0.029494,0,0.064613,0,0,0,0.0097894,-1.3844e-05,0.0029327,15.23,0.0042361,0.0087121,2.1338e-08,0.2,0.16,0
0.016864,0.018538,0.0089874,0.00056,0.0028642,0.0024047,0,0,0.079601,-0.029955,0,0.062523,0,0,0,0.009626,-7.8632e-05,0.0028642,14.849,0.0041372,0.0086187,2.0441e-08,0.22,0.16,0
0.018447,0.020053,0.0088476,0.00049694,0.0028034,0.0023348,0,0,0.078575,-0.029983,0,0.060704,0,0,0,0.0094567,-0.00011216,0.0028034,14.598,0.0040493,0.008495,1.9465e-08,0.24,0.16,0
0.020007,0.02151,0.0086928,0.00047263,0.0027496,0.0022729,0,0,0.077261,-0.029601,0,0.059096,0,0,0,0.00928,-0.0001146,0.0027496,14.461,0.0039717,0.0083399,1.8415e-08,0.26,0.16,0
0.021537,0.022903,0.0085224,0.00048514,0.0027023,0.0022155,0,0,0.075662,-0.028823,0,0.057602,0,0,0,0.0090933,-8.5741e-05,0.0027023,14.421,0.0039033,0.0081509,1.7287e-08,0.28,0.16,0
0.023033,0.024226,0.0083348,0.00053192,0.00266,0.0021573,0,0,0.073772,-0.027665,0,0.05609,0,0,0,0.0088923,-2.5572e-05,0.00266,14.455,0.0038422,0.0079241,1.607e-08,0.3,0.16,0
0.024488,0.025469,0.0081286,0.00060832,0.0026211,0.0020919,0,0,0.071598,-0.026166,0,0.054391,0,0,0,0.0086723,6.4617e-05,0.0026211,14.525,0.003786,0.0076566,1.4759e-08,0.32,0.16,0
0.025897,0.026621,0.0079045,0.00070506,0.0025829,0.0020118,0,0,0.069181,-0.024412,0,0.052307,0,0,0,0.0084297,0.00017983,0.0025829,14.573,0.0037308,0.0073493,1.3363e-08,0.34,0.16,0
0.027256,0.027667,0.0076664,0.00080399,0.0025411,0.0019106,0,0,0.066629,-0.022583,0,0.049677,0,0,0,0.008164,0.0003064,0.0025411,14.519,0.0036705,0.0070127,1.1927e-08,0.36,0.16,0
0.028562,0.028594,0.0074212,0.00087577,0.0024891,0.0017892,0,0,0.064118,-0.020973,0,0.046519,0,0,0,0.0078801,0.00041685,0.0024891,14.286,0.0035954,0.0066731,1.0539e-08,0.38,0.16,0
0.02982,0.029391,0.0071732,0.0008839,0.0024171,0.0016609,0,0,0.061829,-0.019932,0,0.043184,0,0,0,0.0075867,0.0004704,0.0024171,13.869,0.0034914,0.0063701,9.3082e-09,0.4,0.16,0
0.031035,0.030053,0.0069215,0.00080404,0.0023177,0.0015543,0,0,0.05985,-0.019677,0,0.040413,0,0,0,0.0072953,0.00043026,0.0023177,13.417,0.0033477,0.0061429,8.3261e-09,0.42,0.16,0
0.032214,0.03059,0.0066466,0.00063203,0.0021836,0.0015014,0,0,0.058019,-0.02017,0,0.039037,0,0,0,0.007002,0.00027668,0.0021836,13.213,0.0031541,0.0060038,7.5758e-09,0.44,0.16,0
0.033356,0.031019,0.0063284,0.00038391,0.0020137,0.0015305,0,0,0.056091,-0.021187,0,0.039794,0,0,0,0.0067019,1.0429e-05,0.0020137,13.553,0.0029087,0.0059495,7.0869e-09,0.46,0.16,0
0.034458,0.031353,0.0061095,-1.2277e-05,0.0018292,0.0017294,0,0,0.051503,-0.021391,0,0.04216,0,0,0,0.0065799,-0.00048275,0.0018292,14.828,0.0026421,0.0062408,9.2883e-09,0.48,0.16,0
0.035443,0.031649,0.0058407,-0.00029656,0.0016632,0.0019675,0,0,0.042276,-0.019364,0,0.04387,0,0,0,0.0064744,-0.00093024,0.0016632,17.202,0.0024024,0.0065172,1.2909e-08,0.5,0.16,0
0.036202,0.032028,0.0051199,-0.00016503,0.0014865,0.0019653,0,0,0.032387,-0.015776,0,0.043163,0,0,0,0.0058716,-0.00091668,0.0014865,20.073,0.0021471,0.0059773,1.2035e-08,0.52,0.16,0
0.036765,0.032552,0.0042475,1.5836e-05,0.001279,0.0017809,0,0,0.025464,-0.012122,0,0.039646,0,0,0,0.0050056,-0.0007422,0.001279,22.277,0.0018475,0.0050633,8.3382e-09,0.54,0.16,0
0.037221,0.03317,0.0036646,6.7289e-05,0.0011196,0.0015382,0,0,0.021186,-0.0094239,0,0.034163,0,0,0,0.004333,-0.00060113,0.0011196,23.013,0.0016172,0.0043455,5.9481e-09,0.56,0.16,0
0.037613,0.033829,0.0033155,0.00010333,0.0010256,0.0012732,0,0,0.018671,-0.0079159,0,0.028259,0,0,0,0.0038485,-0.00042973,0.0010256,22.374,0.0014815,0.0037728,4.5765e-09,0.58,0.16,0
0.037968,0.034514,0.0030774,8.6049e-05,0.00094905,0.0010279,0,0,0.017312,-0.0073445,0,0.022624,0,0,0,0.0034673,-0.00030376,0.00094905,20.508,0.0013709,0.00333,3.6049e-09,0.6,0.16,0
0.038305,0.035222,0.0029107,5.6859e-07,0.00087337,0.00079344,0,0,0.016936,-0.0076884,0,0.017174,0,0,0,0.0031593,-0.00024804,0.00087337,17.084,0.0012615,0.0030103,2.7968e-09,0.62,0.16,0
0.038645,0.035956,0.0028401,-0.00016568,0.00080232,0.00058173,0,0,0.017866,-0.0091964,0,0.012146,0,0,0,0.0029724,-0.00029796,0.00080232,12.072,0.0011589,0.0028858,2.126e-09,0.64,0.16,0
0.03902,0.036746,0.0029311,-0.00047327,0.00073734,0.00044708,0,0,0.020744,-0.01219,0,0.0088178,0,0,0,0.0030007,-0.00054295,0.00073734,7.4609,0.001065,0.003113,1.6616e-09,0.66,0.16,0
0.039488,0.037662,0.0031104,-0.00076854,0.00070257,0.00043841,0,0,0.025799,-0.016013,0,0.0092993,0,0,0,0.0031735,-0.00083162,0.00070257,6.0579,0.0010148,0.0035026,1.3336e-09,0.68,0.16,0
0.040078,0.038739,0.0032747,-0.00076362,0.00075331,0.0005547,0,0,0.030981,-0.018542,0,0.013723,0,0,0,0.0033687,-0.00085767,0.00075331,7.6789,0.0010881,0.003695,1.1513e-09,0.7,0.16,0
0.04074,0.039921,0.0034746,-0.00055658,0.0008754,0.00073953,0,0,0.033789,-0.018616,0,0.019228,0,0,0,0.0036206,-0.00070263,0.0008754,10.14,0.0012645,0.0037897,1.2608e-09,0.72,0.16,0
0.041429,0.041151,0.0036781,-0.00031707,0.0010083,0.00090884,0,0,0.034707,-0.01723,0,0.02363,0,0,0,0.0038832,-0.00052223,0.0010083,12.3,0.0014564,0.0038745,1.4974e-09,0.74,0.16,0
0.042128,0.042397,0.0038123,-4.6834e-05,0.0011296,0.0010152,0,0,0.034874,-0.015294,0,0.026396,0,0,0,0.0040675,-0.00030204,0.0011296,13.945,0.0016317,0.0038589,1.6428e-09,0.76,0.16,0
0.042824,0.043623,0.0038966,0.00022535,0.0012366,0.0010488,0,0,0.03458,-0.013146,0,0.027269,0,0,0,0.0041771,-5.5213e-05,0.0012366,14.922,0.0017862,0.0037576,1.6808e-09,0.78,0.16,0
0.043511,0.044793,0.003953,0.00046255,0.0013247,0.0010148,0,0,0.034169,-0.011208,0,0.026384,0,0,0,0.0042279,0.00018763,0.0013247,15.114,0.0019134,0.0036095,1.635e-09,0.8,0.16,0
0.044191,0.045877,0.0039957,0.00064656,0.0013927,0.00093249,0,0,0.033839,-0.0096994,0,0.024245,0,0,0,0.0042394,0.00040285,0.0013927,14.563,0.0020116,0.0034505,1.5442e-09,0.82,0.16,0
0.044865,0.046854,0.0040313,0.00078361,0.0014445,0.0008222,0,0,0.033628,-0.0085911,0,0.021377,0,0,0,0.0042296,0.00058528,0.0014445,13.425,0.0020864,0.0033003,1.4401e-09,0.84,0.16,0
0.045536,0.047713,0.0040594,0.00089064,0.001485,0.00069771,0,0,0.033467,-0.007727,0,0.01814,0,0,0,0.0042086,0.00074151,0.001485,11.876,0.002145,0.0031621,1.3354e-09,0.86,0.16,0
0.046204,0.048445,0.004077,0.00098449,0.0015184,0.00056561,0,0,0.033261,-0.0069413,0,0.014706,0,0,0,0.0041796,0.00088187,0.0015184,10.028,0.0021933,0.0030305,1.2308e-09,0.88,0.16,0
0.046866,0.049045,0.004081,0.0010777,0.0015476,0.00042817,0,0,0.032935,-0.0061093,0,0.011133,0,0,0,0.0041435,0.0010153,0.0015476,7.918,0.0022354,0.0028994,1.1235e-09,0.9,0.16,0
0.047521,0.049511,0.0040705,0.0011782,0.0015746,0.00028577,0,0,0.032447,-0.0051535,0,0.00743,0,0,0,0.0041015,0.0011473,0.0015746,5.5167,0.0022745,0.0027659,1.0131e-09,0.92,0.16,0
0.048164,0.049838,0.0040461,0.00129,0.0016008,0.00013798,0,0,0.031788,-0.0040406,0,0.0035876,0,0,0,0.0040568,0.0012793,0.0016008,2.7438,0.0023123,0.0026321,9.0241e-10,0.94,0.16,0
0.048793,0.050025,0.0040099,0.0014132,0.0016269,-1.6002e-05,0,0,0.030978,-0.0027782,0,-0.00041606,0,0,0,0.0040153,0.0014078,0.0016269,-0.51126,0.00235,0.0025057,7.9864e-10,0.96,0.16,0
0.049403,0.050067,0.0039818,0.0015514,0.00166,-0.00014108,0,0,0.030184,-0.0014114,0,-0.003668,0,0,0,0.0039934,0.0015399,0.00166,-3.4497,0.0023977,0.0023964,7.1003e-10,0.98,0.16,0
0.049704,0.050052,0.0039745,0.0016253,0.0016799,-0.00018748,0,0,0.029829,-0.00070983,0,-0.0048746,0,0,0,0.0039905,0.0016093,0.0016799,-4.6252,0.0024266,0.0023472,6.7044e-10,1,0.16,0
0.00065865,0.00076524,0.0088542,0.0036231,0.0037432,0.0029465,0,0,0.066444,-0.0015614,0,0.076608,0,0,0,0.010179,0.0022982,0.0037432,24.204,0.0054069,0.0072673,1.7128e-08,0,0.18,0
0.0013289,0.0015456,0.0088765,0.0034471,0.0036971,0.0029607,0,0,0.067333,-0.0032501,0,0.076978,0,0,0,0.01018,0.0021438,0.0036971,23.754,0.0053402,0.0073837,1.764e-08,0.02,0.18,0
0.0026933,0.0031339,0.0089542,0.0030882,0.0036127,0.0029925,0,0,0.069439,-0.0068186,0,0.077804,0,0,0,0.010213,0.0018298,0.0036127,22.807,0.0052184,0.0076497,1.8863e-08,0.04,0.18,0
0.0041064,0.0047705,0.00906,0.0027139,0.0035322,0.0030112,0,0,0.071862,-0.010637,0,0.078292,0,0,0,0.010263,0.001511,0.0035322,21.771,0.005102,0.0079375,2.0188e-08,0.06,0.18,0
0.0055678,0.0064408,0.0091511,0.0023344,0.0034456,0.0029975,0,0,0.07417,-0.014446,0,0.077935,0,0,0,0.010283,0.0012021,0.0034456,20.684,0.004977,0.0081937,2.1277e-08,0.08,0.18,0
0.0070733,0.0081288,0.0092197,0.001971,0.0033572,0.0029545,0,0,0.076212,-0.01802,0,0.076816,0,0,0,0.010273,0.00091778,0.0033572,19.608,0.0048493,0.0084057,2.2063e-08,0.1,0.18,0
0.0086163,0.0098194,0.0092615,0.0016392,0.0032702,0.0028898,0,0,0.077886,-0.021203,0,0.075134,0,0,0,0.010235,0.00066605,0.0032702,18.597,0.0047236,0.0085689,2.2533e-08,0.12,0.18,0
0.010189,0.011499,0.0092751,0.0013479,0.0031869,0.0028125,0,0,0.079146,-0.023907,0,0.073124,0,0,0,0.010173,0.00045019,0.0031869,17.687,0.0046033,0.0086841,2.2712e-08,0.14,0.18,0
0.011782,0.013159,0.009262,0.0011009,0.0031089,0.0027308,0,0,0.07999,-0.026104,0,0.071001,0,0,0,0.010092,0.00027047,0.0031089,16.9,0.0044906,0.008755,2.2644e-08,0.16,0.18,0
0.013388,0.01479,0.0092251,0.00089906,0.0030372,0.0026512,0,0,0.080442,-0.027796,0,0.068931,0,0,0,0.0099983,0.00012582,0.0030372,16.246,0.0043871,0.0087864,2.2378e-08,0.18,0.18,0
0.015,0.016386,0.0091677,0.00074157,0.0029728,0.0025779,0,0,0.080534,-0.029006,0,0.067025,0,0,0,0.0098943,1.4942e-05,0.0029728,15.73,0.004294,0.0087824,2.1956e-08,0.2,0.18,0
0.01661,0.017942,0.0090925,0.00062714,0.0029159,0.0025132,0,0,0.080296,-0.029754,0,0.065342,0,0,0,0.0097827,-6.3108e-05,0.0029159,15.347,0.0042118,0.0087456,2.1408e-08,0.22,0.18,0
0.018212,0.019453,0.0090013,0.0005546,0.0028668,0.0024576,0,0,0.079749,-0.030058,0,0.063898,0,0,0,0.0096646,-0.00010867,0.0028668,15.093,0.0041409,0.008677,2.0753e-08,0.24,0.18,0
0.0198,0.020915,0.0088946,0.00052311,0.0028253,0.0024103,0,0,0.0789,-0.029929,0,0.062668,0,0,0,0.0095392,-0.00012149,0.0028253,14.962,0.004081,0.0085758,1.9997e-08,0.26,0.18,0
0.021368,0.022322,0.0087712,0.00053198,0.002791,0.002369,0,0,0.077744,-0.029367,0,0.061594,0,0,0,0.009404,-0.00010081,0.002791,14.945,0.0040314,0.0084391,1.9132e-08,0.28,0.18,0
0.022909,0.023667,0.008629,0.00058016,0.0027627,0.0023296,0,0,0.076261,-0.028374,0,0.06057,0,0,0,0.0092549,-4.5745e-05,0.0027627,15.026,0.0039906,0.0082625,1.8142e-08,0.3,0.18,0
0.024418,0.024939,0.0084647,0.00066505,0.0027389,0.0022857,0,0,0.074435,-0.02696,0,0.059428,0,0,0,0.0090856,4.4221e-05,0.0027389,15.179,0.0039562,0.0080402,1.7005e-08,0.32,0.18,0
0.025887,0.026126,0.0082771,0.00078016,0.0027172,0.0022275,0,0,0.072279,-0.025181,0,0.057915,0,0,0,0.0088895,0.00016776,0.0027172,15.347,0.0039248,0.0077675,1.5704e-08,0.34,0.18,0
0.027309,0.027211,0.0080711,0.00090913,0.0026941,0.002143,0,0,0.069902,-0.023204,0,0.055719,0,0,0,0.0086641,0.00031619,0.0026941,15.428,0.0038914,0.0074494,1.4266e-08,0.36,0.18,0
0.028683,0.028171,0.0078584,0.0010129,0.0026614,0.0020248,0,0,0.067561,-0.021431,0,0.052646,0,0,0,0.0084134,0.00045791,0.0026614,15.272,0.0038442,0.0071145,1.2795e-08,0.38,0.18,0
0.030012,0.028987,0.0076549,0.0010323,0.0026061,0.0018856,0,0,0.065633,-0.02046,0,0.049026,0,0,0,0.0081552,0.00053198,0.0026061,14.796,0.0037644,0.0068267,1.1502e-08,0.4,0.18,0
0.031308,0.029649,0.0074658,0.00091367,0.0025139,0.0017626,0,0,0.064376,-0.020802,0,0.045829,0,0,0,0.0079109,0.00046861,0.0025139,14.125,0.0036311,0.0066597,1.0588e-08,0.42,0.18,0
0.032587,0.030167,0.0073164,0.00066793,0.0023953,0.0017102,0,0,0.063975,-0.022456,0,0.044465,0,0,0,0.0077311,0.00025325,0.0023953,13.624,0.0034599,0.0066706,1.027e-08,0.44,0.18,0
0.033867,0.030561,0.0074234,0.00037345,0.002339,0.0018329,0,0,0.062305,-0.023706,0,0.044884,0,0,0,0.0078726,-7.5802e-05,0.002339,13.784,0.0033786,0.0070592,1.2939e-08,0.46,0.18,0
0.035108,0.030893,0.0076989,-0.00020616,0.0022478,0.0021431,0,0,0.052426,-0.021256,0,0.04262,0,0,0,0.0082561,-0.0007634,0.0022478,14.851,0.0032468,0.0079609,2.0549e-08,0.48,0.18,0
0.036073,0.031267,0.007641,-0.00056777,0.002122,0.0023768,0,0,0.034489,-0.015279,0,0.037,0,0,0,0.0083587,-0.0012854,0.002122,17.036,0.0030651,0.0084905,2.6635e-08,0.5,0.18,0
0.036618,0.031759,0.0072105,-9.2289e-05,0.0021355,0.0023442,0,0,0.020386,-0.009978,0,0.032715,0,0,0,0.0080621,-0.00094393,0.0021355,19.664,0.0030846,0.0079596,2.5013e-08,0.52,0.18,0
0.036939,0.032365,0.0067251,0.00030917,0.0021103,0.0021309,0,0,0.014853,-0.0071005,0,0.028875,0,0,0,0.0075567,-0.00052242,0.0021103,20.959,0.0030482,0.007161,2.0201e-08,0.54,0.18,0
0.037212,0.033029,0.0063555,0.00032483,0.0020041,0.0018372,0,0,0.012981,-0.005606,0,0.023971,0,0,0,0.0070451,-0.0003648,0.0020041,20.682,0.0028948,0.006569,1.6787e-08,0.56,0.18,0
0.037458,0.033712,0.0060442,0.00033528,0.0019138,0.0015434,0,0,0.01186,-0.0048066,0,0.019441,0,0,0,0.0065828,-0.00020334,0.0019138,19.749,0.0027644,0.0060232,1.4207e-08,0.58,0.18,0
0.037686,0.034406,0.0056901,0.00028969,0.0017939,0.0012924,0,0,0.011072,-0.0044821,0,0.015405,0,0,0,0.0060935,-0.00011368,0.0017939,18.304,0.0025912,0.0055131,1.1768e-08,0.6,0.18,0
0.037901,0.035109,0.005274,0.0001766,0.0016352,0.0010631,0,0,0.010517,-0.0046098,0,0.01149,0,0,0,0.0055525,-0.00010193,0.0016352,15.862,0.0023619,0.0050212,9.3588e-09,0.62,0.18,0
0.038107,0.035818,0.0048026,-1.4818e-05,0.0014363,0.00084611,0,0,0.010358,-0.0053538,0,0.0074417,0,0,0,0.0049769,-0.00018909,0.0014363,11.647,0.0020747,0.0045813,7.0189e-09,0.64,0.18,0
0.038315,0.036545,0.0043356,-0.00035929,0.0011929,0.0006581,0,0,0.012163,-0.0072285,0,0.0041913,0,0,0,0.0044441,-0.00046776,0.0011929,6.9915,0.0017231,0.0043365,4.9833e-09,0.66,0.18,0
0.038618,0.037357,0.004056,-0.00073492,0.00099631,0.00051495,0,0,0.019013,-0.011603,0,0.0036543,0,0,0,0.0041312,-0.00081012,0.00099631,4.5706,0.0014391,0.0043359,3.704e-09,0.68,0.18,0
0.039141,0.038352,0.003975,-0.00085599,0.0009357,0.000451,0,0,0.029298,-0.017649,0,0.0068066,0,0,0,0.0040369,-0.00091789,0.0009357,4.645,0.0013516,0.0043373,2.8997e-09,0.7,0.18,0
0.039847,0.039522,0.0039249,-0.00075516,0.00095093,0.00053852,0,0,0.036304,-0.021012,0,0.012846,0,0,0,0.0040047,-0.00083496,0.00095093,6.5194,0.0013736,0.0042395,2.088e-09,0.72,0.18,0
0.040609,0.040783,0.0039855,-0.000511,0.0010423,0.00074351,0,0,0.038261,-0.020193,0,0.019331,0,0,0,0.0041193,-0.00064481,0.0010423,9.3198,0.0015056,0.0041847,1.8213e-09,0.74,0.18,0
0.041377,0.042074,0.0041343,-0.0001478,0.0011959,0.00091814,0,0,0.038198,-0.017469,0,0.023872,0,0,0,0.0043299,-0.00034345,0.0011959,11.734,0.0017275,0.0041261,1.9942e-09,0.76,0.18,0
0.042137,0.043349,0.0042364,0.00022374,0.001338,0.00098684,0,0,0.037679,-0.014486,0,0.025658,0,0,0,0.0044691,-8.9996e-06,0.001338,13.181,0.0019327,0.0039806,2.0378e-09,0.78,0.18,0
0.042884,0.044562,0.0043064,0.00053035,0.001451,0.00096383,0,0,0.037119,-0.011969,0,0.02506,0,0,0,0.0045401,0.00029664,0.001451,13.565,0.0020959,0.0038011,1.9745e-09,0.8,0.18,0
0.043622,0.045679,0.0043637,0.00074793,0.0015335,0.00088426,0,0,0.036793,-0.010212,0,0.022991,0,0,0,0.0045706,0.00054108,0.0015335,13.056,0.002215,0.003637,1.8735e-09,0.82,0.18,0
0.044356,0.046679,0.0044149,0.00089775,0.0015938,0.00078032,0,0,0.036674,-0.0090486,0,0.020288,0,0,0,0.0045827,0.00072998,0.0015938,11.986,0.0023021,0.0035021,1.7734e-09,0.84,0.18,0
0.045089,0.047555,0.004457,0.0010111,0.0016404,0.00066774,0,0,0.036615,-0.0081813,0,0.017361,0,0,0,0.0045841,0.00088391,0.0016404,10.61,0.0023695,0.0033863,1.6779e-09,0.86,0.18,0
0.04582,0.048303,0.0044842,0.0011099,0.0016782,0.00055102,0,0,0.036478,-0.0073887,0,0.014327,0,0,0,0.004574,0.0010201,0.0016782,9.0497,0.0024241,0.0032751,1.5777e-09,0.88,0.18,0
0.046548,0.04892,0.0044939,0.001208,0.0017106,0.00043024,0,0,0.036183,-0.0065331,0,0.011186,0,0,0,0.0045512,0.0011507,0.0017106,7.3216,0.0024709,0.0031584,1.4655e-09,0.9,0.18,0
0.047268,0.049405,0.0044859,0.0013143,0.0017401,0.00030416,0,0,0.035695,-0.0055344,0,0.0079082,0,0,0,0.0045169,0.0012833,0.0017401,5.3807,0.0025134,0.0030316,1.3395e-09,0.92,0.18,0
0.047976,0.049755,0.0044614,0.0014331,0.0017684,0.00017101,0,0,0.03501,-0.004358,0,0.0044464,0,0,0,0.0044739,0.0014207,0.0017684,3.1314,0.0025543,0.0028956,1.2031e-09,0.94,0.18,0
0.048668,0.049968,0.0044234,0.001565,0.0017965,2.8621e-05,0,0,0.034149,-0.0030094,0,0.00074413,0,0,0,0.0044278,0.0015606,0.0017965,0.43628,0.002595,0.0027575,1.065e-09,0.96,0.18,0
0.049342,0.050038,0.0043936,0.0017143,0.0018324,-8.8948e-05,0,0,0.033296,-0.0015345,0,-0.0023127,0,0,0,0.0043992,0.0017087,0.0018324,-2.0224,0.0026468,0.0026317,9.4065e-10,0.98,0.18,0
0.049674,0.050037,0.0043859,0.0017946,0.0018542,-0.00013271,0,0,0.032912,-0.00077354,0,-0.0034505,0,0,0,0.0043937,0.0017869,0.0018542,-3.0025,0.0026782,0.0025743,8.8437e-10,1,0.18,0
0.00064669,0.00073447,0.0086928,0.0035572,0.003675,0.0028288,0,0,0.065232,-0.0015314,0,0.073549,0,0,0,0.009946,0.002304,0.003675,23.885,0.0053083,0.0070575,1.579e-08,0,0.2,0
0.0013046,0.001482,0.0087151,0.0033887,0.0036312,0.0028431,0,0,0.066092,-0.0031515,0,0.07392,0,0,0,0.0099486,0.0021553,0.0036312,23.448,0.005245,0.007171,1.6275e-08,0.02,0.2,0
0.0026437,0.0030012,0.008794,0.0030514,0.0035536,0.0028769,0,0,0.068125,-0.006529,0,0.074799,0,0,0,0.0099885,0.0018569,0.0035536,22.545,0.005133,0.0074307,1.7438e-08,0.04,0.2,0
0.0040296,0.0045645,0.008904,0.0027068,0.0034833,0.0029044,0,0,0.07047,-0.010094,0,0.075514,0,0,0,0.010054,0.0015571,0.0034833,21.59,0.0050314,0.0077167,1.8744e-08,0.06,0.2,0
0.0054625,0.0061613,0.0090046,0.0023571,0.0034085,0.002908,0,0,0.07275,-0.013669,0,0.075607,0,0,0,0.010099,0.0012632,0.0034085,20.607,0.0049234,0.0079825,1.9906e-08,0.08,0.2,0
0.0069396,0.0077794,0.0090899,0.0020181,0.0033324,0.0028882,0,0,0.074847,-0.017086,0,0.075092,0,0,0,0.010121,0.00098717,0.0033324,19.635,0.0048135,0.0082165,2.0858e-08,0.1,0.2,0
0.0084564,0.0094067,0.0091558,0.0017026,0.0032575,0.0028492,0,0,0.076677,-0.020214,0,0.07408,0,0,0,0.010121,0.00073706,0.0032575,18.711,0.0047053,0.0084125,2.1575e-08,0.12,0.2,0
0.010007,0.011032,0.0092005,0.0014195,0.003186,0.0027973,0,0,0.078188,-0.022965,0,0.072731,0,0,0,0.010103,0.00051725,0.003186,17.866,0.004602,0.0085689,2.2057e-08,0.14,0.2,0
0.011584,0.012646,0.0092241,0.0011738,0.0031194,0.0027389,0,0,0.079362,-0.025292,0,0.07121,0,0,0,0.010068,0.00032965,0.0031194,17.121,0.0045058,0.0086867,2.2327e-08,0.16,0.2,0
0.013181,0.014241,0.0092282,0.00096827,0.0030589,0.0026794,0,0,0.0802,-0.027179,0,0.069665,0,0,0,0.010022,0.00017472,0.0030589,16.49,0.0044185,0.0087683,2.2412e-08,0.18,0.2,0
0.014792,0.01581,0.0092148,0.00080384,0.0030056,0.0026233,0,0,0.080719,-0.028623,0,0.068207,0,0,0,0.0099662,5.2373e-05,0.0030056,15.979,0.0043414,0.0088164,2.2344e-08,0.2,0.2,0
0.01641,0.017348,0.009186,0.00068087,0.0029601,0.0025736,0,0,0.080937,-0.029629,0,0.066913,0,0,0,0.0099043,-3.7432e-05,0.0029601,15.591,0.0042756,0.0088331,2.2147e-08,0.22,0.2,0
0.018029,0.018851,0.0091433,0.00059957,0.0029229,0.0025317,0,0,0.080866,-0.030203,0,0.065825,0,0,0,0.0098372,-9.4396e-05,0.0029229,15.326,0.0042219,0.008819,2.1839e-08,0.24,0.2,0
0.019645,0.020313,0.0090873,0.0005603,0.0028943,0.0024982,0,0,0.080509,-0.030342,0,0.064953,0,0,0,0.0097653,-0.00011773,0.0028943,15.183,0.0041806,0.0087738,2.1426e-08,0.26,0.2,0
0.02125,0.021729,0.0090174,0.00056366,0.0028743,0.002472,0,0,0.07986,-0.030038,0,0.064273,0,0,0,0.0096872,-0.00010617,0.0028743,15.16,0.0041518,0.0086951,2.0903e-08,0.28,0.2,0
0.022839,0.023091,0.0089311,0.00061019,0.0028624,0.0024507,0,0,0.078894,-0.029279,0,0.063719,0,0,0,0.0095994,-5.802e-05,0.0028624,15.25,0.0041346,0.0085785,2.0251e-08,0.3,0.2,0
0.024406,0.02439,0.0088243,0.00069972,0.0028572,0.0024292,0,0,0.077572,-0.028047,0,0.06316,0,0,0,0.0094953,2.8659e-05,0.0028572,15.441,0.0041271,0.0084168,1.9432e-08,0.32,0.2,0
0.025942,0.025613,0.0086907,0.00082969,0.0028561,0.0023978,0,0,0.07585,-0.026344,0,0.062342,0,0,0,0.0093645,0.00015589,0.0028561,15.693,0.0041255,0.0081992,1.8389e-08,0.34,0.2,0
0.02744,0.026739,0.00853,0.0009916,0.0028565,0.0023384,0,0,0.073756,-0.024244,0,0.060798,0,0,0,0.0091966,0.00032498,0.0028565,15.903,0.004126,0.0079158,1.7073e-08,0.36,0.2,0
0.028892,0.027737,0.0083611,0.0011526,0.0028541,0.002229,0,0,0.071591,-0.02212,0,0.057954,0,0,0,0.0089951,0.00051868,0.0028541,15.849,0.0041226,0.0075836,1.5564e-08,0.38,0.2,0
0.030303,0.028572,0.0082014,0.0012075,0.0028227,0.0020662,0,0,0.069923,-0.020997,0,0.053722,0,0,0,0.0087676,0.00064135,0.0028227,15.265,0.0040772,0.0072849,1.4131e-08,0.4,0.2,0
0.031689,0.029221,0.0080833,0.0010505,0.0027402,0.0019061,0,0,0.069461,-0.021965,0,0.049558,0,0,0,0.0085687,0.00056515,0.0027402,14.235,0.003958,0.0071683,1.3332e-08,0.42,0.2,0
0.033082,0.029692,0.0082495,0.00075459,0.0027012,0.0018794,0,0,0.068193,-0.023631,0,0.04643,0,0,0,0.0086956,0.0003085,0.0027012,13.388,0.0039018,0.0074843,1.5974e-08,0.44,0.2,0
0.034447,0.030061,0.0086183,0.00034964,0.0026904,0.0020296,0,0,0.058894,-0.021862,0,0.04076,0,0,0,0.0090921,-0.00012413,0.0026904,13.236,0.0038861,0.0081833,2.3323e-08,0.46,0.2,0
0.035554,0.030473,0.0083454,-0.0004781,0.0023602,0.0021368,0,0,0.039418,-0.015772,0,0.029618,0,0,0,0.0088464,-0.00097913,0.0023602,13.55,0.0034092,0.0086633,2.7477e-08,0.48,0.2,0
0.036186,0.031007,0.0078755,-0.00095225,0.002077,0.0021429,0,0,0.020381,-0.0093299,0,0.018774,0,0,0,0.0084126,-0.0014893,0.002077,14.256,0.0030001,0.0087021,2.5094e-08,0.5,0.2,0
0.036467,0.031618,0.0082572,-0.000283,0.0023923,0.0021913,0,0,0.011068,-0.0054792,0,0.013824,0,0,0,0.0088709,-0.00089665,0.0023923,15.151,0.0034555,0.0086286,2.3313e-08,0.52,0.2,0
0.03665,0.032268,0.0087736,0.00036787,0.0027424,0.0021687,0,0,0.0091531,-0.0040687,0,0.011992,0,0,0,0.0093873,-0.00024586,0.0027424,15.312,0.0039613,0.0085524,2.3306e-08,0.54,0.2,0
0.036833,0.032946,0.0088667,0.00048631,0.0028059,0.0020193,0,0,0.009069,-0.0036913,0,0.010314,0,0,0,0.0093994,-4.6412e-05,0.0028059,14.757,0.004053,0.008398,2.2584e-08,0.56,0.2,0
0.037013,0.033636,0.0087261,0.00050273,0.0027686,0.0018468,0,0,0.0088543,-0.0034759,0,0.0088109,0,0,0,0.0091805,4.8324e-05,0.0027686,14.105,0.0039991,0.0081252,2.0927e-08,0.58,0.2,0
0.037187,0.034335,0.0083758,0.00044426,0.002646,0.0016887,0,0,0.0084845,-0.0033456,0,0.0074846,0,0,0,0.0087654,5.4743e-05,0.002646,13.488,0.003822,0.0077498,1.8395e-08,0.6,0.2,0
0.037352,0.035038,0.0078681,0.00031826,0.0024559,0.0015577,0,0,0.0079907,-0.0033065,0,0.0062413,0,0,0,0.0082074,-2.1001e-05,0.0024559,12.797,0.0035474,0.0073138,1.5487e-08,0.62,0.2,0
0.037507,0.035742,0.0072223,0.000112,0.0022003,0.0014411,0,0,0.0073911,-0.0034123,0,0.0049019,0,0,0,0.007523,-0.00018869,0.0022003,11.53,0.0031782,0.0068408,1.2489e-08,0.64,0.2,0
0.037648,0.036444,0.0063089,-0.00017766,0.0018394,0.0012883,0,0,0.0076408,-0.0039245,0,0.0036926,0,0,0,0.0065757,-0.00044454,0.0018394,9.6556,0.0026569,0.0062067,9.5951e-09,0.66,0.2,0
0.037823,0.037164,0.0054217,-0.00043825,0.001495,0.0010488,0,0,0.011976,-0.0064658,0,0.0031883,0,0,0,0.00564,-0.00065653,0.001495,7.7418,0.0021595,0.0055464,7.685e-09,0.68,0.2,0
0.038179,0.038003,0.0050822,-0.00062648,0.0013367,0.00076375,0,0,0.022681,-0.012906,0,0.0040597,0,0,0,0.0052289,-0.00077313,0.0013367,5.8557,0.0019308,0.0052755,6.9729e-09,0.7,0.2,0
0.03882,0.039072,0.0048868,-0.00079873,0.0012264,0.00058127,0,0,0.035126,-0.020459,0,0.0078261,0,0,0,0.0049759,-0.00088778,0.0012264,5.0243,0.0017715,0.0051449,5.4931e-09,0.72,0.2,0
0.039651,0.040343,0.0046035,-0.00073734,0.0011599,0.0006263,0,0,0.041971,-0.023346,0,0.014629,0,0,0,0.0046942,-0.00082799,0.0011599,6.6071,0.0016753,0.0048455,3.394e-09,0.74,0.2,0
0.040517,0.041698,0.0045642,-0.00031572,0.0012746,0.00081053,0,0,0.042766,-0.020674,0,0.021074,0,0,0,0.0047066,-0.0004581,0.0012746,9.4091,0.001841,0.0045548,2.6024e-09,0.76,0.2,0
0.041362,0.043044,0.004669,0.00020982,0.0014636,0.00092117,0,0,0.04167,-0.0163,0,0.023951,0,0,0,0.0048556,2.321e-05,0.0014636,11.346,0.0021142,0.0042993,2.5973e-09,0.78,0.2,0
0.042184,0.044314,0.0047424,0.00060377,0.0016039,0.00090198,0,0,0.040801,-0.013001,0,0.023452,0,0,0,0.0049327,0.00041344,0.0016039,11.835,0.0023167,0.0040584,2.4791e-09,0.8,0.2,0
0.042994,0.045468,0.0048017,0.00084341,0.0016935,0.00082283,0,0,0.040406,-0.011052,0,0.021393,0,0,0,0.0049685,0.00067661,0.0016935,11.334,0.0024462,0.0038852,2.3497e-09,0.82,0.2,0
0.0438,0.046492,0.0048594,0.00099839,0.0017573,0.00072895,0,0,0.040327,-0.0098665,0,0.018953,0,0,0,0.0049949,0.00086295,0.0017573,10.389,0.0025384,0.0037656,2.2515e-09,0.84,0.2,0
0.044607,0.047385,0.0049046,0.0011156,0.0018061,0.00063295,0,0,0.040281,-0.0089762,0,0.016457,0,0,0,0.0050095,0.0010107,0.0018061,9.2738,0.0026088,0.0036667,2.1594e-09,0.86,0.2,0
0.045412,0.048149,0.0049305,0.0012183,0.0018446,0.00053491,0,0,0.040116,-0.0081425,0,0.013908,0,0,0,0.0050075,0.0011412,0.0018446,8.0582,0.0026644,0.0035673,2.0534e-09,0.88,0.2,0
0.046211,0.048784,0.0049364,0.0013213,0.0018773,0.00043295,0,0,0.039768,-0.0072278,0,0.011257,0,0,0,0.0049888,0.0012689,0.0018773,6.7315,0.0027117,0.0034564,1.9251e-09,0.9,0.2,0
0.047002,0.04929,0.0049234,0.0014343,0.0019073,0.00032481,0,0,0.039209,-0.0061489,0,0.0084451,0,0,0,0.0049548,0.001403,0.0019073,5.2388,0.002755,0.0033289,1.7719e-09,0.92,0.2,0
0.04778,0.049664,0.0048933,0.0015624,0.0019367,0.00020767,0,0,0.038436,-0.0048662,0,0.0053994,0,0,0,0.0049082,0.0015475,0.0019367,3.4793,0.0027975,0.0031846,1.5968e-09,0.94,0.2,0
0.04854,0.049904,0.0048487,0.0017065,0.0019666,7.8112e-05,0,0,0.037468,-0.0033806,0,0.0020309,0,0,0,0.0048539,0.0017014,0.0019666,1.3012,0.0028406,0.0030294,1.4096e-09,0.96,0.2,0
0.049279,0.050006,0.0048144,0.0018728,0.0020061,-3.0989e-05,0,0,0.036507,-0.0017338,0,-0.00080571,0,0,0,0.0048169,0.0018702,0.0020061,-0.71489,0.0028978,0.0028821,1.2345e-09,0.98,0.2,0
0.049642,0.050021,0.0048055,0.001963,0.0020306,-7.174e-05,0,0,0.036074,-0.00087787,0,-0.0018652,0,0,0,0.0048082,0.0019603,0.0020306,-1.5149,0.002933,0.0028141,1.1543e-09,1,0.2,0
0.00063667,0.00070398,0.0085575,0.0034997,0.0036172,0.0027118,0,0,0.064224,-0.0015264,0,0.070507,0,0,0,0.0097372,0.00232,0.0036172,23.5,0.0052248,0.0068616,1.4619e-08,0,0.22,0
0.0012845,0.0014195,0.0085799,0.0033352,0.0035745,0.0027258,0,0,0.06507,-0.0031108,0,0.070872,0,0,0,0.0097411,0.0021741,0.0035745,23.066,0.0051632,0.0069738,1.5084e-08,0.02,0.22,0
0.0026028,0.0028727,0.00866,0.0030113,0.0035014,0.0027603,0,0,0.067062,-0.0063711,0,0.071767,0,0,0,0.009786,0.0018853,0.0035014,22.186,0.0050576,0.0072301,1.6202e-08,0.04,0.22,0
0.003967,0.0043667,0.0087737,0.0026879,0.0034385,0.0027928,0,0,0.069358,-0.0097578,0,0.072614,0,0,0,0.0098622,0.0015993,0.0034385,21.288,0.0049667,0.0075148,1.7482e-08,0.06,0.22,0
0.0053771,0.0058941,0.0088814,0.0023611,0.0033728,0.0028076,0,0,0.071613,-0.013151,0,0.072997,0,0,0,0.0099249,0.0013176,0.0033728,20.381,0.0048718,0.0077864,1.8677e-08,0.08,0.22,0
0.0068315,0.0074454,0.0089791,0.0020427,0.0033065,0.0028037,0,0,0.073743,-0.01643,0,0.072896,0,0,0,0.0099718,0.00105,0.0033065,19.488,0.0047761,0.0080352,1.9733e-08,0.1,0.22,0
0.0083268,0.0090108,0.0090634,0.0017427,0.0032419,0.0027834,0,0,0.075681,-0.019488,0,0.072368,0,0,0,0.010003,0.00080367,0.0032419,18.635,0.0046827,0.0082547,2.0618e-08,0.12,0.22,0
0.0098587,0.010581,0.0091326,0.0014691,0.0031805,0.0027507,0,0,0.077377,-0.022248,0,0.071519,0,0,0,0.010019,0.00058317,0.0031805,17.845,0.0045941,0.0084421,2.1325e-08,0.14,0.22,0
0.011422,0.012147,0.0091862,0.0012273,0.0031241,0.0027105,0,0,0.078808,-0.024657,0,0.070474,0,0,0,0.010022,0.00039125,0.0031241,17.136,0.0045125,0.008597,2.1859e-08,0.16,0.22,0
0.013011,0.013703,0.009225,0.0010209,0.0030738,0.0026675,0,0,0.079966,-0.026687,0,0.069355,0,0,0,0.010017,0.00022941,0.0030738,16.521,0.0044399,0.0087202,2.2239e-08,0.18,0.22,0
0.014621,0.015241,0.0092505,0.00085217,0.0030308,0.0026257,0,0,0.080856,-0.028322,0,0.068268,0,0,0,0.010004,9.8508e-05,0.0030308,16.011,0.0043778,0.0088133,2.2485e-08,0.2,0.22,0
0.016245,0.016757,0.0092644,0.00072256,0.0029961,0.0025882,0,0,0.081488,-0.029556,0,0.067293,0,0,0,0.0099876,-6.7719e-07,0.0029961,15.609,0.0043277,0.0088778,2.2618e-08,0.22,0.22,0
0.01788,0.018245,0.0092683,0.00063348,0.0029705,0.0025572,0,0,0.08187,-0.030381,0,0.066488,0,0,0,0.0099689,-6.7138e-05,0.0029705,15.32,0.0042908,0.0089142,2.2654e-08,0.24,0.22,0
0.01952,0.019701,0.0092634,0.00058644,0.002955,0.0025339,0,0,0.08201,-0.030791,0,0.065882,0,0,0,0.0099493,-9.9415e-05,0.002955,15.145,0.0042683,0.0089226,2.2603e-08,0.26,0.22,0
0.02116,0.02112,0.0092505,0.00058322,0.0029501,0.0025184,0,0,0.081905,-0.03077,0,0.065478,0,0,0,0.0099292,-9.5499e-05,0.0029501,15.083,0.0042613,0.0089016,2.2465e-08,0.28,0.22,0
0.022796,0.022495,0.0092289,0.0006259,0.0029564,0.0025096,0,0,0.081542,-0.030297,0,0.065248,0,0,0,0.0099076,-5.2797e-05,0.0029564,15.134,0.0042704,0.0088483,2.223e-08,0.3,0.22,0
0.024422,0.023817,0.0091962,0.00071661,0.0029738,0.0025044,0,0,0.08089,-0.029344,0,0.065114,0,0,0,0.0098809,3.1905e-05,0.0029738,15.293,0.0042955,0.0087569,2.1868e-08,0.32,0.22,0
0.026032,0.025073,0.0091455,0.00085664,0.0030006,0.0024961,0,0,0.079883,-0.027872,0,0.064898,0,0,0,0.0098395,0.00016257,0.0030006,15.542,0.0043342,0.008616,2.1309e-08,0.34,0.22,0
0.027617,0.026241,0.0090627,0.001044,0.003032,0.0024675,0,0,0.078399,-0.025844,0,0.064156,0,0,0,0.0097616,0.00034504,0.003032,15.821,0.0043796,0.008402,2.0402e-08,0.36,0.22,0
0.029168,0.027286,0.008948,0.0012686,0.003065,0.0023816,0,0,0.076479,-0.023353,0,0.061922,0,0,0,0.009627,0.00058965,0.003065,15.911,0.0044272,0.0080894,1.8987e-08,0.38,0.22,0
0.030677,0.028147,0.0088563,0.0014163,0.0030818,0.0022134,0,0,0.075069,-0.021652,0,0.057549,0,0,0,0.0094668,0.00080578,0.0030818,15.363,0.0044515,0.0077775,1.7532e-08,0.4,0.22,0
0.032171,0.028771,0.0090469,0.0013086,0.0031066,0.0020588,0,0,0.07291,-0.021744,0,0.051368,0,0,0,0.0095657,0.00078977,0.0031066,14.134,0.0044874,0.0078783,2.0026e-08,0.42,0.22,0
0.033625,0.029212,0.0094147,0.00090154,0.0030949,0.0020165,0,0,0.062695,-0.020451,0,0.04182,0,0,0,0.0098746,0.00044166,0.0030949,12.92,0.0044704,0.0084282,2.7917e-08,0.44,0.22,0
0.034801,0.029651,0.0090856,0.00018497,0.0027812,0.0019644,0,0,0.041785,-0.014995,0,0.027764,0,0,0,0.0095079,-0.00023729,0.0027812,12.197,0.0040173,0.0086462,3.157e-08,0.46,0.22,0
0.035469,0.030215,0.0081781,-0.00075064,0.0022283,0.0018372,0,0,0.021266,-0.0089451,0,0.014577,0,0,0,0.0085514,-0.0011239,0.0022283,11.714,0.0032186,0.0085164,2.5682e-08,0.48,0.22,0
0.035754,0.03087,0.0080595,-0.0010576,0.0021006,0.0018021,0,0,0.010975,-0.0055853,0,0.0075632,0,0,0,0.0084138,-0.0014119,0.0021006,11.361,0.0030342,0.0086302,1.9692e-08,0.5,0.22,0
0.035926,0.031537,0.0087551,-0.00033984,0.0025246,0.0018984,0,0,0.0084788,-0.0039785,0,0.0054352,0,0,0,0.0091459,-0.00073063,0.0025246,11.559,0.0036466,0.0087238,1.9387e-08,0.52,0.22,0
0.036091,0.032202,0.0092251,0.00036261,0.0028763,0.0020072,0,0,0.0082534,-0.0032678,0,0.0052188,0,0,0,0.0096631,-7.5384e-05,0.0028763,12.194,0.0041547,0.0086498,2.0686e-08,0.54,0.22,0
0.036256,0.032881,0.0093303,0.00056694,0.0029692,0.0020726,0,0,0.0082694,-0.0031229,0,0.0053888,0,0,0,0.0097976,9.9572e-05,0.0029692,12.672,0.0042888,0.008629,2.1182e-08,0.56,0.22,0
0.036421,0.033573,0.0092797,0.00059058,0.0029611,0.0020833,0,0,0.0082142,-0.0030817,0,0.0054166,0,0,0,0.0097575,0.0001128,0.0029611,12.831,0.0042771,0.0085827,2.0876e-08,0.58,0.22,0
0.036585,0.034272,0.0090678,0.00053098,0.0028797,0.0020594,0,0,0.0080447,-0.0030533,0,0.0053545,0,0,0,0.0095454,5.3484e-05,0.0028797,12.881,0.0041595,0.0084415,1.9658e-08,0.6,0.22,0
0.036743,0.034976,0.0087402,0.0004045,0.0027434,0.0020383,0,0,0.0077958,-0.0030406,0,0.0052995,0,0,0,0.0092197,-7.5061e-05,0.0027434,12.997,0.0039627,0.0082549,1.8e-08,0.62,0.22,0
0.036896,0.035682,0.0083451,0.00020327,0.0025645,0.0020181,0,0,0.0075148,-0.0030696,0,0.005247,0,0,0,0.0088252,-0.00027685,0.0025645,13.101,0.0037043,0.0080663,1.6269e-08,0.64,0.22,0
0.037044,0.036382,0.0077736,-2.3408e-05,0.0023251,0.001953,0,0,0.007319,-0.0031708,0,0.0051083,0,0,0,0.0082421,-0.00049186,0.0023251,12.908,0.0033584,0.0077214,1.444e-08,0.66,0.22,0
0.037188,0.037071,0.0069444,-0.00011878,0.0020477,0.0017579,0,0,0.0083401,-0.0037934,0,0.004934,0,0,0,0.0073717,-0.00054613,0.0020477,12.191,0.0029577,0.006992,1.2658e-08,0.68,0.22,0
0.037388,0.037786,0.006302,-0.00018642,0.0018347,0.0014122,0,0,0.014096,-0.0070774,0,0.0049305,0,0,0,0.0066388,-0.00052322,0.0018347,10.346,0.0026501,0.0063231,1.2022e-08,0.7,0.22,0
0.037812,0.038666,0.006072,-0.00052643,0.0016637,0.0010296,0,0,0.026832,-0.014894,0,0.0061862,0,0,0,0.006287,-0.00074152,0.0016637,7.422,0.0024031,0.0061895,1.1892e-08,0.72,0.22,0
0.038566,0.039839,0.0057513,-0.00083406,0.0014752,0.00078576,0,0,0.040728,-0.022958,0,0.011003,0,0,0,0.005877,-0.00095978,0.0014752,5.9761,0.0021308,0.0060034,9.2805e-09,0.74,0.22,0
0.039519,0.041247,0.0053435,-0.00052372,0.0014459,0.00077819,0,0,0.047282,-0.023881,0,0.018164,0,0,0,0.00546,-0.00064019,0.0014459,7.4914,0.0020886,0.0053734,5.3295e-09,0.76,0.22,0
0.040479,0.042697,0.0052381,0.00018156,0.0016259,0.00085845,0,0,0.046958,-0.018776,0,0.02232,0,0,0,0.0053854,3.417e-05,0.0016259,9.5753,0.0023485,0.0047634,3.5487e-09,0.78,0.22,0
0.041398,0.044042,0.0052937,0.00068299,0.001793,0.00084511,0,0,0.045509,-0.01443,0,0.021973,0,0,0,0.0054458,0.00053089,0.001793,10.136,0.0025899,0.0044222,3.2954e-09,0.8,0.22,0
0.0423,0.045237,0.0053396,0.00092648,0.0018798,0.00076697,0,0,0.044977,-0.012394,0,0.019941,0,0,0,0.0054713,0.00079484,0.0018798,9.6476,0.0027153,0.0042399,3.1119e-09,0.82,0.22,0
0.043197,0.046285,0.005384,0.0010848,0.0019407,0.00068712,0,0,0.044764,-0.011126,0,0.017865,0,0,0,0.0054928,0.00097604,0.0019407,8.9161,0.0028032,0.0041203,2.9819e-09,0.84,0.22,0
0.04409,0.047196,0.0054099,0.0012045,0.0019843,0.00060876,0,0,0.044532,-0.010137,0,0.015828,0,0,0,0.0054974,0.001117,0.0019843,8.1096,0.0028663,0.0040178,2.8533e-09,0.86,0.22,0
0.044978,0.047977,0.0054174,0.0013097,0.0020181,0.00052861,0,0,0.044191,-0.0092093,0,0.013744,0,0,0,0.0054852,0.0012419,0.0020181,7.2349,0.0029151,0.0039136,2.71e-09,0.88,0.22,0
0.045858,0.048631,0.0054081,0.0014172,0.0020476,0.00044463,0,0,0.043686,-0.008195,0,0.01156,0,0,0,0.0054577,0.0013675,0.0020476,6.2779,0.0029576,0.0037965,2.5415e-09,0.9,0.22,0
0.046726,0.049159,0.0053821,0.0015377,0.0020759,0.00035401,0,0,0.04298,-0.0069972,0,0.0092041,0,0,0,0.0054153,0.0015045,0.0020759,5.1877,0.0029986,0.0036592,2.3407e-09,0.92,0.22,0
0.047577,0.049561,0.0053403,0.001677,0.0021052,0.00025287,0,0,0.042056,-0.005566,0,0.0065747,0,0,0,0.005359,0.0016583,0.0021052,3.8656,0.0030409,0.0034994,2.1074e-09,0.94,0.22,0
0.048408,0.049832,0.0052844,0.0018369,0.0021364,0.00013654,0,0,0.040924,-0.0038934,0,0.00355,0,0,0,0.0052922,0.0018291,0.0021364,2.1545,0.0030859,0.0033211,1.8504e-09,0.96,0.22,0
0.049214,0.049969,0.0052425,0.0020258,0.0021805,3.6399e-05,0,0,0.039806,-0.002011,0,0.00094637,0,0,0,0.0052447,0.0020235,0.0021805,0.54635,0.0031496,0.0031469,1.6041e-09,0.98,0.22,0
0.04961,0.050002,0.0052316,0.0021296,0.0022084,-1.1342e-06,0,0,0.039302,-0.0010239,0,-2.9488e-05,0,0,0,0.0052326,0.0021286,0.0022084,-0.085436,0.0031899,0.0030656,1.4905e-09,1,0.22,0
0.00062785,0.00067341,0.0084381,0.0034478,0.0035658,0.0025943,0,0,0.06334,-0.0015334,0,0.067451,0,0,0,0.009543,0.0023429,0.0035658,23.058,0.0051506,0.0066737,1.3559e-08,0,0.24,0
0.0012668,0.0013575,0.0084607,0.0032853,0.0035238,0.002608,0,0,0.064179,-0.0031005,0,0.067807,0,0,0,0.009548,0.002198,0.0035238,22.623,0.0050899,0.0067857,1.401e-08,0.02,0.24,0
0.0025672,0.0027464,0.008542,0.0029699,0.0034536,0.0026423,0,0,0.06615,-0.0062876,0,0.068701,0,0,0,0.0095969,0.0019151,0.0034536,21.756,0.0049885,0.0070405,1.5091e-08,0.04,0.24,0
0.0039128,0.0041741,0.0086587,0.0026618,0.0033962,0.0026776,0,0,0.068413,-0.0095462,0,0.069618,0,0,0,0.0096814,0.0016392,0.0033962,20.896,0.0049056,0.0073241,1.6341e-08,0.06,0.24,0
0.0053037,0.0056352,0.008772,0.002353,0.0033375,0.0026992,0,0,0.070648,-0.012798,0,0.07018,0,0,0,0.0097572,0.0013677,0.0033375,20.044,0.0048208,0.0075991,1.7544e-08,0.08,0.24,0
0.0067387,0.0071222,0.008879,0.0020517,0.0032792,0.0027058,0,0,0.072797,-0.015958,0,0.07035,0,0,0,0.0098223,0.0011084,0.0032792,19.211,0.0047366,0.0078572,1.8656e-08,0.1,0.24,0
0.0082156,0.0086272,0.0089774,0.0017658,0.003223,0.0026982,0,0,0.074808,-0.018943,0,0.070153,0,0,0,0.0098761,0.00086713,0.003223,18.413,0.0046554,0.0080928,1.9649e-08,0.12,0.24,0
0.009731,0.010142,0.0090658,0.0015021,0.0031704,0.0026792,0,0,0.07664,-0.021688,0,0.06966,0,0,0,0.0099195,0.00064839,0.0031704,17.665,0.0045794,0.0083028,2.0512e-08,0.14,0.24,0
0.011281,0.01166,0.0091436,0.0012656,0.0031228,0.0026523,0,0,0.07827,-0.024143,0,0.068961,0,0,0,0.009954,0.0004552,0.0031228,16.983,0.0045107,0.0084857,2.1245e-08,0.16,0.24,0
0.012862,0.013173,0.0092113,0.0010604,0.0030815,0.0026214,0,0,0.079687,-0.026274,0,0.068156,0,0,0,0.0099821,0.00028962,0.0030815,16.379,0.0044511,0.0086418,2.1857e-08,0.18,0.24,0
0.014469,0.014677,0.0092701,0.00088944,0.0030479,0.0025899,0,0,0.080889,-0.028059,0,0.067338,0,0,0,0.010006,0.00015324,0.0030479,15.862,0.0044025,0.0087716,2.2364e-08,0.2,0.24,0
0.016097,0.016166,0.0093216,0.00075507,0.003023,0.0025609,0,0,0.081882,-0.029483,0,0.066584,0,0,0,0.010029,4.7566e-05,0.003023,15.439,0.0043666,0.0088762,2.2783e-08,0.22,0.24,0
0.017744,0.017636,0.0093678,0.00065966,0.0030083,0.0025366,0,0,0.082675,-0.030532,0,0.065952,0,0,0,0.010053,-2.561e-05,0.0030083,15.113,0.0043452,0.0089559,2.3128e-08,0.24,0.24,0
0.019404,0.019081,0.0094108,0.00060576,0.003005,0.0025184,0,0,0.083276,-0.03119,0,0.065479,0,0,0,0.01008,-6.3917e-05,0.003005,14.887,0.0043405,0.0090108,2.3414e-08,0.26,0.24,0
0.021075,0.020498,0.0094529,0.00059637,0.0030148,0.0025066,0,0,0.083696,-0.031439,0,0.065172,0,0,0,0.010113,-6.4168e-05,0.0030148,14.758,0.0043547,0.0090403,2.3649e-08,0.28,0.24,0
0.022752,0.021879,0.009497,0.00063522,0.0030397,0.0025005,0,0,0.083945,-0.031258,0,0.065012,0,0,0,0.010154,-2.2102e-05,0.0030397,14.723,0.0043906,0.0090431,2.3837e-08,0.3,0.24,0
0.024433,0.023217,0.0095464,0.00072692,0.003082,0.0024975,0,0,0.084038,-0.030616,0,0.064936,0,0,0,0.010205,6.7989e-05,0.003082,14.771,0.0044518,0.0090165,2.3978e-08,0.32,0.24,0
0.026114,0.024498,0.0096047,0.00087749,0.0031446,0.002493,0,0,0.08398,-0.029473,0,0.064818,0,0,0,0.010268,0.0002142,0.0031446,14.885,0.0045423,0.0089558,2.4055e-08,0.34,0.24,0
0.027792,0.025705,0.0096706,0.0010946,0.0032295,0.0024752,0,0,0.083733,-0.027754,0,0.064354,0,0,0,0.010336,0.00042909,0.0032295,15.025,0.0046649,0.0088461,2.3993e-08,0.36,0.24,0
0.029463,0.026803,0.0097434,0.0013957,0.0033417,0.0023967,0,0,0.083221,-0.025298,0,0.062313,0,0,0,0.010388,0.00075145,0.0033417,14.983,0.0048269,0.0086385,2.3535e-08,0.38,0.24,0
0.031121,0.027706,0.010144,0.0017176,0.0035586,0.0023164,0,0,0.08012,-0.022141,0,0.057293,0,0,0,0.010748,0.0011139,0.0035586,14.605,0.0051402,0.0086756,2.9861e-08,0.4,0.24,0
0.032702,0.028344,0.010726,0.0016739,0.0037199,0.0022215,0,0,0.067846,-0.018361,0,0.046266,0,0,0,0.01126,0.0011396,0.0037199,13.337,0.0053732,0.0091109,4.2757e-08,0.42,0.24,0
0.033963,0.028841,0.010335,0.0009476,0.0033847,0.0019677,0,0,0.044929,-0.013421,0,0.028865,0,0,0,0.010751,0.00053158,0.0033847,11.42,0.0048891,0.0091385,4.4118e-08,0.44,0.24,0
0.034678,0.029412,0.009221,-8.447e-05,0.002741,0.0017613,0,0,0.022861,-0.0083208,0,0.013797,0,0,0,0.0095528,-0.00041632,0.002741,10.485,0.0039592,0.0088302,3.3231e-08,0.46,0.24,0
0.034984,0.030084,0.0088732,-0.00080704,0.0024198,0.0017853,0,0,0.011807,-0.0054638,0,0.0069208,0,0,0,0.009195,-0.0011289,0.0024198,10.342,0.0034953,0.0090874,2.5297e-08,0.48,0.24,0
0.035169,0.030778,0.0092122,-0.0008414,0.0025112,0.0018472,0,0,0.0091047,-0.0045431,0,0.0051027,0,0,0,0.009542,-0.0011712,0.0025112,10.174,0.0036273,0.0094299,2.3186e-08,0.5,0.24,0
0.035345,0.03146,0.0093638,-0.00027874,0.0027255,0.0018676,0,0,0.0086298,-0.0039055,0,0.0048557,0,0,0,0.0097153,-0.00063021,0.0027255,10.613,0.0039369,0.0091444,2.2162e-08,0.52,0.24,0
0.035515,0.032137,0.0092606,0.00028941,0.002865,0.0019601,0,0,0.0083143,-0.0033483,0,0.0050964,0,0,0,0.0096738,-0.00012378,0.002865,11.828,0.0041383,0.0086979,2.0832e-08,0.54,0.24,0
0.035678,0.032821,0.0091383,0.00054424,0.0029048,0.0021102,0,0,0.0081036,-0.0030687,0,0.0054865,0,0,0,0.0096304,5.2114e-05,0.0029048,13.081,0.0041958,0.0085182,2.0161e-08,0.56,0.24,0
0.035839,0.033513,0.0090379,0.00059766,0.0028907,0.0022234,0,0,0.0079914,-0.0029809,0,0.0057807,0,0,0,0.009589,4.6594e-05,0.0028907,13.889,0.0041754,0.0084857,1.9912e-08,0.58,0.24,0
0.035998,0.034213,0.0089205,0.00054862,0.0028407,0.0022878,0,0,0.0079037,-0.0029797,0,0.0059482,0,0,0,0.0095062,-3.7066e-05,0.0028407,14.323,0.0041033,0.008479,1.9585e-08,0.6,0.24,0
0.036155,0.034916,0.0087806,0.00042508,0.0027617,0.0023207,0,0,0.0078246,-0.0030376,0,0.0060338,0,0,0,0.009383,-0.0001773,0.0027617,14.515,0.0039891,0.0084819,1.9137e-08,0.62,0.24,0
0.036311,0.03562,0.0086422,0.00023949,0.0026645,0.0023217,0,0,0.007771,-0.0031525,0,0.0060364,0,0,0,0.0092417,-0.00036,0.0026645,14.453,0.0038487,0.0085032,1.8666e-08,0.64,0.24,0
0.036466,0.036318,0.0085161,6.6287e-05,0.0025747,0.0022796,0,0,0.0077238,-0.003261,0,0.005927,0,0,0,0.0090923,-0.00050991,0.0025747,14.171,0.003719,0.0084912,1.8104e-08,0.66,0.24,0
0.03662,0.037006,0.0082617,7.5853e-05,0.0025013,0.0021799,0,0,0.0077683,-0.0032698,0,0.005813,0,0,0,0.008807,-0.00046947,0.0025013,13.919,0.0036129,0.0082052,1.7304e-08,0.68,0.24,0
0.036775,0.037686,0.0077469,0.00020843,0.0023866,0.0019675,0,0,0.0093184,-0.0039271,0,0.0059388,0,0,0,0.0082395,-0.00028412,0.0023866,13.353,0.0034473,0.0075519,1.6871e-08,0.7,0.24,0
0.037004,0.038417,0.007397,3.8411e-05,0.0022306,0.0016461,0,0,0.016606,-0.0080323,0,0.006809,0,0,0,0.0077877,-0.00035223,0.0022306,11.405,0.003222,0.0072076,1.893e-08,0.72,0.24,0
0.037507,0.039381,0.0073806,-0.00059303,0.0020363,0.0012723,0,0,0.031642,-0.01702,0,0.0098958,0,0,0,0.0076303,-0.00084274,0.0020363,8.4079,0.0029413,0.0074676,2.2578e-08,0.74,0.24,0
0.038386,0.040731,0.0070461,-0.00071521,0.0018993,0.00099801,0,0,0.046694,-0.023217,0,0.01667,0,0,0,0.0071973,-0.00086638,0.0018993,7.3017,0.0027434,0.0071041,1.9614e-08,0.76,0.24,0
0.039459,0.042293,0.0064192,0.0001229,0.0019626,0.00092492,0,0,0.052874,-0.020808,0,0.022605,0,0,0,0.0065613,-1.9247e-05,0.0019626,8.5493,0.0028349,0.0058557,1.0205e-08,0.78,0.24,0
0.040523,0.043737,0.0060865,0.00080178,0.0020665,0.00086483,0,0,0.05226,-0.016441,0,0.022486,0,0,0,0.0062256,0.00066264,0.0020665,9.059,0.0029849,0.0050116,4.9955e-09,0.8,0.24,0
0.041549,0.044972,0.0060185,0.0010151,0.0021101,0.0007612,0,0,0.05081,-0.014235,0,0.019791,0,0,0,0.0061325,0.00090107,0.0021101,8.4924,0.0030479,0.0047444,4.4099e-09,0.82,0.24,0
0.042556,0.046047,0.0059902,0.0011687,0.0021477,0.00068453,0,0,0.049953,-0.012726,0,0.017798,0,0,0,0.0060861,0.0010728,0.0021477,7.9483,0.0031022,0.0045719,4.0783e-09,0.84,0.24,0
0.043547,0.04698,0.0059638,0.0012841,0.0021744,0.00061292,0,0,0.049263,-0.011574,0,0.015936,0,0,0,0.0060432,0.0012046,0.0021744,7.3544,0.0031407,0.0044342,3.8205e-09,0.86,0.24,0
0.044526,0.047781,0.0059361,0.0013872,0.002197,0.00054342,0,0,0.048609,-0.010527,0,0.014129,0,0,0,0.0060006,0.0013228,0.002197,6.7237,0.0031734,0.004308,3.5894e-09,0.88,0.24,0
0.045492,0.048456,0.0059017,0.0014971,0.0022196,0.00047328,0,0,0.047867,-0.0093928,0,0.012305,0,0,0,0.0059523,0.0014465,0.0022196,6.0548,0.0032061,0.0041737,3.3476e-09,0.9,0.24,0
0.046441,0.04901,0.005856,0.0016252,0.0022444,0.00039781,0,0,0.046951,-0.0080489,0,0.010343,0,0,0,0.0058935,0.0015876,0.0022444,5.2952,0.0032418,0.0040185,3.0721e-09,0.92,0.24,0
0.04737,0.049441,0.0057972,0.0017774,0.0022724,0.00031138,0,0,0.045822,-0.0064346,0,0.008096,0,0,0,0.0058221,0.0017525,0.0022724,4.3447,0.0032823,0.0038369,2.7553e-09,0.94,0.24,0
0.048274,0.049749,0.0057257,0.0019559,0.0023045,0.00020783,0,0,0.044476,-0.0045319,0,0.0054035,0,0,0,0.005739,0.0019426,0.0023045,3.0467,0.0033287,0.0036301,2.4029e-09,0.96,0.24,0
0.049149,0.049925,0.0056735,0.0021724,0.0023537,0.00011668,0,0,0.043156,-0.002358,0,0.0030336,0,0,0,0.0056789,0.0021669,0.0023537,1.8141,0.0033999,0.0034241,2.0607e-09,0.98,0.24,0
0.049578,0.04998,0.0056599,0.002293,0.0023859,8.2408e-05,0,0,0.042563,-0.0012075,0,0.0021426,0,0,0,0.005663,0.0022899,0.0023859,1.3412,0.0034462,0.0033271,1.9022e-09,1,0.24,0
0.00061963,0.00064264,0.008327,0.0033991,0.0035178,0.0024758,0,0,0.062519,-0.0015435,0,0.06437,0,0,0,0.0093566,0.0023694,0.0035178,22.568,0.0050813,0.0064901,1.2576e-08,0,0.26,0
0.0012504,0.0012955,0.0083497,0.0032376,0.0034762,0.0024891,0,0,0.063355,-0.0031011,0,0.064717,0,0,0,0.0093625,0.0022248,0.0034762,22.131,0.0050212,0.0066024,1.3014e-08,0.02,0.26,0
0.0025342,0.0026212,0.008432,0.0029282,0.0034081,0.0025231,0,0,0.065311,-0.0062381,0,0.065601,0,0,0,0.0094147,0.0019455,0.0034081,21.271,0.0049228,0.0068567,1.4063e-08,0.04,0.26,0
0.0038628,0.0039849,0.008551,0.0026318,0.0033548,0.0025596,0,0,0.06755,-0.0093991,0,0.066549,0,0,0,0.0095054,0.0016775,0.0033548,20.439,0.0048459,0.0071392,1.5278e-08,0.06,0.26,0
0.0052362,0.0053821,0.0086683,0.0023373,0.0033017,0.002585,0,0,0.069766,-0.012536,0,0.067211,0,0,0,0.0095907,0.0014149,0.0033017,19.629,0.0047691,0.0074153,1.6469e-08,0.08,0.26,0
0.0066535,0.0068071,0.0087822,0.0020505,0.0032498,0.0025979,0,0,0.071921,-0.015591,0,0.067545,0,0,0,0.0096692,0.0011636,0.0032498,18.841,0.0046942,0.0076785,1.7602e-08,0.1,0.26,0
0.008113,0.0082531,0.0088912,0.0017773,0.0032006,0.0025984,0,0,0.073978,-0.018502,0,0.067559,0,0,0,0.0097401,0.0009284,0.0032006,18.083,0.004623,0.0079242,1.8656e-08,0.12,0.26,0
0.0096126,0.0097134,0.0089942,0.0015233,0.0031552,0.0025883,0,0,0.075906,-0.021215,0,0.067295,0,0,0,0.0098041,0.00071335,0.0031552,17.366,0.0045576,0.0081492,1.9618e-08,0.14,0.26,0
0.011149,0.011182,0.0090909,0.0012931,0.0031152,0.0025701,0,0,0.077684,-0.023688,0,0.066824,0,0,0,0.0098625,0.00052142,0.0031152,16.701,0.0044997,0.0083521,2.0486e-08,0.16,0.26,0
0.01272,0.012652,0.0091817,0.0010906,0.0030817,0.002547,0,0,0.0793,-0.025884,0,0.066222,0,0,0,0.0099174,0.00035496,0.0030817,16.1,0.0044513,0.0085325,2.1267e-08,0.18,0.26,0
0.014321,0.014118,0.0092678,0.00091923,0.0030561,0.0025218,0,0,0.080752,-0.027779,0,0.065567,0,0,0,0.009971,0.00021607,0.0030561,15.571,0.0044144,0.0086903,2.1972e-08,0.2,0.26,0
0.01595,0.015577,0.0093507,0.00078202,0.0030398,0.0024972,0,0,0.082042,-0.029351,0,0.064928,0,0,0,0.010026,0.00010688,0.0030398,15.12,0.0043909,0.008826,2.2615e-08,0.22,0.26,0
0.017603,0.017024,0.0094325,0.00068212,0.0030344,0.0024752,0,0,0.083176,-0.03058,0,0.064356,0,0,0,0.010085,3.0014e-05,0.0030344,14.75,0.004383,0.0089395,2.3209e-08,0.24,0.26,0
0.019277,0.018454,0.0095158,0.00062313,0.0030417,0.002457,0,0,0.084163,-0.031441,0,0.063881,0,0,0,0.01015,-1.1027e-05,0.0030417,14.463,0.0043935,0.0090303,2.3767e-08,0.26,0.26,0
0.020969,0.019863,0.009604,0.00060948,0.003064,0.0024422,0,0,0.085019,-0.031909,0,0.063496,0,0,0,0.010225,-1.14e-05,0.003064,14.253,0.0044258,0.0090972,2.4299e-08,0.28,0.26,0
0.022678,0.021245,0.0097022,0.00064687,0.0031047,0.0024289,0,0,0.085767,-0.031952,0,0.063151,0,0,0,0.010313,3.5736e-05,0.0031047,14.107,0.0044846,0.0091382,2.4813e-08,0.3,0.26,0
0.0244,0.022593,0.009819,0.00074301,0.0031686,0.0024127,0,0,0.086455,-0.031533,0,0.062729,0,0,0,0.010422,0.00014035,0.0031686,14.001,0.0045769,0.0091511,2.5323e-08,0.32,0.26,0
0.026136,0.023894,0.0099693,0.00090963,0.0032637,0.0023851,0,0,0.087173,-0.030603,0,0.062013,0,0,0,0.010561,0.00031811,0.0032637,13.888,0.0047142,0.0091336,2.5852e-08,0.34,0.26,0
0.027887,0.025131,0.010181,0.0011691,0.003405,0.0023303,0,0,0.088086,-0.029067,0,0.060587,0,0,0,0.010752,0.00059835,0.003405,13.676,0.0049183,0.0090819,2.6445e-08,0.36,0.26,0
0.029659,0.026274,0.010478,0.0015645,0.0036129,0.002203,0,0,0.089251,-0.026629,0,0.057279,0,0,0,0.011001,0.0010421,0.0036129,13.154,0.0052186,0.0089565,2.6948e-08,0.38,0.26,0
0.031457,0.027257,0.011271,0.0019207,0.0039575,0.0022138,0,0,0.081639,-0.02129,0,0.049434,0,0,0,0.011782,0.0014101,0.0039575,12.818,0.0057164,0.0093722,4.0568e-08,0.4,0.26,0
0.032993,0.028012,0.011668,0.0016545,0.0039967,0.0022063,0,0,0.055957,-0.013322,0,0.033483,0,0,0,0.012158,0.0011645,0.0039967,11.839,0.005773,0.0099073,5.7629e-08,0.42,0.26,0
0.033855,0.028633,0.010635,0.00067554,0.0033931,0.0019203,0,0,0.02713,-0.0074801,0,0.015433,0,0,0,0.011017,0.00029377,0.0033931,10.064,0.0049012,0.0095723,4.868e-08,0.44,0.26,0
0.03419,0.029288,0.0098942,-0.00025189,0.0028927,0.0019146,0,0,0.012947,-0.005261,0,0.0068596,0,0,0,0.010255,-0.00061251,0.0028927,10.03,0.0041783,0.0096101,3.3379e-08,0.46,0.26,0
0.034391,0.02999,0.010015,-0.00066737,0.0028043,0.0021358,0,0,0.0098054,-0.0046808,0,0.0057823,0,0,0,0.010432,-0.001084,0.0028043,10.861,0.0040507,0.010147,2.9925e-08,0.48,0.26,0
0.03458,0.030689,0.0099127,-0.00062843,0.0027853,0.0021359,0,0,0.0092656,-0.0044378,0,0.0055534,0,0,0,0.010333,-0.0010486,0.0027853,11.011,0.0040232,0.01003,2.7602e-08,0.5,0.26,0
0.034761,0.031381,0.0096161,-0.00027031,0.0028037,0.0020757,0,0,0.008856,-0.0039963,0,0.0053967,0,0,0,0.010038,-0.00069212,0.0028037,11.392,0.0040498,0.0094793,2.458e-08,0.52,0.26,0
0.034934,0.032068,0.009362,0.00015549,0.0028552,0.0021097,0,0,0.0084588,-0.0035097,0,0.0054852,0,0,0,0.009826,-0.0003085,0.0028552,12.323,0.0041242,0.0089813,2.2259e-08,0.54,0.26,0
0.035099,0.032758,0.0091652,0.00043331,0.0028795,0.0022163,0,0,0.0081713,-0.0031801,0,0.0057625,0,0,0,0.0096978,-9.9304e-05,0.0028795,13.461,0.0041593,0.0086992,2.0939e-08,0.56,0.26,0
0.035261,0.033454,0.0090252,0.00053525,0.0028681,0.0023278,0,0,0.0080042,-0.0030328,0,0.0060523,0,0,0,0.0096226,-6.2084e-05,0.0028681,14.367,0.0041429,0.0086024,2.0369e-08,0.58,0.26,0
0.03542,0.034153,0.0089305,0.00051555,0.0028338,0.0024071,0,0,0.0079257,-0.0030137,0,0.0062586,0,0,0,0.0095707,-0.00012468,0.0028338,14.884,0.0040933,0.0086064,2.0178e-08,0.6,0.26,0
0.035578,0.034855,0.0088631,0.00041378,0.0027831,0.0024422,0,0,0.0079041,-0.0030801,0,0.0063496,0,0,0,0.0095183,-0.00024142,0.0027831,15.014,0.00402,0.0086535,2.0097e-08,0.62,0.26,0
0.035736,0.035556,0.008815,0.00026648,0.0027245,0.0024238,0,0,0.0079178,-0.0031954,0,0.006302,0,0,0,0.0094548,-0.00037324,0.0027245,14.778,0.0039353,0.008703,1.9969e-08,0.64,0.26,0
0.035894,0.036252,0.0087919,0.00015063,0.0026828,0.0023495,0,0,0.0079419,-0.0032918,0,0.0061087,0,0,0,0.00939,-0.00044744,0.0026828,14.267,0.0038751,0.0087052,1.9713e-08,0.66,0.26,0
0.036053,0.03694,0.008818,0.00018594,0.0027012,0.0022538,0,0,0.0079518,-0.0032698,0,0.0058599,0,0,0,0.0093718,-0.00036794,0.0027012,13.788,0.0039017,0.0086252,1.9448e-08,0.68,0.26,0
0.036212,0.037621,0.0087541,0.00039515,0.0027448,0.002153,0,0,0.0081508,-0.0031863,0,0.0058256,0,0,0,0.0092774,-0.00012814,0.0027448,13.608,0.0039647,0.008349,1.9407e-08,0.7,0.26,0
0.036378,0.038306,0.0084677,0.00050808,0.0026927,0.0020363,0,0,0.010514,-0.0041555,0,0.0068956,0,0,0,0.0089681,7.6084e-06,0.0026927,13.596,0.0038895,0.0079665,2.1521e-08,0.72,0.26,0
0.036643,0.039093,0.0083952,-0.00026687,0.0024385,0.0017813,0,0,0.020959,-0.0095711,0,0.010596,0,0,0,0.0088056,-0.0006773,0.0024385,11.926,0.0035223,0.0083941,2.911e-08,0.74,0.26,0
0.037287,0.040273,0.0083185,-0.00088865,0.002229,0.0014338,0,0,0.040986,-0.017512,0,0.019489,0,0,0,0.0085929,-0.001163,0.002229,9.5989,0.0032196,0.0086168,3.0119e-08,0.76,0.26,0
0.038386,0.041853,0.0076347,6.8845e-05,0.0023111,0.0012181,0,0,0.057139,-0.020373,0,0.02786,0,0,0,0.0078496,-0.00014602,0.0023111,9.4689,0.0033382,0.0071217,1.6978e-08,0.78,0.26,0
0.039617,0.043385,0.0070007,0.00098415,0.0023955,0.0010372,0,0,0.059868,-0.018347,0,0.026967,0,0,0,0.0071785,0.00080636,0.0023955,9.3789,0.0034601,0.0057455,7.5316e-09,0.8,0.26,0
0.040781,0.044667,0.0067648,0.0011437,0.0023725,0.00085454,0,0,0.057099,-0.015975,0,0.022218,0,0,0,0.006893,0.0010155,0.0023725,8.403,0.003427,0.0053306,6.2428e-09,0.82,0.26,0
0.041901,0.045775,0.0066225,0.0012671,0.0023669,0.00074172,0,0,0.055323,-0.014297,0,0.019285,0,0,0,0.0067238,0.0011658,0.0023669,7.7186,0.0034188,0.0050656,5.5134e-09,0.84,0.26,0
0.042994,0.046733,0.0065329,0.0013614,0.0023683,0.0006552,0,0,0.05414,-0.01309,0,0.017035,0,0,0,0.0066149,0.0012793,0.0023683,7.0996,0.0034208,0.0048832,5.056e-09,0.86,0.26,0
0.044067,0.047556,0.0064669,0.0014543,0.0023763,0.00058613,0,0,0.053177,-0.011987,0,0.015239,0,0,0,0.0065347,0.0013865,0.0023763,6.5718,0.0034325,0.0047318,4.7039e-09,0.88,0.26,0
0.045121,0.048255,0.0064041,0.0015636,0.0023903,0.00052463,0,0,0.052179,-0.010747,0,0.01364,0,0,0,0.0064605,0.0015072,0.0023903,6.0976,0.0034527,0.0045765,4.3606e-09,0.9,0.26,0
0.046154,0.048837,0.0063348,0.0016987,0.0024101,0.00046107,0,0,0.051022,-0.0092472,0,0.011988,0,0,0,0.0063805,0.001653,0.0024101,5.5929,0.0034812,0.0043987,3.9819e-09,0.92,0.26,0
0.047162,0.049303,0.0062553,0.0018646,0.002436,0.00038718,0,0,0.049651,-0.0074276,0,0.010067,0,0,0,0.0062899,0.00183,0.002436,4.9472,0.0035186,0.0041907,3.5534e-09,0.94,0.26,0
0.04814,0.049651,0.006165,0.0020637,0.0024686,0.00029528,0,0,0.048053,-0.0052642,0,0.0076773,0,0,0,0.0061876,0.0020411,0.0024686,4.0085,0.0035658,0.0039515,3.0771e-09,0.96,0.26,0
0.049084,0.049874,0.0061003,0.0023114,0.0025235,0.00021276,0,0,0.046499,-0.0027574,0,0.0055317,0,0,0,0.0061137,0.0022981,0.0025235,3.1218,0.0036451,0.0037101,2.612e-09,0.98,0.26,0
0.049547,0.049954,0.0060835,0.0024512,0.0025604,0.00018165,0,0,0.0458,-0.0014196,0,0.0047229,0,0,0,0.0060938,0.002441,0.0025604,2.8003,0.0036984,0.0035958,2.3961e-09,1,0.26,0
0.00061158,0.00061168,0.0082182,0.0033517,0.003471,0.0023564,0,0,0.061713,-0.00155,0,0.061267,0,0,0,0.0091729,0.002397,0.003471,22.041,0.0050136,0.0063084,1.1648e-08,0,0.28,0
0.0012343,0.0012335,0.0082409,0.0031913,0.0034296,0.0023695,0,0,0.062546,-0.003099,0,0.061606,0,0,0,0.0091797,0.0022524,0.0034296,21.602,0.0049539,0.006421,1.2075e-08,0.02,0.28,0
0.0025018,0.0024968,0.0083238,0.0028867,0.0033632,0.0024029,0,0,0.064488,-0.0061935,0,0.062476,0,0,0,0.0092346,0.0019759,0.0033632,20.75,0.0048579,0.0066749,1.309e-08,0.04,0.28,0
0.0038138,0.0037982,0.0084442,0.0025999,0.0033132,0.0024397,0,0,0.066702,-0.0092727,0,0.063432,0,0,0,0.0093298,0.0017143,0.0033132,19.941,0.0047858,0.0069558,1.4266e-08,0.06,0.28,0
0.0051699,0.0051337,0.008564,0.0023175,0.0032644,0.0024669,0,0,0.068894,-0.012311,0,0.064139,0,0,0,0.0094217,0.0014597,0.0032644,19.161,0.0047153,0.0072311,1.5429e-08,0.08,0.28,0
0.0065696,0.0064986,0.0086825,0.0020432,0.0032177,0.002483,0,0,0.071042,-0.015269,0,0.064558,0,0,0,0.0095094,0.0012164,0.0032177,18.406,0.0046478,0.0074959,1.6555e-08,0.1,0.28,0
0.0080116,0.0078871,0.0087988,0.0017816,0.0031741,0.002488,0,0,0.073121,-0.018103,0,0.064687,0,0,0,0.0095923,0.00098811,0.0031741,17.677,0.0045849,0.0077465,1.7629e-08,0.12,0.28,0
0.0094944,0.0092935,0.0089124,0.0015371,0.0031348,0.0024828,0,0,0.075108,-0.020771,0,0.064553,0,0,0,0.0096712,0.00077827,0.0031348,16.981,0.0045281,0.0079803,1.8641e-08,0.14,0.28,0
0.011016,0.010712,0.009023,0.0013137,0.003101,0.0024695,0,0,0.076986,-0.023235,0,0.064207,0,0,0,0.009747,0.00058968,0.003101,16.327,0.0044792,0.0081957,1.9589e-08,0.16,0.28,0
0.012574,0.012138,0.0091313,0.0011152,0.003074,0.0024503,0,0,0.078746,-0.025464,0,0.063709,0,0,0,0.0098217,0.00042479,0.003074,15.723,0.0044402,0.0083922,2.0477e-08,0.18,0.28,0
0.014166,0.013566,0.0092382,0.00094511,0.003055,0.0024278,0,0,0.080382,-0.027428,0,0.063123,0,0,0,0.0098973,0.00028598,0.003055,15.176,0.0044128,0.0085693,2.1315e-08,0.2,0.28,0
0.015789,0.014992,0.0093452,0.00080694,0.0030456,0.0024041,0,0,0.081894,-0.029103,0,0.062507,0,0,0,0.0099762,0.00017593,0.0030456,14.693,0.0043992,0.0087268,2.2111e-08,0.22,0.28,0
0.017442,0.016412,0.009454,0.00070455,0.0030476,0.0023809,0,0,0.083284,-0.030459,0,0.061904,0,0,0,0.010061,9.799e-05,0.0030476,14.278,0.004402,0.0088639,2.2877e-08,0.24,0.28,0
0.01912,0.017824,0.009567,0.00064263,0.0030629,0.0023589,0,0,0.084553,-0.031463,0,0.061332,0,0,0,0.010153,5.6815e-05,0.0030629,13.93,0.0044242,0.0089787,2.3618e-08,0.26,0.28,0
0.020824,0.019221,0.0096869,0.00062723,0.0030942,0.0023373,0,0,0.085704,-0.032071,0,0.060769,0,0,0,0.010255,5.9052e-05,0.0030942,13.644,0.0044694,0.0090678,2.4334e-08,0.28,0.28,0
0.022549,0.020601,0.0098177,0.00066645,0.0031452,0.0023125,0,0,0.086741,-0.032224,0,0.060124,0,0,0,0.01037,0.00011441,0.0031452,13.403,0.0045431,0.0091256,2.5011e-08,0.3,0.28,0
0.024293,0.021955,0.0099656,0.00077156,0.0032211,0.0022772,0,0,0.087677,-0.031844,0,0.059206,0,0,0,0.0105,0.00023735,0.0032211,13.172,0.0046528,0.0091434,2.5624e-08,0.32,0.28,0
0.026056,0.023274,0.01014,0.00095931,0.0033299,0.0022178,0,0,0.088536,-0.030818,0,0.057663,0,0,0,0.01065,0.00045014,0.0033299,12.885,0.0048099,0.0091081,2.6116e-08,0.34,0.28,0
0.027835,0.024543,0.010354,0.0012577,0.0034834,0.0021113,0,0,0.089314,-0.028934,0,0.054894,0,0,0,0.010822,0.00078938,0.0034834,12.431,0.0050316,0.0089946,2.6359e-08,0.36,0.28,0
0.029628,0.025738,0.010585,0.00172,0.0036914,0.0019339,0,0,0.089613,-0.025628,0,0.050283,0,0,0,0.010991,0.0013138,0.0036914,11.749,0.0053321,0.0087371,2.5913e-08,0.38,0.28,0
0.031419,0.026846,0.010896,0.0019093,0.0038416,0.0019025,0,0,0.078647,-0.018621,0,0.040626,0,0,0,0.01129,0.0015158,0.0038416,11.425,0.005549,0.0088688,3.1395e-08,0.4,0.28,0
0.032808,0.027786,0.010849,0.0012374,0.0036259,0.0020125,0,0,0.04825,-0.0096475,0,0.024035,0,0,0,0.01127,0.00081647,0.0036259,11.16,0.0052374,0.0094203,3.8894e-08,0.42,0.28,0
0.033413,0.02852,0.010403,0.00023255,0.0031905,0.002119,0,0,0.019607,-0.0050239,0,0.010065,0,0,0,0.010845,-0.00020985,0.0031905,10.922,0.0046086,0.0098329,3.6492e-08,0.44,0.28,0
0.033618,0.029196,0.010324,-0.00035596,0.0029905,0.002384,0,0,0.010083,-0.0045135,0,0.0062758,0,0,0,0.010846,-0.00087746,0.0029905,11.799,0.0043196,0.010348,3.2993e-08,0.46,0.28,0
0.033812,0.029898,0.010284,-0.00055856,0.0029178,0.0025475,0,0,0.0095767,-0.0045192,0,0.0066236,0,0,0,0.01086,-0.0011342,0.0029178,12.584,0.0042146,0.010568,3.2033e-08,0.48,0.28,0
0.034001,0.030601,0.0099586,-0.00049813,0.0028381,0.0024556,0,0,0.0092566,-0.0043371,0,0.0063845,0,0,0,0.010512,-0.0010512,0.0028381,12.578,0.0040995,0.010191,2.8949e-08,0.5,0.28,0
0.034182,0.0313,0.0096591,-0.00022913,0.002829,0.0023569,0,0,0.0088791,-0.0039755,0,0.0061279,0,0,0,0.010196,-0.00076605,0.002829,12.745,0.0040863,0.0096793,2.5881e-08,0.52,0.28,0
0.034356,0.031997,0.0094108,9.2269e-05,0.0028509,0.0023284,0,0,0.0085279,-0.0035863,0,0.0060539,0,0,0,0.0099629,-0.00045985,0.0028509,13.281,0.004118,0.0092247,2.3527e-08,0.54,0.28,0
0.034523,0.032694,0.0092159,0.00033619,0.0028656,0.0023652,0,0,0.0082554,-0.0032883,0,0.0061496,0,0,0,0.0098083,-0.00025618,0.0028656,14.025,0.0041393,0.0089232,2.2016e-08,0.56,0.28,0
0.034686,0.033392,0.0090791,0.00045875,0.0028614,0.0024286,0,0,0.0080831,-0.0031234,0,0.0063144,0,0,0,0.0097169,-0.00017908,0.0028614,14.699,0.0041331,0.00878,2.1238e-08,0.58,0.28,0
0.034847,0.034092,0.0089925,0.00047218,0.0028394,0.0024801,0,0,0.007999,-0.0030774,0,0.0064482,0,0,0,0.0096619,-0.00019729,0.0028394,15.102,0.0041013,0.0087457,2.0918e-08,0.6,0.28,0
0.035006,0.034793,0.0089403,0.00040941,0.0028049,0.0024951,0,0,0.007976,-0.0031141,0,0.0064874,0,0,0,0.0096165,-0.00026684,0.0028049,15.163,0.0040515,0.0087611,2.0773e-08,0.62,0.28,0
0.035166,0.035492,0.0089039,0.00031308,0.0027651,0.0024609,0,0,0.0079805,-0.0031876,0,0.0063983,0,0,0,0.0095592,-0.0003422,0.0027651,14.904,0.003994,0.0087708,2.0564e-08,0.64,0.28,0
0.035325,0.036186,0.0088652,0.0002409,0.0027318,0.0023786,0,0,0.0079734,-0.0032382,0,0.0061844,0,0,0,0.0094783,-0.00037223,0.0027318,14.439,0.003946,0.0087231,2.0114e-08,0.66,0.28,0
0.035485,0.036875,0.00881,0.00025567,0.0027197,0.0022711,0,0,0.0079174,-0.0032032,0,0.0059049,0,0,0,0.0093766,-0.00031093,0.0027197,13.983,0.0039285,0.0085834,1.9371e-08,0.68,0.28,0
0.035642,0.037559,0.0087255,0.00038763,0.0027339,0.0021916,0,0,0.007789,-0.0030502,0,0.0056981,0,0,0,0.0092692,-0.00015608,0.0027339,13.879,0.003949,0.0083639,1.8478e-08,0.7,0.28,0
0.035796,0.038243,0.0084886,0.00054127,0.002709,0.0022034,0,0,0.0080197,-0.0029904,0,0.0061954,0,0,0,0.0090651,-3.5224e-05,0.002709,14.611,0.0039129,0.008086,1.8351e-08,0.72,0.28,0
0.035959,0.038957,0.008124,-0.00011704,0.0024021,0.002116,0,0,0.015464,-0.005144,0,0.01138,0,0,0,0.0086845,-0.00067754,0.0024021,14.41,0.0034697,0.0083046,1.974e-08,0.74,0.28,0
0.036429,0.039975,0.0078845,-0.00072304,0.0021484,0.0018226,0,0,0.036959,-0.011632,0,0.024607,0,0,0,0.0083233,-0.0011619,0.0021484,12.733,0.0031033,0.0084151,1.8639e-08,0.76,0.28,0
0.037478,0.041455,0.0077528,0.00026178,0.0024044,0.001546,0,0,0.058397,-0.017817,0,0.035318,0,0,0,0.0080913,-7.6664e-05,0.0024044,11.853,0.003473,0.0073023,1.3348e-08,0.78,0.28,0
0.038788,0.043003,0.0075757,0.0012099,0.0026357,0.0012816,0,0,0.06422,-0.018535,0,0.03332,0,0,0,0.0078313,0.00095424,0.0026357,10.859,0.0038071,0.0062104,9.4e-09,0.8,0.28,0
0.040047,0.044333,0.0073615,0.0013206,0.0026046,0.001016,0,0,0.06184,-0.016693,0,0.026415,0,0,0,0.0075313,0.0011508,0.0026046,9.2206,0.0037623,0.0057925,7.9777e-09,0.82,0.28,0
0.041261,0.045475,0.0071883,0.0013816,0.002571,0.00083979,0,0,0.060025,-0.015462,0,0.021834,0,0,0,0.0073085,0.0012613,0.002571,8.0295,0.0037136,0.0055105,7.0494e-09,0.84,0.28,0
0.042448,0.046456,0.0070775,0.0014372,0.0025544,0.00072896,0,0,0.058801,-0.014524,0,0.018953,0,0,0,0.0071706,0.0013441,0.0025544,7.2255,0.0036897,0.0053257,6.4909e-09,0.86,0.28,0
0.043613,0.047301,0.0069887,0.0015134,0.0025506,0.00065721,0,0,0.057695,-0.013484,0,0.017087,0,0,0,0.0070666,0.0014354,0.0025506,6.7304,0.0036842,0.005165,6.0397e-09,0.88,0.28,0
0.044756,0.048026,0.0069003,0.0016196,0.002556,0.00060167,0,0,0.056476,-0.012173,0,0.015643,0,0,0,0.0069682,0.0015517,0.002556,6.3945,0.003692,0.0049911,5.5791e-09,0.9,0.28,0
0.045872,0.04864,0.006806,0.001761,0.0025701,0.00054708,0,0,0.055066,-0.010518,0,0.014224,0,0,0,0.006865,0.001702,0.0025701,6.085,0.0037123,0.0047889,5.0702e-09,0.92,0.28,0
0.046959,0.049144,0.0067036,0.0019407,0.0025933,0.00048309,0,0,0.053434,-0.0084835,0,0.01256,0,0,0,0.0067528,0.0018915,0.0025933,5.6844,0.0037459,0.004552,4.5014e-09,0.94,0.28,0
0.04801,0.049538,0.0065924,0.0021611,0.002626,0.00040122,0,0,0.051563,-0.0060447,0,0.010432,0,0,0,0.0066297,0.0021238,0.002626,5.0554,0.0037932,0.0042785,3.873e-09,0.96,0.28,0
0.049021,0.049815,0.0065141,0.0024418,0.0026868,0.00032662,0,0,0.049755,-0.0031841,0,0.008492,0,0,0,0.0065415,0.0024144,0.0026868,4.4868,0.0038809,0.0040004,3.2596e-09,0.98,0.28,0
0.049516,0.049923,0.0064936,0.002602,0.0027287,0.00029845,0,0,0.048944,-0.0016465,0,0.0077596,0,0,0,0.0065178,0.0025779,0.0027287,4.3097,0.0039415,0.0038682,2.9748e-09,1,0.28,0
0.00060336,0.00058064,0.0081071,0.0033043,0.0034234,0.0022368,0,0,0.060888,-0.0015485,0,0.058157,0,0,0,0.0089882,0.0024232,0.0034234,21.483,0.004945,0.006127,1.0764e-08,0,0.3,0
0.0012178,0.0011716,0.0081297,0.0031452,0.0033825,0.0022495,0,0,0.061714,-0.0030845,0,0.058488,0,0,0,0.0089959,0.002279,0.0033825,21.046,0.0048858,0.0062397,1.1178e-08,0.02,0.3,0
0.0024686,0.0023735,0.0082126,0.0028457,0.0033175,0.0022825,0,0,0.063637,-0.0061334,0,0.059346,0,0,0,0.0090531,0.0020052,0.0033175,20.204,0.0047919,0.0064928,1.2157e-08,0.04,0.3,0
0.0037632,0.003614,0.0083333,0.0025675,0.0032702,0.002319,0,0,0.065819,-0.0091355,0,0.060294,0,0,0,0.0091512,0.0017496,0.0032702,19.417,0.0047237,0.0067713,1.3287e-08,0.06,0.3,0
0.0051013,0.0048897,0.0084542,0.0022957,0.003225,0.0023465,0,0,0.06798,-0.01208,0,0.06101,0,0,0,0.0092473,0.0015026,0.003225,18.664,0.0046583,0.0070438,1.4408e-08,0.08,0.3,0
0.0064824,0.0061964,0.0085751,0.0020328,0.0031824,0.0023637,0,0,0.070105,-0.014944,0,0.061457,0,0,0,0.0093407,0.0012672,0.0031824,17.934,0.0045968,0.007307,1.5505e-08,0.1,0.3,0
0.0079056,0.007529,0.0086958,0.0017821,0.0031433,0.0023704,0,0,0.072181,-0.017697,0,0.061632,0,0,0,0.0094313,0.0010465,0.0031433,17.226,0.0045404,0.0075582,1.6567e-08,0.12,0.3,0
0.0093697,0.0088826,0.008816,0.0015469,0.0031089,0.0023673,0,0,0.074192,-0.020305,0,0.06155,0,0,0,0.0095198,0.00084308,0.0031089,16.544,0.0044906,0.0077951,1.7588e-08,0.14,0.3,0
0.010873,0.010252,0.0089358,0.0013309,0.00308,0.0023557,0,0,0.076125,-0.022738,0,0.061249,0,0,0,0.0096072,0.00065949,0.00308,15.893,0.0044489,0.0080166,1.8566e-08,0.16,0.3,0
0.012415,0.011633,0.0090558,0.0011375,0.003058,0.0023376,0,0,0.077972,-0.024966,0,0.060777,0,0,0,0.0096952,0.00049814,0.003058,15.281,0.0044171,0.0082218,1.9504e-08,0.18,0.3,0
0.013992,0.013021,0.0091769,0.00097018,0.0030441,0.0023148,0,0,0.079726,-0.026961,0,0.060184,0,0,0,0.0097856,0.00036154,0.0030441,14.715,0.0043971,0.0084101,2.0411e-08,0.2,0.3,0
0.015604,0.014413,0.0093003,0.00083274,0.0030399,0.0022894,0,0,0.081385,-0.028693,0,0.059523,0,0,0,0.0098803,0.00025267,0.0030399,14.2,0.004391,0.0085806,2.1291e-08,0.22,0.3,0
0.017247,0.015805,0.0094271,0.00072963,0.003047,0.0022628,0,0,0.082941,-0.030126,0,0.058832,0,0,0,0.0099813,0.00017541,0.003047,13.743,0.0044012,0.0087318,2.2151e-08,0.24,0.3,0
0.018921,0.017195,0.0095585,0.00066654,0.0030675,0.0022358,0,0,0.084383,-0.031213,0,0.05813,0,0,0,0.01009,0.00013529,0.0030675,13.345,0.0044308,0.0088601,2.2987e-08,0.26,0.3,0
0.020623,0.01858,0.0096951,0.00065114,0.0031039,0.0022074,0,0,0.085686,-0.031886,0,0.057393,0,0,0,0.010206,0.00014035,0.0031039,13.006,0.0044834,0.0089593,2.3779e-08,0.28,0.3,0
0.022349,0.019956,0.0098366,0.00069413,0.0031592,0.0021743,0,0,0.086806,-0.032046,0,0.056533,0,0,0,0.010328,0.00020257,0.0031592,12.714,0.0045633,0.0090185,2.4479e-08,0.3,0.3,0
0.024095,0.021319,0.0099807,0.00081053,0.0032374,0.002129,0,0,0.087663,-0.031549,0,0.055355,0,0,0,0.010452,0.00033958,0.0032374,12.447,0.0046762,0.0090195,2.4988e-08,0.32,0.3,0
0.025855,0.022661,0.01012,0.0010217,0.0033425,0.0020587,0,0,0.088109,-0.030171,0,0.053526,0,0,0,0.010565,0.00057689,0.0033425,12.165,0.0048281,0.0089328,2.5119e-08,0.34,0.3,0
0.027619,0.023974,0.010232,0.0013578,0.0034768,0.0019474,0,0,0.087812,-0.027547,0,0.050632,0,0,0,0.010641,0.00094872,0.0034768,11.839,0.0050221,0.0087088,2.4528e-08,0.36,0.3,0
0.029368,0.025249,0.010265,0.0018739,0.0036416,0.0017993,0,0,0.0861,-0.02298,0,0.046782,0,0,0,0.010635,0.0015032,0.0036416,11.618,0.00526,0.008276,2.2698e-08,0.38,0.3,0
0.031063,0.026508,0.010146,0.0019547,0.0036301,0.001737,0,0,0.074287,-0.015546,0,0.038523,0,0,0,0.010504,0.0015964,0.0036301,11.56,0.0052435,0.0081145,2.0716e-08,0.4,0.3,0
0.032339,0.027618,0.009991,0.00097222,0.003289,0.001924,0,0,0.045399,-0.0079603,0,0.023195,0,0,0,0.010393,0.00056995,0.003289,11.615,0.0047507,0.0088447,2.2264e-08,0.42,0.3,0
0.032879,0.028429,0.0099731,-0.00013403,0.0029517,0.0023262,0,0,0.018149,-0.0046349,0,0.010347,0,0,0,0.010492,-0.00065298,0.0029517,12.335,0.0042636,0.0098779,2.7105e-08,0.44,0.3,0
0.033065,0.029108,0.0099671,-0.00051876,0.0028345,0.0026861,0,0,0.0092724,-0.0043592,0,0.0069837,0,0,0,0.010621,-0.0011722,0.0028345,13.559,0.0040943,0.010387,3.0093e-08,0.46,0.3,0
0.03325,0.029809,0.0098695,-0.00051404,0.0028066,0.0027883,0,0,0.0091817,-0.0043169,0,0.0072496,0,0,0,0.010574,-0.0012183,0.0028066,14.136,0.004054,0.010382,2.9802e-08,0.48,0.3,0
0.033433,0.030516,0.0097247,-0.00038054,0.0028032,0.0027011,0,0,0.0089979,-0.0041389,0,0.0070228,0,0,0,0.010404,-0.0010603,0.0028032,14.073,0.0040491,0.010103,2.8086e-08,0.5,0.3,0
0.03361,0.031221,0.009554,-0.0001545,0.0028199,0.002589,0,0,0.0087544,-0.0038667,0,0.0067315,0,0,0,0.010204,-0.00080411,0.0028199,14.041,0.0040731,0.0097168,2.6001e-08,0.52,0.3,0
0.033783,0.031925,0.0093862,9.0339e-05,0.002843,0.0025205,0,0,0.0085063,-0.0035784,0,0.0065533,0,0,0,0.010027,-0.00055061,0.002843,14.238,0.0041065,0.0093549,2.4167e-08,0.54,0.3,0
0.03395,0.032627,0.0092441,0.00028976,0.0028602,0.0025052,0,0,0.0082991,-0.0033415,0,0.0065134,0,0,0,0.0098982,-0.00036431,0.0028602,14.616,0.0041313,0.0090899,2.2858e-08,0.56,0.3,0
0.034115,0.033329,0.0091369,0.00040838,0.0028636,0.0025205,0,0,0.0081553,-0.0031918,0,0.0065532,0,0,0,0.0098128,-0.0002675,0.0028636,15.003,0.0041363,0.0089361,2.2065e-08,0.58,0.3,0
0.034277,0.03403,0.0090637,0.00044472,0.0028525,0.0025369,0,0,0.0080746,-0.0031302,0,0.006596,0,0,0,0.0097551,-0.00024663,0.0028525,15.242,0.0041203,0.0088681,2.1634e-08,0.6,0.3,0
0.034438,0.03473,0.0090133,0.00041929,0.0028298,0.0025319,0,0,0.0080386,-0.0031336,0,0.0065828,0,0,0,0.0097038,-0.00027119,0.0028298,15.253,0.0040875,0.0088422,2.135e-08,0.62,0.3,0
0.034598,0.035428,0.008967,0.00036568,0.0027998,0.0024949,0,0,0.0080174,-0.0031644,0,0.0064867,0,0,0,0.0096385,-0.00030577,0.0027998,15.058,0.0040442,0.0088119,2.0999e-08,0.64,0.3,0
0.034758,0.036122,0.0088991,0.00032301,0.0027666,0.002432,0,0,0.0079722,-0.0031767,0,0.0063232,0,0,0,0.0095412,-0.00031905,0.0027666,14.777,0.0039962,0.0087361,2.0407e-08,0.66,0.3,0
0.034917,0.036812,0.0087686,0.00031883,0.0027262,0.002372,0,0,0.0078551,-0.0031296,0,0.0061673,0,0,0,0.00939,-0.00030255,0.0027262,14.652,0.0039379,0.0085885,1.9446e-08,0.68,0.3,0
0.035073,0.037499,0.0085089,0.00034197,0.0026553,0.0023672,0,0,0.0076097,-0.0030073,0,0.0061546,0,0,0,0.0091495,-0.00029865,0.0026553,15.044,0.0038354,0.0083718,1.8049e-08,0.7,0.3,0
0.035221,0.038187,0.0081487,0.00032017,0.0025407,0.002441,0,0,0.0072905,-0.0028867,0,0.0063467,0,0,0,0.0088535,-0.00038456,0.0025407,15.954,0.0036699,0.0081792,1.6504e-08,0.72,0.3,0
0.035364,0.038878,0.0076823,-1.9956e-05,0.0022987,0.0023891,0,0,0.014114,-0.0037316,0,0.011696,0,0,0,0.0083868,-0.00072441,0.0022987,16.134,0.0033204,0.0080721,1.3286e-08,0.74,0.3,0
0.035786,0.039785,0.0073429,-7.8568e-05,0.0021793,0.0020421,0,0,0.035394,-0.0085735,0,0.025606,0,0,0,0.0079083,-0.00064389,0.0021793,14.847,0.0031479,0.0076174,9.5319e-09,0.76,0.3,0
0.03678,0.041129,0.0074809,0.00076574,0.002474,0.0016509,0,0,0.057129,-0.015034,0,0.036654,0,0,0,0.0078857,0.00036091,0.002474,13.28,0.0035735,0.0067647,9.1128e-09,0.78,0.3,0
0.038071,0.042643,0.0077217,0.0014436,0.0027496,0.0013761,0,0,0.064638,-0.016978,0,0.035778,0,0,0,0.0080162,0.0011492,0.0027496,11.781,0.0039717,0.0062241,9.6886e-09,0.8,0.3,0
0.039365,0.044,0.0077364,0.0015095,0.0027738,0.0011287,0,0,0.064514,-0.016435,0,0.029346,0,0,0,0.0079391,0.0013068,0.0027738,9.933,0.0040065,0.0060344,9.1051e-09,0.82,0.3,0
0.040652,0.045157,0.0076744,0.0014929,0.0027502,0.00093367,0,0,0.064015,-0.016345,0,0.024275,0,0,0,0.0078138,0.0013535,0.0027502,8.3841,0.0039725,0.0058876,8.5792e-09,0.84,0.3,0
0.041926,0.046152,0.0075927,0.0015083,0.0027303,0.00082221,0,0,0.063211,-0.015886,0,0.021377,0,0,0,0.0077023,0.0013987,0.0027303,7.5407,0.0039438,0.0057546,8.1144e-09,0.86,0.3,0
0.04318,0.047017,0.0074905,0.0015664,0.0027171,0.00075581,0,0,0.062055,-0.014959,0,0.019651,0,0,0,0.0075857,0.0014712,0.0027171,7.1326,0.0039247,0.0055968,7.5861e-09,0.88,0.3,0
0.044408,0.047769,0.0073764,0.0016685,0.0027135,0.00070619,0,0,0.060618,-0.013585,0,0.018361,0,0,0,0.0074629,0.001582,0.0027135,6.9209,0.0039194,0.005405,6.9853e-09,0.9,0.3,0
0.045605,0.048417,0.0072555,0.0018154,0.0027213,0.00065777,0,0,0.058945,-0.011777,0,0.017102,0,0,0,0.0073345,0.0017364,0.0027213,6.7634,0.0039307,0.005177,6.3169e-09,0.92,0.3,0
0.046766,0.048964,0.0071291,0.0020083,0.0027412,0.00060062,0,0,0.057043,-0.0095281,0,0.015616,0,0,0,0.0071994,0.001938,0.0027412,6.5569,0.0039596,0.0049103,5.5811e-09,0.94,0.3,0
0.047887,0.049409,0.0069964,0.0022493,0.0027737,0.00052669,0,0,0.054895,-0.0068172,0,0.013694,0,0,0,0.0070553,0.0021904,0.0027737,6.1919,0.0040065,0.0046028,4.7775e-09,0.96,0.3,0
0.048962,0.049747,0.0069041,0.0025625,0.00284,0.00045901,0,0,0.052833,-0.0036072,0,0.011934,0,0,0,0.0069536,0.002513,0.00284,5.9138,0.0041022,0.0042893,3.9967e-09,0.98,0.3,0
0.049487,0.049888,0.0068799,0.0027428,0.0028868,0.00043345,0,0,0.05191,-0.001872,0,0.01127,0,0,0,0.0069265,0.0026962,0.0028868,5.8732,0.0041699,0.0041401,3.6347e-09,1,0.3,0
0.00059471,0.00054974,0.0079906,0.0032557,0.0033739,0.0021176,0,0,0.060017,-0.001536,0,0.055058,0,0,0,0.0088002,0.0024461,0.0033739,20.905,0.0048734,0.0059453,9.9173e-09,0,0.32,0
0.0012003,0.0011101,0.0080129,0.0030988,0.0033335,0.0021302,0,0,0.060832,-0.0030512,0,0.055385,0,0,0,0.0088088,0.0023029,0.0033335,20.473,0.0048151,0.0060577,1.0317e-08,0.02,0.32,0
0.0024333,0.0022515,0.008095,0.0028051,0.00327,0.0021628,0,0,0.062725,-0.0060439,0,0.056233,0,0,0,0.0088677,0.0020325,0.00327,19.648,0.0047234,0.0063089,1.1256e-08,0.04,0.32,0
0.0037093,0.0034328,0.0082147,0.0025353,0.003225,0.0021987,0,0,0.064866,-0.0089658,0,0.057167,0,0,0,0.0089674,0.0017827,0.003225,18.885,0.0046584,0.0065837,1.2332e-08,0.06,0.32,0
0.0050279,0.0046505,0.0083351,0.0022736,0.0031826,0.0022257,0,0,0.066982,-0.011817,0,0.057868,0,0,0,0.0090654,0.0015433,0.0031826,18.154,0.0045971,0.0068517,1.34e-08,0.08,0.32,0
0.0063886,0.0059008,0.0084563,0.0020215,0.0031433,0.0022426,0,0,0.069069,-0.014584,0,0.058307,0,0,0,0.0091616,0.0013162,0.0031433,17.445,0.0045404,0.0071106,1.445e-08,0.1,0.32,0
0.0077907,0.0071793,0.0085785,0.0017812,0.0031079,0.0022492,0,0,0.071117,-0.017247,0,0.058479,0,0,0,0.0092562,0.0011035,0.0031079,16.754,0.0044892,0.0073585,1.5474e-08,0.12,0.32,0
0.0092333,0.0084813,0.0087016,0.0015555,0.0030771,0.002246,0,0,0.073118,-0.019781,0,0.058396,0,0,0,0.0093498,0.0009074,0.0030771,16.081,0.0044448,0.0075939,1.6469e-08,0.14,0.32,0
0.010715,0.0098026,0.0088261,0.0013474,0.0030521,0.002234,0,0,0.075063,-0.02216,0,0.058083,0,0,0,0.0094434,0.00073011,0.0030521,15.43,0.0044085,0.0078157,1.7435e-08,0.16,0.32,0
0.012236,0.011139,0.0089524,0.00116,0.0030337,0.0022146,0,0,0.076943,-0.024358,0,0.05758,0,0,0,0.0095387,0.00057382,0.0030337,14.809,0.0043821,0.0080231,1.8375e-08,0.18,0.32,0
0.013793,0.012487,0.0090814,0.00099676,0.0030234,0.0021897,0,0,0.078753,-0.026347,0,0.056931,0,0,0,0.0096371,0.000441,0.0030234,14.222,0.0043672,0.0082153,1.9294e-08,0.2,0.32,0
0.015386,0.013844,0.0092137,0.00086142,0.0030225,0.0021609,0,0,0.080485,-0.028095,0,0.056183,0,0,0,0.0097405,0.00033469,0.0030225,13.678,0.0043659,0.0083913,2.0197e-08,0.22,0.32,0
0.017013,0.015207,0.0093502,0.00075882,0.0030327,0.00213,0,0,0.082127,-0.02956,0,0.055381,0,0,0,0.00985,0.00025894,0.0030327,13.185,0.0043806,0.0085487,2.1084e-08,0.24,0.32,0
0.018671,0.016575,0.0094904,0.00069531,0.0030557,0.0020984,0,0,0.083651,-0.030685,0,0.054557,0,0,0,0.0099662,0.00021957,0.0030557,12.75,0.0044138,0.0086832,2.1945e-08,0.26,0.32,0
0.020359,0.017946,0.0096328,0.00067975,0.0030938,0.0020663,0,0,0.085007,-0.031382,0,0.053724,0,0,0,0.010087,0.00022515,0.0030938,12.383,0.0044688,0.0087865,2.2746e-08,0.28,0.32,0
0.022071,0.019319,0.0097722,0.00072487,0.0031491,0.0020328,0,0,0.0861,-0.031515,0,0.052852,0,0,0,0.010209,0.00028851,0.0031491,12.092,0.0045487,0.0088439,2.3411e-08,0.3,0.32,0
0.023803,0.020693,0.0098984,0.00084898,0.0032242,0.0019944,0,0,0.086765,-0.030878,0,0.051855,0,0,0,0.010319,0.00042851,0.0032242,11.887,0.0046572,0.0088311,2.3795e-08,0.32,0.32,0
0.025542,0.022067,0.0099926,0.0010778,0.0033211,0.0019458,0,0,0.086729,-0.029163,0,0.05059,0,0,0,0.010399,0.00067141,0.0033211,11.788,0.0047971,0.0087109,2.3655e-08,0.34,0.32,0
0.027272,0.023441,0.010026,0.0014458,0.0034414,0.0018845,0,0,0.085594,-0.025943,0,0.048997,0,0,0,0.010422,0.0010497,0.0034414,11.866,0.0049709,0.0084356,2.2667e-08,0.36,0.32,0
0.028966,0.024819,0.0099751,0.001994,0.0035907,0.0018263,0,0,0.082996,-0.020757,0,0.047484,0,0,0,0.010375,0.0015936,0.0035907,12.336,0.0051866,0.0079759,2.0632e-08,0.38,0.32,0
0.030592,0.026224,0.0098385,0.0019909,0.0035488,0.0018362,0,0,0.071219,-0.013733,0,0.041454,0,0,0,0.010254,0.001575,0.0035488,12.743,0.0051261,0.0079098,1.9126e-08,0.4,0.32,0
0.031814,0.027468,0.0096878,0.000729,0.003125,0.0020386,0,0,0.043626,-0.0075457,0,0.026042,0,0,0,0.01014,0.00027671,0.003125,12.557,0.0045139,0.0088525,2.1186e-08,0.42,0.32,0
0.032337,0.028335,0.0095866,-0.00053105,0.0027167,0.0024247,0,0,0.017568,-0.0048741,0,0.011446,0,0,0,0.010146,-0.0010902,0.0027167,12.905,0.0039241,0.0099236,2.5274e-08,0.44,0.32,0
0.032517,0.029021,0.0095149,-0.00071085,0.0026412,0.0027548,0,0,0.0089358,-0.0043577,0,0.0071625,0,0,0,0.010214,-0.0014099,0.0026412,14.167,0.0038151,0.01022,2.7203e-08,0.46,0.32,0
0.032694,0.029725,0.0094786,-0.00046266,0.0027048,0.0028652,0,0,0.0088059,-0.0041177,0,0.0074496,0,0,0,0.010246,-0.0012301,0.0027048,14.989,0.0039069,0.010101,2.7165e-08,0.48,0.32,0
0.032869,0.030435,0.0094552,-0.00026333,0.0027576,0.0028147,0,0,0.008707,-0.0039272,0,0.0073181,0,0,0,0.010212,-0.0010205,0.0027576,15.046,0.0039832,0.0099003,2.6503e-08,0.5,0.32,0
0.033042,0.031146,0.0094041,-6.642e-05,0.0028013,0.0027185,0,0,0.0085836,-0.003728,0,0.007068,0,0,0,0.01013,-0.00079204,0.0028013,14.933,0.0040463,0.0096413,2.5415e-08,0.52,0.32,0
0.033213,0.031854,0.0093342,0.00012427,0.0028376,0.0026436,0,0,0.0084457,-0.0035273,0,0.0068735,0,0,0,0.01004,-0.00058112,0.0028376,14.931,0.0040987,0.0093905,2.4313e-08,0.54,0.32,0
0.03338,0.03256,0.0092604,0.00028375,0.0028632,0.0026054,0,0,0.0083163,-0.0033533,0,0.006774,0,0,0,0.0099621,-0.00041793,0.0028632,15.068,0.0041358,0.0091898,2.3413e-08,0.56,0.32,0
0.033545,0.033264,0.0091947,0.00039076,0.0028756,0.0025921,0,0,0.0082148,-0.0032304,0,0.0067394,0,0,0,0.0099013,-0.00031583,0.0028756,15.246,0.0041537,0.0090536,2.2769e-08,0.58,0.32,0
0.033709,0.033967,0.0091419,0.00043904,0.0028743,0.0025844,0,0,0.0081479,-0.0031658,0,0.0067194,0,0,0,0.0098515,-0.00027059,0.0028743,15.353,0.0041517,0.008973,2.2331e-08,0.6,0.32,0
0.033871,0.034668,0.009098,0.0004391,0.0028611,0.0025673,0,0,0.0081079,-0.0031486,0,0.0066749,0,0,0,0.009802,-0.00026487,0.0028611,15.333,0.0041327,0.0089244,2.1986e-08,0.62,0.32,0
0.034033,0.035365,0.0090526,0.0004135,0.0028398,0.0025356,0,0,0.0080766,-0.0031542,0,0.0065926,0,0,0,0.0097419,-0.0002758,0.0028398,15.206,0.004102,0.0088798,2.1613e-08,0.64,0.32,0
0.034194,0.036059,0.0089942,0.00038745,0.0028145,0.0024984,0,0,0.0080336,-0.0031551,0,0.006496,0,0,0,0.009667,-0.00028535,0.0028145,15.068,0.0040654,0.0088208,2.1148e-08,0.66,0.32,0
0.034354,0.03675,0.0089187,0.00037263,0.0027874,0.0024846,0,0,0.0079707,-0.0031392,0,0.0064601,0,0,0,0.0095889,-0.00029751,0.0027874,15.087,0.0040263,0.0087612,2.0692e-08,0.68,0.32,0
0.034513,0.037439,0.0088403,0.0003413,0.0027545,0.0025457,0,0,0.0079116,-0.0031371,0,0.0066189,0,0,0,0.0095471,-0.00036551,0.0027545,15.478,0.0039787,0.008779,2.0693e-08,0.7,0.32,0
0.034671,0.038128,0.0087455,0.00017388,0.0026758,0.0026541,0,0,0.0078906,-0.0032525,0,0.0069005,0,0,0,0.0095098,-0.00059046,0.0026758,16,0.003865,0.0089292,2.1501e-08,0.72,0.32,0
0.034829,0.038808,0.0084603,0.0002,0.0025981,0.002617,0,0,0.013377,-0.0035351,0,0.011489,0,0,0,0.0092415,-0.00058128,0.0025981,16.718,0.0037528,0.0087038,2.2259e-08,0.74,0.32,0
0.035203,0.039632,0.008363,0.00076695,0.002739,0.0022452,0,0,0.030965,-0.0067294,0,0.02161,0,0,0,0.0090188,0.00011113,0.002739,15.946,0.0039563,0.0079698,2.5947e-08,0.76,0.32,0
0.036087,0.040853,0.0085761,0.0014001,0.0029928,0.0017284,0,0,0.052446,-0.012525,0,0.030222,0,0,0,0.0090014,0.00097476,0.0029928,13.099,0.004323,0.007254,2.6728e-08,0.78,0.32,0
0.037348,0.042324,0.0084425,0.0017006,0.0030429,0.001385,0,0,0.064891,-0.015648,0,0.033161,0,0,0,0.0087216,0.0014215,0.0030429,11.173,0.0043953,0.0066413,1.7443e-08,0.8,0.32,0
0.038707,0.043676,0.0082326,0.0016979,0.0029791,0.0011761,0,0,0.068294,-0.016656,0,0.03058,0,0,0,0.0084417,0.0014888,0.0029791,9.9172,0.0043032,0.0063407,1.0828e-08,0.82,0.32,0
0.04008,0.044821,0.0082031,0.0016003,0.002941,0.0010256,0,0,0.068407,-0.017429,0,0.026666,0,0,0,0.0083597,0.0014437,0.002941,8.616,0.0042482,0.0063022,1.0544e-08,0.84,0.32,0
0.041444,0.045821,0.0081021,0.0015776,0.0029039,0.00094206,0,0,0.067577,-0.017242,0,0.024493,0,0,0,0.008236,0.0014437,0.0029039,8.0271,0.0041945,0.0061927,1.0028e-08,0.86,0.32,0
0.042783,0.046703,0.0079646,0.0016172,0.0028745,0.00088607,0,0,0.066171,-0.016345,0,0.023038,0,0,0,0.0080866,0.0014952,0.0028745,7.77,0.0041521,0.0060215,9.3285e-09,0.88,0.32,0
0.04409,0.047483,0.0078173,0.0017146,0.0028596,0.00084007,0,0,0.064451,-0.014885,0,0.021842,0,0,0,0.0079316,0.0016004,0.0028596,7.6657,0.0041305,0.0058053,8.535e-09,0.9,0.32,0
0.045361,0.048169,0.0076681,0.001866,0.0028602,0.00079376,0,0,0.062502,-0.012925,0,0.020638,0,0,0,0.0077756,0.0017586,0.0028602,7.6184,0.0041314,0.0055494,7.6753e-09,0.92,0.32,0
0.046591,0.048763,0.0075179,0.0020705,0.0028765,0.00073967,0,0,0.060338,-0.010478,0,0.019231,0,0,0,0.0076175,0.0019709,0.0028765,7.5587,0.004155,0.0052538,6.7526e-09,0.94,0.32,0
0.047775,0.049265,0.0073646,0.0023299,0.0029084,0.00067122,0,0,0.057931,-0.0075198,0,0.017452,0,0,0,0.0074539,0.0022406,0.0029084,7.4148,0.004201,0.0049153,5.7614e-09,0.96,0.32,0
0.048908,0.049671,0.0072591,0.0026723,0.0029794,0.00060923,0,0,0.055636,-0.0039925,0,0.01584,0,0,0,0.0073404,0.0025911,0.0029794,7.3976,0.0043036,0.0045707,4.8061e-09,0.98,0.32,0
0.049461,0.049848,0.0072315,0.0028709,0.0030307,0.00058588,0,0,0.05461,-0.0020775,0,0.015233,0,0,0,0.0073108,0.0027916,0.0030307,7.4835,0.0043777,0.0044065,4.3646e-09,1,0.32,0
0.00058546,0.0005192,0.0078662,0.0032052,0.0033214,0.0019999,0,0,0.059082,-0.0015109,0,0.051997,0,0,0,0.0086074,0.002464,0.0033214,20.316,0.0047976,0.0057633,9.1073e-09,0,0.34,0
0.0011816,0.0010495,0.0078881,0.0030514,0.0032819,0.0020124,0,0,0.059881,-0.0029954,0,0.052321,0,0,0,0.0086169,0.0023227,0.0032819,19.893,0.0047405,0.0058746,9.4896e-09,0.02,0.34,0
0.0023952,0.0021317,0.0079686,0.0027649,0.0032201,0.0020448,0,0,0.061731,-0.005917,0,0.053164,0,0,0,0.0086768,0.0020567,0.0032201,19.093,0.0046512,0.0061227,1.0382e-08,0.04,0.34,0
0.0036509,0.0032553,0.0080862,0.0025039,0.003177,0.0020801,0,0,0.063819,-0.0087505,0,0.054084,0,0,0,0.0087769,0.0018132,0.003177,18.357,0.004589,0.0063925,1.1399e-08,0.06,0.34,0
0.004948,0.004417,0.0082044,0.0022522,0.003137,0.0021061,0,0,0.065877,-0.011503,0,0.054758,0,0,0,0.008875,0.0015815,0.003137,17.65,0.0045312,0.0066541,1.2404e-08,0.08,0.34,0
0.006286,0.005613,0.0083239,0.0020105,0.0031003,0.0021219,0,0,0.067906,-0.014167,0,0.055169,0,0,0,0.0089715,0.0013628,0.0031003,16.961,0.0044782,0.0069063,1.3392e-08,0.1,0.34,0
0.0076642,0.0068391,0.0084448,0.0017806,0.0030676,0.0021273,0,0,0.069903,-0.016731,0,0.055311,0,0,0,0.0090668,0.0011586,0.0030676,16.283,0.004431,0.0071478,1.4359e-08,0.12,0.34,0
0.0090821,0.0080913,0.0085675,0.0015646,0.0030396,0.0021228,0,0,0.071862,-0.019175,0,0.055192,0,0,0,0.0091615,0.00097059,0.0030396,15.617,0.0043906,0.0073776,1.5302e-08,0.14,0.34,0
0.010539,0.0093657,0.0086923,0.001365,0.0030172,0.002109,0,0,0.073777,-0.021479,0,0.054834,0,0,0,0.0092568,0.00080052,0.0030172,14.966,0.0043582,0.0075948,1.6223e-08,0.16,0.34,0
0.012033,0.010659,0.0088198,0.0011845,0.0030013,0.0020872,0,0,0.075641,-0.023618,0,0.054268,0,0,0,0.0093539,0.00065039,0.0030013,14.334,0.0043352,0.0077987,1.7124e-08,0.18,0.34,0
0.013564,0.011967,0.0089506,0.0010263,0.0029931,0.002059,0,0,0.077448,-0.025568,0,0.053534,0,0,0,0.0094545,0.00052246,0.0029931,13.729,0.0043233,0.0079887,1.8009e-08,0.2,0.34,0
0.015131,0.013289,0.0090854,0.00089411,0.0029939,0.0020261,0,0,0.07919,-0.027297,0,0.05268,0,0,0,0.0095599,0.00041955,0.0029939,13.159,0.0043244,0.0081636,1.8883e-08,0.22,0.34,0
0.016732,0.014623,0.0092243,0.00079265,0.0030051,0.0019908,0,0,0.08085,-0.028762,0,0.051761,0,0,0,0.0096715,0.00034547,0.0030051,12.635,0.0043407,0.0083214,1.9745e-08,0.24,0.34,0
0.018365,0.015968,0.0093665,0.00072835,0.0030284,0.0019554,0,0,0.082394,-0.029901,0,0.05084,0,0,0,0.0097892,0.00030562,0.0030284,12.174,0.0043744,0.0084576,2.0583e-08,0.26,0.34,0
0.020028,0.017325,0.0095088,0.00071031,0.0030657,0.0019225,0,0,0.08376,-0.030621,0,0.049985,0,0,0,0.0099112,0.00030794,0.0030657,11.796,0.0044283,0.0085641,2.1364e-08,0.28,0.34,0
0.021715,0.018695,0.0096442,0.00075184,0.0031188,0.0018952,0,0,0.08483,-0.030771,0,0.049276,0,0,0,0.010032,0.00036428,0.0031188,11.536,0.004505,0.0086267,2.2012e-08,0.3,0.34,0
0.023421,0.020084,0.009759,0.00087244,0.0031894,0.0018769,0,0,0.085405,-0.030121,0,0.0488,0,0,0,0.010139,0.000492,0.0031894,11.445,0.004607,0.0086214,2.2387e-08,0.32,0.34,0
0.025132,0.021494,0.009832,0.0010999,0.0032796,0.0018715,0,0,0.085181,-0.028335,0,0.04866,0,0,0,0.010216,0.00071543,0.0032796,11.603,0.0047372,0.0085141,2.2272e-08,0.34,0.34,0
0.026828,0.022936,0.0098397,0.0014691,0.0033926,0.0018845,0,0,0.083812,-0.025006,0,0.048997,0,0,0,0.010246,0.0010632,0.0033926,12.139,0.0049005,0.0082685,2.1435e-08,0.36,0.34,0
0.028484,0.024419,0.0097715,0.0020025,0.0035322,0.0019238,0,0,0.081111,-0.019886,0,0.050019,0,0,0,0.010226,0.0015485,0.0035322,13.221,0.0051021,0.007877,1.9804e-08,0.38,0.34,0
0.030073,0.025958,0.0096154,0.0018786,0.0034482,0.0020183,0,0,0.069638,-0.013357,0,0.045602,0,0,0,0.01012,0.0013736,0.0034482,14.04,0.0049807,0.007949,1.8665e-08,0.4,0.34,0
0.03127,0.027316,0.0094324,0.00038504,0.0029452,0.0022283,0,0,0.042772,-0.0077587,0,0.029215,0,0,0,0.0099669,-0.00014946,0.0029452,13.597,0.0042542,0.0090423,2.0563e-08,0.42,0.34,0
0.031783,0.028234,0.0093196,-0.00092736,0.0025177,0.0025328,0,0,0.017301,-0.0051832,0,0.012482,0,0,0,0.0099208,-0.0015286,0.0025177,13.34,0.0036366,0.010082,2.416e-08,0.44,0.34,0
0.031962,0.028934,0.0092625,-0.00087644,0.0025158,0.0027735,0,0,0.0087707,-0.0044099,0,0.0072111,0,0,0,0.0099759,-0.0015899,0.0025158,14.369,0.003634,0.010157,2.5629e-08,0.46,0.34,0
0.032134,0.029644,0.0092454,-0.00041966,0.0026477,0.0028497,0,0,0.008577,-0.0039876,0,0.0074091,0,0,0,0.010023,-0.0011977,0.0026477,15.269,0.0038245,0.0098771,2.5397e-08,0.48,0.34,0
0.032305,0.030359,0.0092729,-0.00016852,0.0027313,0.0028129,0,0,0.008504,-0.0037698,0,0.0073136,0,0,0,0.010048,-0.00094315,0.0027313,15.395,0.0039452,0.009691,2.5108e-08,0.5,0.34,0
0.032474,0.031072,0.0093047,8.8641e-06,0.0027941,0.0027466,0,0,0.0084638,-0.0036208,0,0.0071411,0,0,0,0.010056,-0.00074209,0.0027941,15.289,0.0040359,0.009535,2.4763e-08,0.52,0.34,0
0.032643,0.031784,0.0093136,0.00016298,0.002843,0.0026929,0,0,0.0084118,-0.003484,0,0.0070016,0,0,0,0.010047,-0.00057074,0.002843,15.24,0.0041065,0.0093889,2.4342e-08,0.54,0.34,0
0.032811,0.032493,0.0092986,0.00029633,0.0028785,0.0026599,0,0,0.0083461,-0.0033568,0,0.0069158,0,0,0,0.010026,-0.00043091,0.0028785,15.291,0.0041578,0.009257,2.3886e-08,0.56,0.34,0
0.032977,0.033199,0.0092703,0.00039528,0.0028997,0.0026395,0,0,0.0082818,-0.0032557,0,0.0068626,0,0,0,0.009996,-0.00033039,0.0028997,15.372,0.0041884,0.0091495,2.3454e-08,0.58,0.34,0
0.033142,0.033903,0.0092386,0.00045018,0.0029066,0.002621,0,0,0.0082316,-0.0031934,0,0.0068147,0,0,0,0.009961,-0.00027215,0.0029066,15.407,0.0041985,0.0090715,2.308e-08,0.6,0.34,0
0.033306,0.034604,0.0092068,0.00046348,0.0029011,0.0025988,0,0,0.0081975,-0.0031689,0,0.0067568,0,0,0,0.0099209,-0.00025063,0.0029011,15.365,0.0041905,0.0090187,2.2758e-08,0.62,0.34,0
0.03347,0.035302,0.009173,0.00044955,0.0028867,0.002573,0,0,0.0081721,-0.0031684,0,0.0066899,0,0,0,0.0098753,-0.00025285,0.0028867,15.268,0.0041698,0.0089799,2.2455e-08,0.64,0.34,0
0.033633,0.035996,0.00914,0.00042708,0.0028701,0.0025492,0,0,0.0081508,-0.003176,0,0.0066279,0,0,0,0.009831,-0.00026397,0.0028701,15.167,0.0041457,0.0089495,2.2183e-08,0.66,0.34,0
0.033796,0.036687,0.0091394,0.00040368,0.0028629,0.0025349,0,0,0.0081594,-0.003197,0,0.0065907,0,0,0,0.0098219,-0.00027877,0.0028629,15.066,0.0041353,0.0089532,2.216e-08,0.68,0.34,0
0.03396,0.037374,0.0092682,0.00035418,0.0028867,0.0025341,0,0,0.0082959,-0.0032923,0,0.0065886,0,0,0,0.0099412,-0.0003188,0.0028867,14.825,0.0041697,0.0090915,2.3137e-08,0.7,0.34,0
0.034128,0.038057,0.0095948,0.00018354,0.0029335,0.002541,0,0,0.0086597,-0.003575,0,0.0066066,0,0,0,0.010248,-0.00046984,0.0029335,14.27,0.0042373,0.0094872,2.643e-08,0.72,0.34,0
0.034306,0.038736,0.0094765,0.00038386,0.0029581,0.0024997,0,0,0.011614,-0.0036611,0,0.0099937,0,0,0,0.01015,-0.0002892,0.0029581,15.428,0.0042728,0.0092653,3.1647e-08,0.74,0.34,0
0.034585,0.03951,0.0095575,0.0011451,0.0032108,0.0023424,0,0,0.023058,-0.0049845,0,0.017637,0,0,0,0.010225,0.00047778,0.0032108,16.433,0.0046378,0.0087328,4.4404e-08,0.76,0.34,0
0.035295,0.040618,0.010241,0.0017359,0.0035929,0.0020252,0,0,0.045974,-0.009661,0,0.026888,0,0,0,0.010752,0.0012248,0.0035929,13.733,0.0051898,0.0086105,4.9158e-08,0.78,0.34,0
0.03658,0.042013,0.0098472,0.0019795,0.003548,0.0016149,0,0,0.067843,-0.014982,0,0.034263,0,0,0,0.010181,0.001646,0.003548,11.159,0.0051249,0.0077684,2.9521e-08,0.8,0.34,0
0.038091,0.043333,0.0090462,0.0019212,0.0032902,0.0013188,0,0,0.074828,-0.017797,0,0.034288,0,0,0,0.0092864,0.001681,0.0032902,10.114,0.0047526,0.0069424,1.4397e-08,0.82,0.34,0
0.039574,0.04446,0.0087959,0.0017212,0.0031551,0.0011848,0,0,0.07333,-0.018641,0,0.030804,0,0,0,0.0089908,0.0015264,0.0031551,9.2175,0.0045574,0.006798,1.3191e-08,0.84,0.34,0
0.041024,0.045462,0.008581,0.0016503,0.0030694,0.0011103,0,0,0.07165,-0.018448,0,0.028867,0,0,0,0.0087558,0.0014755,0.0030694,8.846,0.0044336,0.0066287,1.2174e-08,0.86,0.34,0
0.04244,0.046363,0.0083857,0.0016707,0.0030169,0.0010531,0,0,0.069794,-0.017501,0,0.027381,0,0,0,0.0085482,0.0015082,0.0030169,8.6741,0.0043578,0.0064201,1.1166e-08,0.88,0.34,0
0.043816,0.047173,0.0082021,0.0017628,0.0029895,0.0010032,0,0,0.067765,-0.015947,0,0.026082,0,0,0,0.008356,0.001609,0.0029895,8.6219,0.0043181,0.0061739,1.0133e-08,0.9,0.34,0
0.04515,0.0479,0.0080265,0.0019171,0.0029831,0.00095333,0,0,0.065565,-0.013858,0,0.024787,0,0,0,0.008173,0.0017706,0.0029831,8.6363,0.0043089,0.0058911,9.0664e-09,0.92,0.34,0
0.046439,0.048545,0.0078556,0.0021305,0.0029958,0.00089815,0,0,0.063177,-0.011249,0,0.023352,0,0,0,0.0079944,0.0019916,0.0029958,8.6788,0.0043273,0.00557,7.9538e-09,0.94,0.34,0
0.047677,0.049109,0.0076849,0.0024045,0.0030268,0.0008326,0,0,0.060555,-0.0080904,0,0.021648,0,0,0,0.0078146,0.0022748,0.0030268,8.7149,0.0043721,0.0052066,6.78e-09,0.96,0.34,0
0.048861,0.049587,0.0075685,0.0027705,0.0031017,0.00077503,0,0,0.058069,-0.004306,0,0.020151,0,0,0,0.0076926,0.0026464,0.0031017,8.9262,0.0044802,0.004838,5.6602e-09,0.98,0.34,0
0.049438,0.049805,0.007538,0.0029838,0.0031565,0.00075347,0,0,0.056958,-0.0022451,0,0.01959,0,0,0,0.0076616,0.0028602,0.0031565,9.1252,0.0045595,0.0046624,5.1447e-09,1,0.34,0
0.00057553,0.0004893,0.0077328,0.0031522,0.0032655,0.0018846,0,0,0.058075,-0.0014728,0,0.049,0,0,0,0.0084092,0.0024758,0.0032655,19.724,0.0047168,0.0055811,8.3347e-09,0,0.36,0
0.0011615,0.00099029,0.0077539,0.0030027,0.003227,0.0018971,0,0,0.05885,-0.0029161,0,0.049325,0,0,0,0.0084194,0.0023372,0.003227,19.315,0.0046612,0.0056907,8.6967e-09,0.02,0.36,0
0.002354,0.0020148,0.0078321,0.0027248,0.0031671,0.0019295,0,0,0.060646,-0.0057493,0,0.050168,0,0,0,0.0084799,0.0020771,0.0031671,18.547,0.0045747,0.0059342,9.538e-09,0.04,0.36,0
0.0035873,0.0030827,0.0079463,0.0024733,0.0031259,0.0019645,0,0,0.062665,-0.0084837,0,0.051077,0,0,0,0.0085791,0.0018404,0.0031259,17.845,0.0045151,0.0061975,1.0489e-08,0.06,0.36,0
0.0048606,0.0041904,0.0080609,0.0022317,0.0030878,0.0019894,0,0,0.06465,-0.011129,0,0.051725,0,0,0,0.0086758,0.0016168,0.0030878,17.165,0.0044601,0.0064511,1.1424e-08,0.08,0.36,0
0.0061733,0.0053341,0.0081766,0.0020007,0.0030532,0.0020039,0,0,0.066604,-0.013683,0,0.052101,0,0,0,0.0087705,0.0014067,0.0030532,16.496,0.0044101,0.0066946,1.234e-08,0.1,0.36,0
0.0075248,0.00651,0.0082938,0.0017813,0.0030225,0.0020078,0,0,0.068527,-0.016136,0,0.052202,0,0,0,0.0088638,0.0012113,0.0030225,15.833,0.0043659,0.0069271,1.3235e-08,0.12,0.36,0
0.0089144,0.0077143,0.0084129,0.0015752,0.0029964,0.0020014,0,0,0.070414,-0.018476,0,0.052036,0,0,0,0.0089563,0.0010317,0.0029964,15.176,0.0043282,0.007148,1.4108e-08,0.14,0.36,0
0.010341,0.0089435,0.0085342,0.0013845,0.0029756,0.0019853,0,0,0.072261,-0.020684,0,0.051619,0,0,0,0.0090492,0.0008695,0.0029756,14.525,0.0042981,0.0073566,1.4959e-08,0.16,0.36,0
0.011805,0.010194,0.0086582,0.0012117,0.002961,0.0019607,0,0,0.074064,-0.022741,0,0.050978,0,0,0,0.0091437,0.00072626,0.002961,13.887,0.004277,0.0075524,1.579e-08,0.18,0.36,0
0.013304,0.011465,0.0087855,0.0010595,0.0029535,0.0019289,0,0,0.075817,-0.024622,0,0.05015,0,0,0,0.0092411,0.00060395,0.0029535,13.266,0.0042662,0.0077349,1.6607e-08,0.2,0.36,0
0.014838,0.012752,0.0089167,0.0009312,0.0029544,0.0018918,0,0,0.077511,-0.026301,0,0.049186,0,0,0,0.009343,0.00050497,0.0029544,12.674,0.0042674,0.0079034,1.7412e-08,0.22,0.36,0
0.016404,0.014057,0.009052,0.00083115,0.002965,0.001852,0,0,0.079132,-0.02774,0,0.048153,0,0,0,0.0094507,0.00043248,0.002965,12.124,0.0042827,0.0080563,1.8208e-08,0.24,0.36,0
0.018003,0.015379,0.0091908,0.00076508,0.0029868,0.0018131,0,0,0.080653,-0.028882,0,0.047141,0,0,0,0.0095651,0.00039084,0.0029868,11.637,0.0043142,0.0081909,1.899e-08,0.26,0.36,0
0.01963,0.016721,0.0093306,0.00074114,0.0030215,0.00178,0,0,0.082018,-0.029645,0,0.046281,0,0,0,0.0096854,0.00038632,0.0030215,11.249,0.0043644,0.0083014,1.9738e-08,0.28,0.36,0
0.021284,0.018088,0.0094656,0.00077122,0.003071,0.0017601,0,0,0.083129,-0.029898,0,0.045763,0,0,0,0.0098088,0.000428,0.003071,11.013,0.004436,0.0083781,2.0405e-08,0.3,0.36,0
0.022956,0.019489,0.0095841,0.00087282,0.0031371,0.0017637,0,0,0.083811,-0.029435,0,0.045856,0,0,0,0.009928,0.00052894,0.0031371,11.016,0.0045313,0.0084043,2.0898e-08,0.32,0.36,0
0.024636,0.020934,0.0096666,0.0010714,0.0032214,0.001804,0,0,0.083787,-0.02795,0,0.046903,0,0,0,0.010031,0.00070743,0.0032214,11.387,0.0046531,0.008355,2.1066e-08,0.34,0.36,0
0.026307,0.02244,0.0096887,0.0014016,0.0033271,0.0018922,0,0,0.082701,-0.025031,0,0.049197,0,0,0,0.010103,0.00098779,0.0033271,12.291,0.0048058,0.0082001,2.0722e-08,0.36,0.36,0
0.027944,0.024023,0.0096352,0.0018954,0.0034592,0.0020251,0,0,0.080288,-0.020329,0,0.052653,0,0,0,0.010138,0.0013922,0.0034592,13.857,0.0049966,0.0079194,1.9734e-08,0.38,0.36,0
0.029519,0.025689,0.0094758,0.0016791,0.0033465,0.0021977,0,0,0.06908,-0.014003,0,0.049665,0,0,0,0.010066,0.0010891,0.0033465,15.019,0.0048338,0.0081239,1.8835e-08,0.4,0.36,0
0.030707,0.027157,0.0092779,7.2129e-05,0.002805,0.0024294,0,0,0.042494,-0.0082805,0,0.032292,0,0,0,0.0099014,-0.00055136,0.002805,14.506,0.0040517,0.00931,2.0416e-08,0.42,0.36,0
0.031218,0.028128,0.00917,-0.0011785,0.0023975,0.0026673,0,0,0.0172,-0.0054159,0,0.01354,0,0,0,0.0098281,-0.0018366,0.0023975,13.88,0.003463,0.010254,2.3668e-08,0.44,0.36,0
0.031395,0.028845,0.0091304,-0.00093698,0.002458,0.0027833,0,0,0.0086741,-0.0044135,0,0.0072367,0,0,0,0.0098515,-0.0016581,0.002458,14.503,0.0035505,0.010103,2.4753e-08,0.46,0.36,0
0.031565,0.029566,0.0091425,-0.00037389,0.0026306,0.0027721,0,0,0.0084655,-0.0039058,0,0.0072075,0,0,0,0.0098916,-0.001123,0.0026306,15.112,0.0037997,0.0096993,2.4291e-08,0.48,0.36,0
0.031734,0.030284,0.0092232,-0.00011511,0.0027324,0.0027285,0,0,0.008438,-0.0037018,0,0.0070941,0,0,0,0.0099626,-0.00085447,0.0027324,15.147,0.0039468,0.0095435,2.4316e-08,0.5,0.36,0
0.031903,0.031001,0.0093156,4.2789e-05,0.0028075,0.002701,0,0,0.0084605,-0.0035941,0,0.0070225,0,0,0,0.010045,-0.00068696,0.0028075,15.111,0.0040553,0.0094811,2.4574e-08,0.52,0.36,0
0.032072,0.031714,0.0093731,0.00017997,0.0028659,0.0026896,0,0,0.0084593,-0.0034917,0,0.0069928,0,0,0,0.010102,-0.00054924,0.0028659,15.168,0.0041397,0.0094204,2.4692e-08,0.54,0.36,0
0.032241,0.032426,0.0093905,0.00030728,0.0029093,0.002682,0,0,0.0084255,-0.0033827,0,0.0069732,0,0,0,0.010123,-0.00042557,0.0029093,15.283,0.0042024,0.0093393,2.457e-08,0.56,0.36,0
0.032409,0.033134,0.0093825,0.00041033,0.0029378,0.0026687,0,0,0.008378,-0.0032858,0,0.0069386,0,0,0,0.010116,-0.00032345,0.0029378,15.374,0.0042436,0.0092508,2.4287e-08,0.58,0.36,0
0.032576,0.033839,0.0093647,0.00047322,0.0029514,0.0026469,0,0,0.0083373,-0.0032216,0,0.0068818,0,0,0,0.010093,-0.00025507,0.0029514,15.384,0.0042631,0.0091751,2.3963e-08,0.6,0.36,0
0.032743,0.034541,0.0093452,0.00049093,0.0029508,0.0026209,0,0,0.0083126,-0.0031979,0,0.0068142,0,0,0,0.010063,-0.00022672,0.0029508,15.313,0.0042623,0.0091256,2.3685e-08,0.62,0.36,0
0.032909,0.035238,0.0093237,0.00047306,0.002939,0.0025985,0,0,0.0083001,-0.0032058,0,0.006756,0,0,0,0.01003,-0.00023347,0.002939,15.211,0.0042453,0.009102,2.3474e-08,0.64,0.36,0
0.033075,0.035932,0.0092976,0.00043939,0.0029211,0.0025826,0,0,0.0082894,-0.0032262,0,0.0067148,0,0,0,0.0099956,-0.00025861,0.0029211,15.124,0.0042194,0.0090914,2.3293e-08,0.66,0.36,0
0.03324,0.036622,0.0092741,0.00040443,0.0029036,0.002558,0,0,0.0082817,-0.0032489,0,0.0066507,0,0,0,0.0099591,-0.00028056,0.0029036,14.988,0.004194,0.0090766,2.3089e-08,0.68,0.36,0
0.033406,0.037307,0.0092813,0.00035163,0.0028899,0.0024793,0,0,0.0083088,-0.0032997,0,0.0064463,0,0,0,0.0099255,-0.00029261,0.0028899,14.525,0.0041743,0.0090565,2.2938e-08,0.7,0.36,0
0.033573,0.037985,0.009347,0.00021681,0.0028691,0.0023426,0,0,0.0084212,-0.003448,0,0.0060907,0,0,0,0.009918,-0.00035424,0.0028691,13.617,0.0041443,0.0090996,2.3529e-08,0.72,0.36,0
0.033743,0.038661,0.0088982,0.00023837,0.002741,0.0021778,0,0,0.011072,-0.0037152,0,0.0084544,0,0,0,0.0094309,-0.00029434,0.002741,14.182,0.0039592,0.0086275,2.4806e-08,0.74,0.36,0
0.034009,0.039427,0.0088093,0.00086375,0.0029019,0.0021525,0,0,0.022602,-0.0038217,0,0.018665,0,0,0,0.0094039,0.00026918,0.0029019,16.181,0.0041917,0.0081759,3.2041e-08,0.76,0.36,0
0.034723,0.040459,0.0098362,0.0018087,0.0034935,0.0021741,0,0,0.046777,-0.0066282,0,0.033983,0,0,0,0.010452,0.0011933,0.0034935,15.869,0.0050461,0.0083857,3.6893e-08,0.78,0.36,0
0.036052,0.041721,0.010056,0.0022607,0.0036949,0.0019067,0,0,0.070504,-0.013235,0,0.042679,0,0,0,0.010531,0.0017849,0.0036949,13.46,0.005337,0.0079791,2.6457e-08,0.8,0.36,0
0.037632,0.042964,0.0095003,0.0020934,0.0034781,0.0015816,0,0,0.078288,-0.018001,0,0.041121,0,0,0,0.0098317,0.001762,0.0034781,11.548,0.0050239,0.0073635,1.6955e-08,0.82,0.36,0
0.039183,0.044076,0.0091996,0.001829,0.0033086,0.0014227,0,0,0.076583,-0.019234,0,0.03699,0,0,0,0.0094684,0.0015602,0.0033086,10.516,0.0047791,0.0071953,1.5452e-08,0.84,0.36,0
0.040695,0.045083,0.0089378,0.0017238,0.0031985,0.0013231,0,0,0.074611,-0.019171,0,0.034401,0,0,0,0.009175,0.0014865,0.0031985,10.038,0.00462,0.0069916,1.4122e-08,0.86,0.36,0
0.042168,0.046003,0.0087129,0.0017297,0.0031328,0.0012509,0,0,0.072542,-0.01824,0,0.032523,0,0,0,0.0089321,0.0015106,0.0031328,9.8244,0.0045251,0.0067581,1.2876e-08,0.88,0.36,0
0.043597,0.046845,0.0085074,0.0018171,0.0030973,0.0011896,0,0,0.070331,-0.016643,0,0.030929,0,0,0,0.0087142,0.0016103,0.0030973,9.7605,0.0044739,0.0064898,1.1637e-08,0.9,0.36,0
0.044981,0.047614,0.0083144,0.0019725,0.0030861,0.0011314,0,0,0.067968,-0.014476,0,0.029416,0,0,0,0.0085117,0.0017752,0.0030861,9.7928,0.0044577,0.0061867,1.0386e-08,0.92,0.36,0
0.046316,0.048313,0.0081294,0.0021912,0.0030962,0.0010716,0,0,0.065431,-0.011765,0,0.027863,0,0,0,0.0083184,0.0020022,0.0030962,9.8993,0.0044722,0.0058475,9.1061e-09,0.94,0.36,0
0.047598,0.048942,0.0079469,0.0024745,0.0031264,0.0010069,0,0,0.062666,-0.0084747,0,0.026178,0,0,0,0.008128,0.0022934,0.0031264,10.078,0.0045159,0.0054677,7.7769e-09,0.96,0.36,0
0.048822,0.049499,0.007823,0.0028562,0.0032037,0.00095265,0,0,0.06005,-0.0045183,0,0.024769,0,0,0,0.0080017,0.0026774,0.0032037,10.482,0.0046276,0.0050849,6.5221e-09,0.98,0.36,0
0.049419,0.049759,0.0077904,0.0030795,0.003261,0.00093253,0,0,0.058882,-0.0023589,0,0.024246,0,0,0,0.0079707,0.0028992,0.003261,10.778,0.0047103,0.0049028,5.9474e-09,1,0.36,0
0.00056487,0.00046029,0.0075897,0.0030964,0.0032058,0.0017728,0,0,0.05699,-0.0014223,0,0.046093,0,0,0,0.0082055,0.0024806,0.0032058,19.137,0.0046306,0.0053996,7.6016e-09,0,0.38,0
0.0011398,0.00093288,0.00761,0.0029522,0.0031687,0.0017854,0,0,0.057737,-0.002814,0,0.046421,0,0,0,0.0082165,0.0023457,0.0031687,18.747,0.0045769,0.0055066,7.941e-09,0.02,0.38,0
0.0023095,0.0019017,0.0076851,0.0026846,0.0031109,0.0018181,0,0,0.059465,-0.0055418,0,0.047272,0,0,0,0.008277,0.0020928,0.0031109,18.021,0.0044936,0.005744,8.726e-09,0.04,0.38,0
0.0035184,0.002916,0.0077946,0.0024433,0.0030714,0.001853,0,0,0.061402,-0.0081654,0,0.048179,0,0,0,0.0083743,0.0018636,0.0030714,17.36,0.0044364,0.0059993,9.6073e-09,0.06,0.38,0
0.0047656,0.0039719,0.0079042,0.0022123,0.003035,0.0018772,0,0,0.063301,-0.010695,0,0.048808,0,0,0,0.0084682,0.0016483,0.003035,16.711,0.0043838,0.0062437,1.0468e-08,0.08,0.38,0
0.0060504,0.0050657,0.0080145,0.001992,0.003002,0.0018905,0,0,0.065163,-0.013129,0,0.049154,0,0,0,0.0085594,0.0014471,0.003002,16.066,0.0043362,0.0064768,1.1306e-08,0.1,0.38,0
0.0073721,0.0061936,0.0081259,0.0017833,0.0029727,0.0018931,0,0,0.066991,-0.015463,0,0.049219,0,0,0,0.0086485,0.0012606,0.0029727,15.422,0.0042939,0.0066984,1.2121e-08,0.12,0.38,0
0.00873,0.0073523,0.0082386,0.0015874,0.0029478,0.001885,0,0,0.06878,-0.017685,0,0.04901,0,0,0,0.0087363,0.0010897,0.0029478,14.776,0.0042579,0.0069079,1.291e-08,0.14,0.38,0
0.010123,0.0085383,0.0083529,0.0014062,0.0029277,0.0018669,0,0,0.070527,-0.01978,0,0.04854,0,0,0,0.0088235,0.00093559,0.0029277,14.132,0.0042289,0.0071047,1.3675e-08,0.16,0.38,0
0.011551,0.0097491,0.0084693,0.0012417,0.0029133,0.0018397,0,0,0.072229,-0.021731,0,0.047833,0,0,0,0.0089113,0.00079966,0.0029133,13.491,0.0042081,0.0072886,1.4416e-08,0.18,0.38,0
0.013012,0.010982,0.0085884,0.0010962,0.0029054,0.0018047,0,0,0.073879,-0.02352,0,0.046923,0,0,0,0.0090011,0.00068342,0.0029054,12.862,0.0041966,0.0074593,1.5139e-08,0.2,0.38,0
0.014506,0.012237,0.0087106,0.00097248,0.0029049,0.0017639,0,0,0.075474,-0.025122,0,0.04586,0,0,0,0.0090944,0.00058873,0.0029049,12.252,0.004196,0.0076165,1.5847e-08,0.22,0.38,0
0.016031,0.013513,0.0088366,0.0008741,0.0029132,0.0017199,0,0,0.077004,-0.026509,0,0.044717,0,0,0,0.0091929,0.00051787,0.0029132,11.679,0.004208,0.0077598,1.6546e-08,0.24,0.38,0
0.017586,0.014813,0.0089668,0.00080553,0.0029317,0.001677,0,0,0.078456,-0.02764,0,0.043602,0,0,0,0.0092985,0.00047381,0.0029317,11.165,0.0042347,0.0078884,1.724e-08,0.26,0.38,0
0.01917,0.016139,0.0091007,0.00077295,0.0029621,0.0016417,0,0,0.079802,-0.028459,0,0.042683,0,0,0,0.0094131,0.00046054,0.0029621,10.751,0.0042786,0.0080008,1.7931e-08,0.28,0.38,0
0.020779,0.0175,0.0092367,0.00078508,0.0030065,0.0016239,0,0,0.080992,-0.028879,0,0.042222,0,0,0,0.0095384,0.0004834,0.0030065,10.502,0.0043428,0.008094,1.8613e-08,0.3,0.38,0
0.022409,0.018906,0.00937,0.00085467,0.0030674,0.0016392,0,0,0.081934,-0.028765,0,0.042618,0,0,0,0.0096751,0.00054955,0.0030674,10.519,0.0044307,0.0081633,1.9269e-08,0.32,0.38,0
0.024056,0.020377,0.0094882,0.0010007,0.0031467,0.0017092,0,0,0.08244,-0.027898,0,0.044439,0,0,0,0.0098206,0.00066819,0.0031467,10.963,0.0045452,0.0081993,1.9848e-08,0.34,0.38,0
0.025707,0.021935,0.0095629,0.0012534,0.0032449,0.001857,0,0,0.082134,-0.025889,0,0.048281,0,0,0,0.0099625,0.00085382,0.0032449,12.048,0.0046871,0.00818,2.0216e-08,0.36,0.38,0
0.027341,0.023606,0.0095577,0.0016722,0.003369,0.0020837,0,0,0.080454,-0.022058,0,0.054176,0,0,0,0.010083,0.0011475,0.003369,13.965,0.0048663,0.0080586,2.0114e-08,0.38,0.38,0
0.028925,0.025398,0.0094013,0.0013488,0.003225,0.0023671,0,0,0.069544,-0.015798,0,0.053208,0,0,0,0.010062,0.00068843,0.003225,15.56,0.0046584,0.0084384,1.9326e-08,0.4,0.38,0
0.030123,0.026985,0.009207,-0.00024266,0.0026893,0.0026486,0,0,0.042807,-0.0092197,0,0.035388,0,0,0,0.0099251,-0.00096074,0.0026893,15.281,0.0038845,0.009666,2.0442e-08,0.42,0.38,0
0.030637,0.028017,0.0091446,-0.0012284,0.0023749,0.002791,0,0,0.017256,-0.0055435,0,0.014615,0,0,0,0.0098604,-0.0019442,0.0023749,14.417,0.0034303,0.010373,2.3635e-08,0.44,0.38,0
0.030813,0.028757,0.0091381,-0.00083388,0.0024913,0.0027348,0,0,0.0086409,-0.0043227,0,0.0071105,0,0,0,0.0098405,-0.0015363,0.0024913,14.386,0.0035985,0.0099937,2.449e-08,0.46,0.38,0
0.030983,0.029488,0.0092034,-0.00032775,0.0026627,0.0026253,0,0,0.0085029,-0.0038876,0,0.0068258,0,0,0,0.0098807,-0.0010051,0.0026627,14.422,0.0038461,0.0095935,2.4007e-08,0.48,0.38,0
0.031153,0.030211,0.0093554,-0.00012255,0.0027699,0.0025931,0,0,0.0085612,-0.0037601,0,0.0067421,0,0,0,0.01002,-0.00078762,0.0027699,14.349,0.0040009,0.0095406,2.4616e-08,0.5,0.38,0
0.031325,0.030929,0.0094794,1.747e-05,0.0028491,0.0026257,0,0,0.0086194,-0.0036811,0,0.0068268,0,0,0,0.01016,-0.00066351,0.0028491,14.522,0.0041153,0.0095643,2.5379e-08,0.52,0.38,0
0.031498,0.031644,0.0095406,0.00015975,0.0029101,0.0026709,0,0,0.0086196,-0.0035754,0,0.0069443,0,0,0,0.010248,-0.00054795,0.0029101,14.835,0.0042035,0.009549,2.577e-08,0.54,0.38,0
0.03167,0.032358,0.0095526,0.00030584,0.0029575,0.0026971,0,0,0.0085736,-0.0034472,0,0.0070126,0,0,0,0.010282,-0.00042357,0.0029575,15.132,0.004272,0.0094787,2.5731e-08,0.56,0.38,0
0.031841,0.033068,0.0095397,0.00043115,0.0029913,0.0026939,0,0,0.008513,-0.0033281,0,0.007004,0,0,0,0.010277,-0.00030595,0.0029913,15.303,0.0043207,0.0093794,2.5411e-08,0.58,0.38,0
0.032011,0.033774,0.0095228,0.0005095,0.0030097,0.0026662,0,0,0.0084671,-0.0032503,0,0.0069321,0,0,0,0.010253,-0.00022014,0.0030097,15.305,0.0043473,0.0092889,2.5024e-08,0.6,0.38,0
0.03218,0.034476,0.0095129,0.00052719,0.003012,0.0026301,0,0,0.0084511,-0.0032303,0,0.0068382,0,0,0,0.010226,-0.00018614,0.003012,15.173,0.0043507,0.0092382,2.475e-08,0.62,0.38,0
0.032349,0.035174,0.0095071,0.00049107,0.0029995,0.0026056,0,0,0.00846,-0.0032609,0,0.0067745,0,0,0,0.010206,-0.00020793,0.0029995,15.016,0.0043326,0.0092379,2.4661e-08,0.64,0.38,0
0.032518,0.035867,0.0094873,0.00042931,0.002975,0.0026042,0,0,0.008466,-0.0033094,0,0.006771,0,0,0,0.010183,-0.00026618,0.002975,14.952,0.0042972,0.0092639,2.4639e-08,0.66,0.38,0
0.032687,0.036557,0.0094175,0.00038047,0.0029394,0.0026121,0,0,0.0084215,-0.0033266,0,0.0067913,0,0,0,0.010118,-0.00032045,0.0029394,15.016,0.0042458,0.0092503,2.4318e-08,0.68,0.38,0
0.032855,0.037242,0.0092346,0.00036072,0.0028786,0.0025779,0,0,0.0082628,-0.0032733,0,0.0067024,0,0,0,0.0099311,-0.00033575,0.0028786,15.072,0.004158,0.0090961,2.3087e-08,0.7,0.38,0
0.033018,0.037919,0.0089434,0.00034082,0.0027853,0.0024542,0,0,0.0080056,-0.0031778,0,0.0063809,0,0,0,0.0095999,-0.0003157,0.0027853,14.843,0.0040232,0.0087859,2.0908e-08,0.72,0.38,0
0.033175,0.038588,0.0084428,0.0003294,0.0026317,0.0021876,0,0,0.0136,-0.0035525,0,0.0089103,0,0,0,0.0090039,-0.00023174,0.0026317,14.338,0.0038013,0.0082064,1.7691e-08,0.74,0.38,0
0.03356,0.039364,0.0082639,0.00098774,0.0027755,0.0019715,0,0,0.032238,-0.0038303,0,0.021909,0,0,0,0.0087919,0.00045978,0.0027755,14.955,0.004009,0.0075042,1.5609e-08,0.76,0.38,0
0.034493,0.040366,0.0088515,0.0021966,0.0033144,0.0019599,0,0,0.055982,-0.0056118,0,0.039861,0,0,0,0.0094279,0.0016201,0.0033144,16.037,0.0047875,0.007159,1.6198e-08,0.78,0.38,0
0.035861,0.04149,0.0093188,0.0025531,0.0035616,0.0018983,0,0,0.071403,-0.011307,0,0.047334,0,0,0,0.0098391,0.0020329,0.0035616,14.99,0.0051445,0.007175,1.6646e-08,0.8,0.38,0
0.037381,0.042613,0.0093734,0.0021728,0.0034638,0.0017561,0,0,0.076824,-0.016784,0,0.04566,0,0,0,0.009784,0.0017621,0.0034638,13.052,0.0050033,0.0073218,1.6626e-08,0.82,0.38,0
0.038934,0.04369,0.0093115,0.0019056,0.0033651,0.0016442,0,0,0.077303,-0.018974,0,0.042748,0,0,0,0.0096631,0.001554,0.0033651,11.96,0.0048608,0.0073724,1.6482e-08,0.84,0.38,0
0.040473,0.044696,0.0091324,0.0017965,0.0032787,0.0015432,0,0,0.076098,-0.019268,0,0.040124,0,0,0,0.0094462,0.0014827,0.0032787,11.387,0.0047359,0.0072347,1.5511e-08,0.86,0.38,0
0.041978,0.045633,0.0089248,0.0017964,0.0032164,0.001461,0,0,0.07421,-0.01846,0,0.037985,0,0,0,0.0092148,0.0015065,0.0032164,11.121,0.0046459,0.0070116,1.4252e-08,0.88,0.38,0
0.043442,0.046507,0.0087187,0.0018804,0.0031797,0.0013881,0,0,0.072007,-0.016892,0,0.03609,0,0,0,0.0089917,0.0016074,0.0031797,11.026,0.0045929,0.0067374,1.2904e-08,0.9,0.38,0
0.044859,0.047321,0.0085208,0.0020348,0.0031667,0.0013198,0,0,0.069603,-0.014714,0,0.034315,0,0,0,0.0087809,0.0017747,0.0031667,11.053,0.0045741,0.0064248,1.1528e-08,0.92,0.38,0
0.046226,0.048074,0.0083304,0.0022546,0.0031755,0.0012538,0,0,0.067013,-0.011971,0,0.032599,0,0,0,0.0085808,0.0020043,0.0031755,11.197,0.0045868,0.0060771,1.0129e-08,0.94,0.38,0
0.047539,0.04877,0.0081429,0.0025411,0.0032052,0.0011886,0,0,0.064191,-0.0086336,0,0.030903,0,0,0,0.0083867,0.0022973,0.0032052,11.486,0.0046297,0.0056918,8.6925e-09,0.96,0.38,0
0.048793,0.049407,0.0080158,0.002929,0.0032834,0.0011371,0,0,0.061521,-0.004608,0,0.029566,0,0,0,0.008261,0.0026838,0.0032834,12.044,0.0047427,0.005306,7.3504e-09,0.98,0.38,0
0.049405,0.049711,0.0079824,0.0031565,0.0033417,0.0011183,0,0,0.06033,-0.0024077,0,0.029075,0,0,0,0.0082315,0.0029074,0.0033417,12.417,0.0048268,0.0051229,6.7388e-09,1,0.38,0
0.0005535,0.00043241,0.0074371,0.0030378,0.0031425,0.0016654,0,0,0.055831,-0.0013609,0,0.043302,0,0,0,0.0079971,0.0024779,0.0031425,18.564,0.0045391,0.0052193,6.9107e-09,0,0.4,0
0.0011166,0.00087773,0.0074564,0.0028998,0.0031069,0.0016783,0,0,0.056544,-0.002692,0,0.043636,0,0,0,0.0080086,0.0023477,0.0031069,18.197,0.0044877,0.005323,7.2256e-09,0.02,0.4,0
0.0022618,0.0017932,0.0075279,0.0026439,0.0030515,0.0017116,0,0,0.058192,-0.0052989,0,0.044502,0,0,0,0.0080685,0.0021033,0.0030515,17.521,0.0044078,0.005553,7.9511e-09,0.04,0.4,0
0.0034443,0.0027561,0.0076318,0.0024135,0.0030136,0.0017468,0,0,0.060037,-0.0078012,0,0.045418,0,0,0,0.0081631,0.0018822,0.0030136,16.908,0.0043529,0.0057992,8.7604e-09,0.06,0.4,0
0.0046632,0.0037626,0.0077352,0.0021935,0.0029786,0.0017708,0,0,0.061836,-0.010207,0,0.046041,0,0,0,0.0082533,0.0016755,0.0029786,16.297,0.0043024,0.0060332,9.5449e-09,0.08,0.4,0
0.0059177,0.004809,0.0078387,0.0019842,0.0029468,0.0017836,0,0,0.063594,-0.012515,0,0.046374,0,0,0,0.0083398,0.0014831,0.0029468,15.683,0.0042566,0.006255,1.0303e-08,0.1,0.4,0
0.007207,0.0058915,0.0079423,0.0017862,0.0029186,0.0017854,0,0,0.065309,-0.01472,0,0.04642,0,0,0,0.0084232,0.0013054,0.0029186,15.062,0.0042157,0.0064643,1.1033e-08,0.12,0.4,0
0.0085301,0.0070069,0.0080463,0.0016008,0.0028942,0.0017764,0,0,0.066979,-0.016813,0,0.046187,0,0,0,0.0085041,0.0011431,0.0028942,14.436,0.0041804,0.0066606,1.1734e-08,0.14,0.4,0
0.0098861,0.0081523,0.0081509,0.0014294,0.0028741,0.0017572,0,0,0.068599,-0.018781,0,0.045688,0,0,0,0.0085832,0.00099717,0.0028741,13.805,0.0041515,0.0068436,1.2404e-08,0.16,0.4,0
0.011274,0.0093252,0.0082563,0.0012737,0.002859,0.0017285,0,0,0.070165,-0.020609,0,0.044941,0,0,0,0.0086613,0.00086864,0.002859,13.172,0.0041297,0.0070128,1.3045e-08,0.18,0.4,0
0.012693,0.010524,0.0083629,0.0011355,0.0028495,0.0016915,0,0,0.071674,-0.022282,0,0.043978,0,0,0,0.0087397,0.00075866,0.0028495,12.543,0.004116,0.0071682,1.3659e-08,0.2,0.4,0
0.014141,0.011747,0.0084713,0.0010171,0.0028465,0.0016479,0,0,0.073122,-0.023782,0,0.042845,0,0,0,0.0088199,0.0006685,0.0028465,11.926,0.0041116,0.00731,1.4251e-08,0.22,0.4,0
0.015618,0.012997,0.0085823,0.00092093,0.002851,0.0016004,0,0,0.074508,-0.025091,0,0.04161,0,0,0,0.0089037,0.00059954,0.002851,11.336,0.0041181,0.0074386,1.4829e-08,0.24,0.4,0
0.017121,0.014273,0.0086974,0.00085003,0.0028642,0.0015532,0,0,0.075831,-0.026185,0,0.040382,0,0,0,0.0089941,0.00055334,0.0028642,10.794,0.0041372,0.0075552,1.5403e-08,0.26,0.4,0
0.018651,0.015583,0.0088185,0.00080808,0.002888,0.0015126,0,0,0.077097,-0.027039,0,0.039329,0,0,0,0.009095,0.00053158,0.002888,10.339,0.0041715,0.007662,1.5993e-08,0.28,0.4,0
0.020205,0.016933,0.0089488,0.00079993,0.0029246,0.0014891,0,0,0.078314,-0.027621,0,0.038717,0,0,0,0.0092127,0.00053601,0.0029246,10.029,0.0042244,0.0077631,1.663e-08,0.3,0.4,0
0.021783,0.018338,0.0090926,0.00083231,0.0029775,0.0014989,0,0,0.079497,-0.027887,0,0.038973,0,0,0,0.0093567,0.00056822,0.0029775,9.9609,0.0043008,0.0078657,1.7364e-08,0.32,0.4,0
0.023385,0.019818,0.0092539,0.00091593,0.003051,0.0015681,0,0,0.080639,-0.027755,0,0.040771,0,0,0,0.0095405,0.00062936,0.003051,10.29,0.0044069,0.0079808,1.8275e-08,0.34,0.4,0
0.025009,0.021405,0.0094216,0.0010703,0.0031476,0.0017352,0,0,0.081562,-0.027004,0,0.045116,0,0,0,0.0097723,0.00071971,0.0031476,11.266,0.0045465,0.0081158,1.9426e-08,0.36,0.4,0
0.026648,0.023141,0.0095319,0.0013502,0.0032646,0.0020328,0,0,0.081475,-0.024887,0,0.052853,0,0,0,0.010021,0.00086139,0.0032646,13.221,0.0047156,0.0082262,2.0572e-08,0.38,0.4,0
0.028268,0.025057,0.009331,0.00072585,0.0030171,0.0024135,0,0,0.071397,-0.019277,0,0.05455,0,0,0,0.0099912,6.571e-05,0.0030171,15.07,0.004358,0.0088864,1.86e-08,0.4,0.4,0
0.029503,0.026788,0.0090914,-0.00080988,0.0024845,0.0027603,0,0,0.04407,-0.011128,0,0.037618,0,0,0,0.0098566,-0.0015751,0.0024845,15.345,0.0035887,0.010131,1.7947e-08,0.42,0.4,0
0.030031,0.027906,0.0092627,-0.0011741,0.0024266,0.0028522,0,0,0.017637,-0.0057318,0,0.015517,0,0,0,0.010017,-0.0019285,0.0024266,14.66,0.003505,0.010511,2.3384e-08,0.44,0.4,0
0.030209,0.028672,0.0094731,-0.00059358,0.0026638,0.0026348,0,0,0.008852,-0.0042347,0,0.0068505,0,0,0,0.010127,-0.0012474,0.0026638,13.808,0.0038478,0.010011,2.6291e-08,0.46,0.4,0
0.030385,0.02941,0.0095952,-0.00031007,0.0027855,0.0024518,0,0,0.0088526,-0.0040243,0,0.0063747,0,0,0,0.010173,-0.00088783,0.0027855,13.196,0.0040235,0.0097575,2.6032e-08,0.48,0.4,0
0.030563,0.030134,0.0097423,-0.00019068,0.0028655,0.0024752,0,0,0.0089398,-0.003973,0,0.0064356,0,0,0,0.010328,-0.00077595,0.0028655,13.268,0.004139,0.0098038,2.6952e-08,0.5,0.4,0
0.030742,0.030853,0.0098089,-6.5933e-05,0.0029229,0.0025811,0,0,0.0089518,-0.0038855,0,0.0067108,0,0,0,0.010445,-0.00070159,0.0029229,13.813,0.004222,0.0098476,2.7656e-08,0.52,0.4,0
0.030921,0.031571,0.0098112,0.00010281,0.0029742,0.0026804,0,0,0.0088881,-0.0037328,0,0.0069691,0,0,0,0.010503,-0.00058901,0.0029742,14.462,0.0042961,0.0098086,2.7827e-08,0.54,0.4,0
0.031098,0.032288,0.0097781,0.00029305,0.0030214,0.0027333,0,0,0.0087838,-0.0035468,0,0.0071067,0,0,0,0.01051,-0.0004386,0.0030214,14.983,0.0043642,0.0096933,2.7505e-08,0.56,0.4,0
0.031272,0.033001,0.0097359,0.00046098,0.0030591,0.0027314,0,0,0.0086799,-0.0033775,0,0.0071016,0,0,0,0.010481,-0.00028366,0.0030591,15.25,0.0044187,0.0095427,2.6888e-08,0.58,0.4,0
0.031445,0.033709,0.0097065,0.00056676,0.003082,0.0026867,0,0,0.0086119,-0.0032698,0,0.0069854,0,0,0,0.010438,-0.00016458,0.003082,15.225,0.0044518,0.0094091,2.6256e-08,0.6,0.4,0
0.031617,0.034412,0.0097024,0.00058532,0.0030863,0.0026261,0,0,0.0086009,-0.0032513,0,0.0068278,0,0,0,0.010405,-0.00011728,0.0030863,14.973,0.004458,0.009342,2.5886e-08,0.62,0.4,0
0.031789,0.035108,0.0097209,0.00051759,0.0030715,0.002585,0,0,0.0086441,-0.0033201,0,0.0067209,0,0,0,0.010398,-0.00015924,0.0030715,14.667,0.0044367,0.0093691,2.594e-08,0.64,0.4,0
0.031963,0.0358,0.0097414,0.00040586,0.0030442,0.0025946,0,0,0.0087064,-0.0034298,0,0.0067459,0,0,0,0.010415,-0.00026738,0.0030442,14.54,0.0043972,0.009471,2.6355e-08,0.66,0.4,0
0.032137,0.036489,0.009722,0.00032731,0.0030148,0.0026586,0,0,0.0087194,-0.0034937,0,0.0069124,0,0,0,0.010423,-0.00037388,0.0030148,14.764,0.0043547,0.0095642,2.6721e-08,0.68,0.4,0
0.032311,0.037176,0.0096215,0.0003665,0.0029964,0.0027371,0,0,0.0086126,-0.0034189,0,0.0071163,0,0,0,0.010372,-0.00038395,0.0029964,15.316,0.0043281,0.0095268,2.6494e-08,0.7,0.4,0
0.032482,0.037858,0.0094612,0.00052336,0.0029954,0.0026964,0,0,0.0084056,-0.0032136,0,0.0070106,0,0,0,0.010214,-0.00022961,0.0029954,15.551,0.0043266,0.0092628,2.5114e-08,0.72,0.4,0
0.032648,0.038519,0.0092213,0.00072642,0.0029843,0.0023967,0,0,0.016225,-0.0034622,0,0.0098498,0,0,0,0.0098602,8.7521e-05,0.0029843,14.57,0.0043107,0.0087168,2.1478e-08,0.74,0.4,0
0.033131,0.03928,0.0090767,0.0014416,0.0031555,0.0019687,0,0,0.040276,-0.00503,0,0.02191,0,0,0,0.0095725,0.00094581,0.0031555,13.51,0.0045579,0.0078191,1.6708e-08,0.76,0.4,0
0.034259,0.040245,0.0092172,0.0024744,0.0035075,0.0017259,0,0,0.065083,-0.00816,0,0.037397,0,0,0,0.0096549,0.0020367,0.0035075,13.632,0.0050664,0.0070336,1.4521e-08,0.78,0.4,0
0.035734,0.041274,0.0093773,0.0026565,0.0036101,0.0017398,0,0,0.074973,-0.012398,0,0.045235,0,0,0,0.0098116,0.0022221,0.0036101,13.774,0.0052146,0.0070023,1.5398e-08,0.8,0.4,0
0.037258,0.042293,0.0094117,0.0022392,0.0034953,0.0018123,0,0,0.076913,-0.016329,0,0.04712,0,0,0,0.0098453,0.0018056,0.0034953,13.423,0.0050487,0.0073433,1.679e-08,0.82,0.4,0
0.038811,0.043317,0.0093644,0.0019799,0.0034033,0.0018078,0,0,0.077494,-0.018504,0,0.047002,0,0,0,0.0097846,0.0015596,0.0034033,13.036,0.0049158,0.0074758,1.7146e-08,0.84,0.4,0
0.040357,0.044312,0.0092214,0.0018736,0.0033285,0.0017457,0,0,0.076608,-0.018914,0,0.045387,0,0,0,0.0096171,0.0014778,0.0033285,12.693,0.0048078,0.0073899,1.6445e-08,0.86,0.4,0
0.041875,0.045265,0.0090329,0.0018726,0.0032716,0.0016672,0,0,0.074896,-0.018187,0,0.043346,0,0,0,0.0094042,0.0015012,0.0032716,12.469,0.0047257,0.0071834,1.5235e-08,0.88,0.4,0
0.043353,0.046169,0.0088356,0.001954,0.0032369,0.0015869,0,0,0.072784,-0.016677,0,0.04126,0,0,0,0.0091861,0.0016036,0.0032369,12.365,0.0046755,0.0069124,1.3849e-08,0.9,0.4,0
0.044786,0.047026,0.0086424,0.0021054,0.0032243,0.0015097,0,0,0.070435,-0.014547,0,0.039251,0,0,0,0.0089762,0.0017715,0.0032243,12.383,0.0046574,0.0065998,1.2412e-08,0.92,0.4,0
0.046171,0.047834,0.0084549,0.0023218,0.003233,0.0014374,0,0,0.067885,-0.011846,0,0.037373,0,0,0,0.0087771,0.0019996,0.003233,12.548,0.0046699,0.0062536,1.0955e-08,0.94,0.4,0
0.047502,0.048596,0.0082697,0.0026047,0.0032623,0.0013716,0,0,0.065096,-0.0085488,0,0.035662,0,0,0,0.0085865,0.0022879,0.0032623,12.918,0.0047122,0.0058739,9.4734e-09,0.96,0.4,0
0.048775,0.049314,0.0081439,0.0029886,0.0033397,0.0013228,0,0,0.062454,-0.0045649,0,0.034393,0,0,0,0.0084662,0.0026663,0.0033397,13.592,0.0048241,0.0054971,8.1035e-09,0.98,0.4,0
0.049395,0.049662,0.0081108,0.0032139,0.0033974,0.0013051,0,0,0.061274,-0.0023858,0,0.033933,0,0,0,0.0084396,0.0028852,0.0033974,14.02,0.0049074,0.0053187,7.4828e-09,1,0.4,0
0.00054147,0.00040585,0.0072759,0.0029764,0.0030757,0.0015633,0,0,0.054603,-0.0012908,0,0.040645,0,0,0,0.0077847,0.0024676,0.0030757,18.01,0.0044427,0.0050412,6.2645e-09,0,0.42,0
0.0010921,0.0008252,0.0072941,0.0028454,0.0030418,0.0015764,0,0,0.055279,-0.002554,0,0.040988,0,0,0,0.0077967,0.0023428,0.0030418,17.67,0.0043938,0.0051411,6.5537e-09,0.02,0.42,0
0.0022112,0.0016898,0.0073613,0.0026023,0.0029891,0.0016107,0,0,0.056839,-0.0050279,0,0.041877,0,0,0,0.0078556,0.002108,0.0029891,17.054,0.0043176,0.0053624,7.2182e-09,0.04,0.42,0
0.0033656,0.0026039,0.0074589,0.0023834,0.0029527,0.0016468,0,0,0.05858,-0.0074007,0,0.042817,0,0,0,0.0079468,0.0018955,0.0029527,16.497,0.004265,0.0055987,7.9554e-09,0.06,0.42,0
0.0045544,0.0035636,0.0075553,0.0021747,0.002919,0.0016713,0,0,0.060272,-0.0096763,0,0.043453,0,0,0,0.0080326,0.0016974,0.002919,15.93,0.0042163,0.0058218,8.6646e-09,0.08,0.42,0
0.0057765,0.0045651,0.0076508,0.0019764,0.0028882,0.0016844,0,0,0.061914,-0.011853,0,0.043794,0,0,0,0.0081136,0.0015136,0.0028882,15.354,0.0041718,0.0060317,9.3439e-09,0.1,0.42,0
0.007031,0.0056048,0.0077454,0.0017893,0.0028604,0.0016865,0,0,0.063505,-0.013924,0,0.043849,0,0,0,0.0081903,0.0013445,0.0028604,14.767,0.0041317,0.0062281,9.9907e-09,0.12,0.42,0
0.0083167,0.0066797,0.0078391,0.0016144,0.0028361,0.0016779,0,0,0.06504,-0.015881,0,0.043624,0,0,0,0.008263,0.0011905,0.0028361,14.169,0.0040965,0.0064104,1.0603e-08,0.14,0.42,0
0.0096326,0.0077871,0.0079318,0.001453,0.0028154,0.0016589,0,0,0.066513,-0.017712,0,0.043132,0,0,0,0.0083323,0.0010524,0.0028154,13.563,0.0040667,0.0065782,1.1178e-08,0.16,0.42,0
0.010977,0.0089247,0.0080235,0.0013063,0.0027989,0.0016303,0,0,0.067919,-0.019404,0,0.042388,0,0,0,0.0083987,0.00093105,0.0027989,12.95,0.0040429,0.0067312,1.1716e-08,0.18,0.42,0
0.012349,0.010091,0.0081143,0.0011759,0.0027871,0.0015931,0,0,0.069254,-0.020945,0,0.04142,0,0,0,0.0084631,0.00082718,0.0027871,12.335,0.0040258,0.0068691,1.2218e-08,0.2,0.42,0
0.013747,0.011286,0.0082047,0.0010634,0.0027804,0.0015487,0,0,0.070515,-0.022321,0,0.040266,0,0,0,0.0085265,0.00074156,0.0027804,11.726,0.0040162,0.0069922,1.2686e-08,0.22,0.42,0
0.01517,0.01251,0.0082954,0.00097031,0.0027797,0.0014995,0,0,0.071704,-0.023522,0,0.038987,0,0,0,0.0085909,0.00067481,0.0027797,11.134,0.0040151,0.0071016,1.3129e-08,0.24,0.42,0
0.016616,0.013765,0.0083881,0.00089814,0.0027859,0.0014489,0,0,0.072829,-0.02454,0,0.037672,0,0,0,0.008659,0.00062725,0.0027859,10.576,0.004024,0.0071994,1.3558e-08,0.26,0.42,0
0.018083,0.015057,0.0084858,0.00084829,0.0028002,0.0014023,0,0,0.073913,-0.025375,0,0.036459,0,0,0,0.0087355,0.00059868,0.0028002,10.08,0.0040448,0.0072898,1.3998e-08,0.28,0.42,0
0.019572,0.016395,0.0085945,0.00082195,0.0028249,0.0013678,0,0,0.075004,-0.026039,0,0.035563,0,0,0,0.0088284,0.00058805,0.0028249,9.6902,0.0040804,0.0073807,1.4493e-08,0.3,0.42,0
0.021083,0.017791,0.0087245,0.00082021,0.0028634,0.0013586,0,0,0.076194,-0.026561,0,0.035324,0,0,0,0.0089517,0.00059293,0.0028634,9.475,0.004136,0.0074864,1.5126e-08,0.32,0.42,0
0.02262,0.019266,0.0088943,0.00084536,0.0029219,0.0013966,0,0,0.077642,-0.026995,0,0.036311,0,0,0,0.0091307,0.00060904,0.0029219,9.5468,0.0042205,0.0076327,1.6053e-08,0.34,0.42,0
0.024189,0.020854,0.0091329,0.00090649,0.0030118,0.0015225,0,0,0.079574,-0.027369,0,0.039585,0,0,0,0.0094092,0.00063015,0.0030118,10.111,0.0043504,0.0078636,1.7579e-08,0.36,0.42,0
0.025803,0.02261,0.0094234,0.0010229,0.0031339,0.0018168,0,0,0.081764,-0.027443,0,0.047238,0,0,0,0.0098119,0.00063441,0.0031339,11.627,0.0045267,0.0082182,1.9991e-08,0.38,0.42,0
0.027459,0.024627,0.0096681,-2.4807e-05,0.002893,0.0022043,0,0,0.073694,-0.024298,0,0.050039,0,0,0,0.010198,-0.00055452,0.002893,12.958,0.0041787,0.0095731,2.7653e-08,0.4,0.42,0
0.028779,0.02654,0.0098018,-0.0015048,0.0024891,0.0025723,0,0,0.046564,-0.015761,0,0.035276,0,0,0,0.010455,-0.0021581,0.0024891,13.615,0.0035954,0.011147,3.8417e-08,0.42,0.42,0
0.029374,0.027788,0.010025,-0.0010217,0.0027009,0.0027688,0,0,0.019631,-0.0074542,0,0.015763,0,0,0,0.010738,-0.0017351,0.0027009,14.141,0.0039013,0.011001,4.0374e-08,0.44,0.42,0
0.029583,0.028588,0.010358,-0.00018758,0.0030512,0.0026163,0,0,0.010162,-0.0044557,0,0.0074585,0,0,0,0.010981,-0.0008109,0.0030512,13.29,0.0044072,0.010415,3.5536e-08,0.46,0.42,0
0.029776,0.029327,0.010451,-0.00024351,0.0030624,0.0024328,0,0,0.0096058,-0.0042977,0,0.0063253,0,0,0,0.010981,-0.00077279,0.0030624,12.244,0.0044234,0.010382,3.2637e-08,0.48,0.42,0
0.029967,0.030052,0.010338,-0.00028206,0.0030167,0.002482,0,0,0.0095173,-0.0042884,0,0.0064533,0,0,0,0.010891,-0.00083508,0.0030167,12.538,0.0043574,0.010352,3.1733e-08,0.5,0.42,0
0.030157,0.030773,0.01023,-0.00018624,0.0030133,0.002624,0,0,0.0093824,-0.0041594,0,0.0068223,0,0,0,0.010856,-0.0008117,0.0030133,13.379,0.0043525,0.010302,3.1277e-08,0.52,0.42,0
0.030343,0.031495,0.010131,2.4862e-05,0.0030469,0.0027472,0,0,0.0092099,-0.0039287,0,0.0071426,0,0,0,0.010831,-0.0006749,0.0030469,14.274,0.0044011,0.01017,3.0697e-08,0.54,0.42,0
0.030525,0.032216,0.010037,0.00027874,0.0030947,0.0028052,0,0,0.0090248,-0.0036607,0,0.0072935,0,0,0,0.010786,-0.00047071,0.0030947,14.954,0.0044701,0.0099649,2.9793e-08,0.56,0.42,0
0.030704,0.032933,0.0099567,0.00050488,0.0031385,0.0027905,0,0,0.0088637,-0.0034237,0,0.0072554,0,0,0,0.010719,-0.00025758,0.0031385,15.281,0.0045333,0.0097338,2.8684e-08,0.58,0.42,0
0.03088,0.033644,0.0099065,0.00065201,0.0031676,0.0027178,0,0,0.0087606,-0.0032702,0,0.0070662,0,0,0,0.010646,-8.7246e-05,0.0031676,15.211,0.0045754,0.009532,2.7641e-08,0.6,0.42,0
0.031054,0.034346,0.0098995,0.00068064,0.003174,0.0026165,0,0,0.0087431,-0.0032414,0,0.0068029,0,0,0,0.010591,-1.0845e-05,0.003174,14.789,0.0045847,0.0094222,2.7004e-08,0.62,0.42,0
0.031229,0.035041,0.0099386,0.00057356,0.0031537,0.0025352,0,0,0.0088205,-0.0033541,0,0.0065916,0,0,0,0.010582,-6.9691e-05,0.0031537,14.221,0.0045553,0.0094613,2.7091e-08,0.64,0.42,0
0.031407,0.03573,0.010011,0.00037722,0.0031164,0.0025281,0,0,0.0089627,-0.003561,0,0.0065729,0,0,0,0.010635,-0.00024717,0.0031164,13.855,0.0045015,0.0096509,2.7986e-08,0.66,0.42,0
0.031588,0.036417,0.010111,0.00023777,0.0031046,0.0026183,0,0,0.0091081,-0.0037268,0,0.0068076,0,0,0,0.010764,-0.00041585,0.0031046,13.981,0.0044844,0.0099013,2.9501e-08,0.68,0.42,0
0.031771,0.037105,0.010231,0.00031479,0.0031638,0.0027412,0,0,0.0091876,-0.0037037,0,0.007127,0,0,0,0.010943,-0.00039681,0.0031638,14.49,0.0045699,0.010045,3.0991e-08,0.7,0.42,0
0.031955,0.037791,0.010091,0.00057458,0.0031997,0.0026294,0,0,0.0094774,-0.0035296,0,0.0069743,0,0,0,0.010779,-0.0001135,0.0031997,14.278,0.0046218,0.0096728,3.0478e-08,0.72,0.42,0
0.032146,0.038449,0.010028,0.0010596,0.0033263,0.0023694,0,0,0.01826,-0.0037488,0,0.010831,0,0,0,0.010634,0.00045339,0.0033263,13.501,0.0048047,0.0091126,3.2584e-08,0.74,0.42,0
0.03271,0.039163,0.010369,0.0018949,0.0036792,0.0021578,0,0,0.044691,-0.0066842,0,0.024168,0,0,0,0.010909,0.0013552,0.0036792,13.1,0.0053144,0.0086729,3.3929e-08,0.76,0.42,0
0.033995,0.040039,0.010341,0.0025577,0.0038696,0.0018903,0,0,0.072013,-0.012001,0,0.039297,0,0,0,0.010787,0.0021112,0.0038696,12.761,0.0055894,0.0079677,2.5656e-08,0.78,0.42,0
0.035623,0.040994,0.0099638,0.0025566,0.0037561,0.0018223,0,0,0.0807,-0.015594,0,0.047379,0,0,0,0.010391,0.0021294,0.0037561,13.057,0.0054255,0.0075822,1.913e-08,0.8,0.42,0
0.037223,0.04196,0.0096811,0.002258,0.0035817,0.0019458,0,0,0.079291,-0.017208,0,0.050591,0,0,0,0.010162,0.0017768,0.0035817,13.81,0.0051736,0.0076456,1.8749e-08,0.82,0.42,0
0.038795,0.04295,0.009443,0.0020472,0.0034471,0.0019798,0,0,0.077947,-0.018198,0,0.051475,0,0,0,0.0099416,0.0015486,0.0034471,14.069,0.0049791,0.0076233,1.8099e-08,0.84,0.42,0
0.040341,0.043939,0.009244,0.0019545,0.0033596,0.0019394,0,0,0.076498,-0.018265,0,0.050424,0,0,0,0.0097302,0.0014683,0.0033596,13.999,0.0048527,0.0074973,1.7106e-08,0.86,0.42,0
0.041855,0.044906,0.0090522,0.0019578,0.003303,0.0018637,0,0,0.07474,-0.017487,0,0.048457,0,0,0,0.0095144,0.0014956,0.003303,13.85,0.004771,0.0072854,1.5834e-08,0.88,0.42,0
0.043331,0.04584,0.0088641,0.0020376,0.0032705,0.0017776,0,0,0.072717,-0.016028,0,0.046218,0,0,0,0.0093016,0.0016002,0.0032705,13.747,0.0047241,0.0070172,1.4433e-08,0.9,0.42,0
0.044764,0.046739,0.0086817,0.0021838,0.0032596,0.0016928,0,0,0.070486,-0.013986,0,0.044012,0,0,0,0.0090984,0.0017671,0.0032596,13.754,0.0047084,0.0067111,1.2992e-08,0.92,0.42,0
0.04615,0.0476,0.0085041,0.0023925,0.003269,0.0016154,0,0,0.068056,-0.011394,0,0.042001,0,0,0,0.0089069,0.0019897,0.003269,13.929,0.0047219,0.0063754,1.1541e-08,0.94,0.42,0
0.047486,0.048428,0.0083276,0.0026653,0.0032979,0.0015497,0,0,0.065387,-0.0082234,0,0.040292,0,0,0,0.0087264,0.0022666,0.0032979,14.354,0.0047636,0.0060122,1.008e-08,0.96,0.42,0
0.048766,0.049224,0.0082076,0.0030351,0.0033728,0.0015038,0,0,0.062852,-0.0043902,0,0.0391,0,0,0,0.0086158,0.0026268,0.0033728,15.103,0.0048718,0.0056554,8.7455e-09,0.98,0.42,0
0.049391,0.049615,0.0081761,0.0032519,0.0034284,0.0014874,0,0,0.061719,-0.0022939,0,0.038673,0,0,0,0.008593,0.002835,0.0034284,15.564,0.0049521,0.0054871,8.1444e-09,1,0.42,0
0.00052889,0.00038078,0.0071072,0.0029125,0.0030059,0.0014668,0,0,0.053317,-0.0012148,0,0.038138,0,0,0,0.0075697,0.00245,0.0030059,17.482,0.0043419,0.0048661,5.6647e-09,0,0.44,0
0.0010663,0.00077557,0.0071242,0.0027889,0.0029739,0.0014805,0,0,0.053953,-0.0024052,0,0.038492,0,0,0,0.007582,0.0023311,0.0029739,17.172,0.0042957,0.0049617,5.928e-09,0.02,0.44,0
0.0021581,0.001592,0.0071869,0.0025594,0.0029239,0.0015159,0,0,0.055419,-0.0047382,0,0.039414,0,0,0,0.0076396,0.0021067,0.0029239,16.621,0.0042234,0.0051737,6.5318e-09,0.04,0.44,0
0.0032831,0.0024601,0.0072776,0.0023523,0.002889,0.0015535,0,0,0.057052,-0.0069764,0,0.040391,0,0,0,0.007727,0.0019029,0.002889,16.128,0.004173,0.0053996,7.1989e-09,0.06,0.44,0
0.0044402,0.0033756,0.0073665,0.0021549,0.0028564,0.0015793,0,0,0.058631,-0.0091193,0,0.041062,0,0,0,0.007808,0.0017134,0.0028564,15.615,0.0041259,0.0056116,7.8362e-09,0.08,0.44,0
0.0056283,0.0043348,0.0074534,0.0019677,0.0028263,0.0015939,0,0,0.060152,-0.011162,0,0.04144,0,0,0,0.0078832,0.0015379,0.0028263,15.086,0.0040825,0.0058096,8.4408e-09,0.1,0.44,0
0.0068463,0.0053345,0.0075382,0.0017913,0.0027989,0.0015976,0,0,0.061612,-0.013098,0,0.041536,0,0,0,0.0079528,0.0013768,0.0027989,14.542,0.0040428,0.0059932,9.0093e-09,0.12,0.44,0
0.0080928,0.0063717,0.0076205,0.0016268,0.0027742,0.0015907,0,0,0.063002,-0.014916,0,0.041359,0,0,0,0.0080169,0.0012304,0.0027742,13.985,0.0040072,0.0061616,9.5381e-09,0.14,0.44,0
0.0093664,0.0074438,0.0077,0.0014752,0.0027526,0.0015739,0,0,0.064317,-0.016606,0,0.04092,0,0,0,0.0080757,0.0010995,0.0027526,13.417,0.0039759,0.0063143,1.0024e-08,0.16,0.44,0
0.010665,0.008549,0.0077764,0.0013376,0.0027342,0.0015475,0,0,0.065548,-0.018156,0,0.040234,0,0,0,0.0081294,0.00098465,0.0027342,12.841,0.0039494,0.0064506,1.0465e-08,0.18,0.44,0
0.011988,0.0096861,0.0078493,0.0012152,0.0027194,0.0015125,0,0,0.066689,-0.019554,0,0.039324,0,0,0,0.0081782,0.00088629,0.0027194,12.261,0.003928,0.0065702,1.086e-08,0.2,0.44,0
0.013333,0.010855,0.0079187,0.001109,0.0027083,0.0014701,0,0,0.067735,-0.020791,0,0.038223,0,0,0,0.0082229,0.0008048,0.0027083,11.682,0.003912,0.0066733,1.1209e-08,0.22,0.44,0
0.014698,0.012056,0.007985,0.0010197,0.0027014,0.0014223,0,0,0.068686,-0.021862,0,0.036979,0,0,0,0.0082646,0.00074014,0.0027014,11.113,0.003902,0.0067607,1.1518e-08,0.24,0.44,0
0.01608,0.013292,0.008049,0.00094776,0.002699,0.0013716,0,0,0.06955,-0.022766,0,0.03566,0,0,0,0.0083051,0.00069171,0.002699,10.566,0.0038986,0.0068345,1.1794e-08,0.26,0.44,0
0.01748,0.014568,0.0081131,0.00089263,0.0027017,0.0013218,0,0,0.070348,-0.023518,0,0.034367,0,0,0,0.0083477,0.00065796,0.0027017,10.06,0.0039025,0.0068989,1.2057e-08,0.28,0.44,0
0.018894,0.015892,0.0081816,0.00085266,0.0027103,0.0012786,0,0,0.071128,-0.024149,0,0.033243,0,0,0,0.0083985,0.00063579,0.0027103,9.6222,0.0039149,0.0069613,1.2341e-08,0.3,0.44,0
0.020325,0.017275,0.0082634,0.00082431,0.0027263,0.00125,0,0,0.071982,-0.024726,0,0.032501,0,0,0,0.008468,0.00061973,0.0027263,9.2906,0.003938,0.0070356,1.2709e-08,0.32,0.44,0
0.021774,0.018738,0.008375,0.00080166,0.002753,0.0012497,0,0,0.073086,-0.025367,0,0.032493,0,0,0,0.0085761,0.00060058,0.002753,9.1272,0.0039765,0.0071467,1.329e-08,0.34,0.44,0
0.023248,0.02031,0.0085495,0.00077715,0.002798,0.0013044,0,0,0.07477,-0.026271,0,0.033913,0,0,0,0.0087636,0.0005631,0.002798,9.25,0.0040416,0.0073427,1.4364e-08,0.36,0.44,0
0.024764,0.022043,0.0088524,0.00074474,0.0028791,0.0015048,0,0,0.077652,-0.027747,0,0.039125,0,0,0,0.0091289,0.00046822,0.0028791,10.074,0.0041588,0.0077423,1.6697e-08,0.38,0.44,0
0.026354,0.024069,0.0096832,-0.00036999,0.002794,0.0017702,0,0,0.0738,-0.029191,0,0.040379,0,0,0,0.010021,-0.00070826,0.002794,10.299,0.0040357,0.0095115,3.684e-08,0.4,0.44,0
0.027774,0.026126,0.010598,-0.0016806,0.0026751,0.0020664,0,0,0.053097,-0.024809,0,0.028658,0,0,0,0.011012,-0.0020951,0.0026751,10.364,0.0038641,0.011539,6.5746e-08,0.42,0.44,0
0.028612,0.027595,0.010707,-0.00093416,0.0029319,0.0024256,0,0,0.027359,-0.013709,0,0.015239,0,0,0,0.011263,-0.0014895,0.0029319,12.154,0.004235,0.011244,6.4121e-08,0.44,0.44,0
0.02896,0.028496,0.010712,2.6553e-05,0.0032217,0.0025924,0,0,0.013716,-0.0060581,0,0.0090762,0,0,0,0.011322,-0.00058336,0.0032217,13.082,0.0046536,0.010534,4.6244e-08,0.46,0.44,0
0.029174,0.029238,0.010909,-0.00013882,0.003231,0.0026003,0,0,0.010434,-0.0045754,0,0.0070906,0,0,0,0.011494,-0.00072408,0.003231,12.599,0.004667,0.010799,3.8887e-08,0.48,0.44,0
0.029375,0.029963,0.01079,-0.00035866,0.0031295,0.0026506,0,0,0.009959,-0.0045346,0,0.0068916,0,0,0,0.011391,-0.00095908,0.0031295,12.709,0.0045204,0.010897,3.64e-08,0.5,0.44,0
0.029572,0.030687,0.010558,-0.00031459,0.003073,0.0027513,0,0,0.0097304,-0.0044039,0,0.0071533,0,0,0,0.011216,-0.00097304,0.003073,13.426,0.0044388,0.010753,3.478e-08,0.52,0.44,0
0.029764,0.031414,0.010404,-5.0229e-05,0.0031061,0.0028539,0,0,0.0094871,-0.0041032,0,0.0074201,0,0,0,0.011134,-0.00077996,0.0031061,14.326,0.0044866,0.010523,3.3533e-08,0.54,0.44,0
0.029952,0.032141,0.01029,0.00027432,0.0031693,0.0028916,0,0,0.0092569,-0.0037634,0,0.0075182,0,0,0,0.011065,-0.00050109,0.0031693,15.009,0.0045778,0.010238,3.2203e-08,0.56,0.44,0
0.030135,0.032864,0.010199,0.00055669,0.0032267,0.0028594,0,0,0.0090641,-0.0034711,0,0.0074343,0,0,0,0.010983,-0.00022754,0.0032267,15.338,0.0046608,0.0099446,3.0758e-08,0.58,0.44,0
0.030314,0.033578,0.010133,0.00075295,0.0032657,0.0027668,0,0,0.0089272,-0.0032666,0,0.0071938,0,0,0,0.010888,-2.5699e-06,0.0032657,15.265,0.0047172,0.00968,2.9336e-08,0.6,0.44,0
0.030492,0.034282,0.010105,0.00081802,0.003277,0.0026278,0,0,0.0088769,-0.0031967,0,0.0068324,0,0,0,0.010798,0.00012502,0.003277,14.748,0.0047335,0.0094982,2.8237e-08,0.62,0.44,0
0.030669,0.034974,0.010126,0.00068107,0.003242,0.0024873,0,0,0.0089486,-0.0033292,0,0.0064669,0,0,0,0.010742,6.4308e-05,0.003242,13.894,0.0046829,0.009497,2.7953e-08,0.64,0.44,0
0.03085,0.035657,0.010191,0.00036002,0.0031652,0.0024337,0,0,0.0091332,-0.0036468,0,0.0063275,0,0,0,0.010762,-0.00021074,0.0031652,13.18,0.004572,0.0097343,2.8865e-08,0.66,0.44,0
0.031035,0.03634,0.010287,9.1144e-05,0.0031136,0.0025065,0,0,0.009326,-0.0039292,0,0.006517,0,0,0,0.010872,-0.00049314,0.0031136,13.088,0.0044974,0.010059,3.0572e-08,0.68,0.44,0
0.031223,0.037028,0.010178,0.00012276,0.0030903,0.0025257,0,0,0.0096368,-0.0039855,0,0.0068707,0,0,0,0.01078,-0.00047884,0.0030903,13.361,0.0044638,0.0099664,3.1295e-08,0.7,0.44,0
0.031417,0.037717,0.0098822,0.00057364,0.0031367,0.0023024,0,0,0.012516,-0.0041341,0,0.0084092,0,0,0,0.01043,2.6155e-05,0.0031367,12.919,0.0045309,0.0092534,3.2967e-08,0.72,0.44,0
0.031742,0.038368,0.010528,0.0015581,0.0036257,0.0022791,0,0,0.026094,-0.0051412,0,0.018,0,0,0,0.011098,0.0009882,0.0036257,12.994,0.0052372,0.0090965,4.5717e-08,0.74,0.44,0
0.032571,0.03901,0.011488,0.0025353,0.0042069,0.0024685,0,0,0.053383,-0.0088197,0,0.036626,0,0,0,0.012152,0.0018714,0.0042069,14.314,0.0060767,0.0093524,5.256e-08,0.76,0.44,0
0.034031,0.039764,0.010996,0.0027288,0.0041176,0.0023167,0,0,0.076803,-0.014199,0,0.051197,0,0,0,0.01162,0.002105,0.0041176,14.692,0.0059476,0.0086944,3.5613e-08,0.78,0.44,0
0.035709,0.04065,0.010099,0.0024522,0.0037655,0.0021685,0,0,0.082341,-0.017073,0,0.056381,0,0,0,0.010683,0.001869,0.0037655,14.757,0.005439,0.0080361,2.182e-08,0.8,0.44,0
0.037325,0.041604,0.0096992,0.0022314,0.0035792,0.0022107,0,0,0.079561,-0.017521,0,0.057479,0,0,0,0.010311,0.00162,0.0035792,15.298,0.0051699,0.0078959,2.0154e-08,0.82,0.44,0
0.038891,0.042589,0.0093986,0.0020964,0.0034485,0.0021929,0,0,0.077351,-0.017577,0,0.057015,0,0,0,0.01001,0.0014849,0.0034485,15.488,0.0049811,0.0077328,1.8701e-08,0.84,0.44,0
0.040419,0.043582,0.0091725,0.0020366,0.0033627,0.0021326,0,0,0.075528,-0.01724,0,0.055447,0,0,0,0.0097642,0.0014449,0.0033627,15.43,0.0048573,0.0075455,1.7369e-08,0.86,0.44,0
0.041912,0.044565,0.0089833,0.00205,0.00331,0.0020472,0,0,0.073752,-0.016379,0,0.053228,0,0,0,0.0095453,0.001488,0.00331,15.28,0.0047811,0.0073185,1.6021e-08,0.88,0.44,0
0.043369,0.045528,0.0088099,0.0021292,0.0032817,0.0019533,0,0,0.071866,-0.014983,0,0.050786,0,0,0,0.0093415,0.0015976,0.0032817,15.157,0.0047403,0.0070545,1.4642e-08,0.9,0.44,0
0.044787,0.046466,0.0086446,0.0022684,0.0032739,0.0018622,0,0,0.069819,-0.013071,0,0.048417,0,0,0,0.0091508,0.0017622,0.0032739,15.144,0.004729,0.0067611,1.3253e-08,0.92,0.44,0
0.046162,0.047379,0.0084831,0.0024656,0.0032846,0.0017814,0,0,0.06758,-0.010647,0,0.046317,0,0,0,0.008973,0.0019756,0.0032846,15.318,0.0047444,0.0064442,1.1868e-08,0.94,0.44,0
0.04749,0.048268,0.0083213,0.0027223,0.0033131,0.001717,0,0,0.065107,-0.0076799,0,0.044643,0,0,0,0.0088083,0.0022353,0.0033131,15.773,0.0047856,0.0061069,1.0492e-08,0.96,0.44,0
0.048766,0.049139,0.0082108,0.0030688,0.0033839,0.0016747,0,0,0.06275,-0.0040962,0,0.043543,0,0,0,0.0087108,0.0025687,0.0033839,16.557,0.0048878,0.0057798,9.2499e-09,0.98,0.44,0
0.04939,0.049571,0.0081818,0.0032715,0.003436,0.0016598,0,0,0.061695,-0.0021385,0,0.043155,0,0,0,0.0086925,0.0027607,0.003436,17.029,0.0049631,0.0056261,8.6945e-09,1,0.44,0
0.00051585,0.00035726,0.0069325,0.0028463,0.0029336,0.0013765,0,0,0.051986,-0.001136,0,0.03579,0,0,0,0.0073534,0.0024254,0.0029336,16.983,0.0042375,0.0046949,5.112e-09,0,0.46,0
0.0010397,0.000729,0.0069482,0.0027304,0.0029036,0.0013907,0,0,0.05258,-0.0022514,0,0.036159,0,0,0,0.0073659,0.0023127,0.0029036,16.706,0.0041941,0.004786,5.3499e-09,0.02,0.46,0
0.0021032,0.0015002,0.0070063,0.0025148,0.0028563,0.0014277,0,0,0.05395,-0.0044402,0,0.03712,0,0,0,0.007422,0.0020991,0.0028563,16.226,0.0041258,0.0049883,5.8953e-09,0.04,0.46,0
0.0031977,0.0023249,0.00709,0.0023196,0.0028229,0.0014673,0,0,0.055473,-0.0065429,0,0.03815,0,0,0,0.0075054,0.0019041,0.0028229,15.804,0.0040775,0.0052037,6.4961e-09,0.06,0.46,0
0.0043221,0.0031989,0.0071711,0.0021334,0.0027914,0.0014953,0,0,0.056937,-0.0085537,0,0.038878,0,0,0,0.0075818,0.0017227,0.0027914,15.353,0.004032,0.005405,7.0669e-09,0.08,0.46,0
0.0054752,0.0041186,0.0072493,0.0019569,0.0027619,0.0015124,0,0,0.058337,-0.010465,0,0.039323,0,0,0,0.0076513,0.0015549,0.0027619,14.88,0.0039893,0.0055918,7.6034e-09,0.1,0.46,0
0.0066556,0.0050809,0.007324,0.0017909,0.0027345,0.0015191,0,0,0.059664,-0.012267,0,0.039497,0,0,0,0.0077139,0.001401,0.0027345,14.391,0.0039498,0.0057634,8.1014e-09,0.12,0.46,0
0.0078618,0.0060831,0.0073947,0.0016363,0.0027093,0.0015158,0,0,0.06091,-0.013949,0,0.039411,0,0,0,0.0077696,0.0012614,0.0027093,13.889,0.0039134,0.0059188,8.5562e-09,0.14,0.46,0
0.009092,0.0071229,0.0074606,0.0014942,0.0026864,0.001503,0,0,0.062065,-0.0155,0,0.039077,0,0,0,0.0078181,0.0011367,0.0026864,13.376,0.0038804,0.0060573,8.9635e-09,0.16,0.46,0
0.010344,0.0081985,0.0075211,0.0013653,0.0026659,0.0014812,0,0,0.063118,-0.016908,0,0.03851,0,0,0,0.0078593,0.0010272,0.0026659,12.856,0.0038508,0.0061781,9.3195e-09,0.18,0.46,0
0.011617,0.009309,0.0075755,0.0012507,0.0026478,0.0014512,0,0,0.064059,-0.018163,0,0.037731,0,0,0,0.0078929,0.00093326,0.0026478,12.333,0.0038247,0.0062805,9.6214e-09,0.2,0.46,0
0.012907,0.010454,0.007623,0.0011507,0.0026321,0.0014143,0,0,0.064881,-0.019258,0,0.036771,0,0,0,0.0079189,0.00085483,0.0026321,11.812,0.0038019,0.0063644,9.8677e-09,0.22,0.46,0
0.014212,0.011635,0.0076631,0.0010656,0.0026186,0.0013718,0,0,0.065578,-0.020189,0,0.035668,0,0,0,0.0079374,0.00079138,0.0026186,11.301,0.0037825,0.0064302,1.0059e-08,0.24,0.46,0
0.01553,0.012855,0.0076956,0.0009949,0.0026072,0.0013261,0,0,0.06615,-0.020959,0,0.034478,0,0,0,0.0079489,0.00074158,0.0026072,10.809,0.0037659,0.0064793,1.02e-08,0.26,0.46,0
0.016858,0.014117,0.0077206,0.00093675,0.0025972,0.0012798,0,0,0.066604,-0.021586,0,0.033276,0,0,0,0.0079545,0.00070286,0.0025972,10.351,0.0037515,0.0065145,1.0298e-08,0.28,0.46,0
0.018194,0.015429,0.007739,0.00088758,0.002588,0.0012369,0,0,0.066964,-0.022105,0,0.03216,0,0,0,0.007956,0.0006706,0.002588,9.9445,0.0037382,0.006541,1.0372e-08,0.3,0.46,0
0.019537,0.016802,0.0077526,0.00084051,0.0025779,0.0012027,0,0,0.067271,-0.022587,0,0.03127,0,0,0,0.0079565,0.00063666,0.0025779,9.616,0.0037237,0.006568,1.045e-08,0.32,0.46,0
0.020885,0.018252,0.0077645,0.00078284,0.0025642,0.0011853,0,0,0.067604,-0.023158,0,0.030818,0,0,0,0.0079609,0.00058643,0.0025642,9.4052,0.0037039,0.0066114,1.0585e-08,0.34,0.46,0
0.022241,0.019804,0.0077798,0.00068922,0.0025407,0.0012015,0,0,0.068108,-0.024069,0,0.031238,0,0,0,0.0079787,0.00049032,0.0025407,9.3923,0.0036699,0.0067028,1.0881e-08,0.36,0.46,0
0.023609,0.021501,0.0078582,0.00051945,0.0025133,0.0012944,0,0,0.069484,-0.02592,0,0.033654,0,0,0,0.0080815,0.00029621,0.0025133,9.7067,0.0036303,0.0069479,1.1836e-08,0.38,0.46,0
0.02502,0.023426,0.0082941,-0.00032526,0.0023906,0.0013711,0,0,0.070111,-0.031069,0,0.033509,0,0,0,0.0085193,-0.00055046,0.0023906,9.1629,0.0034531,0.0080242,2.298e-08,0.4,0.46,0
0.026442,0.025466,0.0091338,-0.0014472,0.002306,0.0014678,0,0,0.062089,-0.033829,0,0.025147,0,0,0,0.0093645,-0.001678,0.002306,7.8893,0.0033308,0.0096943,4.3989e-08,0.42,0.46,0
0.027614,0.02718,0.009606,-0.0012855,0.0024962,0.0017863,0,0,0.042255,-0.024699,0,0.014983,0,0,0,0.0099518,-0.0016313,0.0024962,8.7929,0.0036056,0.010176,5.1475e-08,0.44,0.46,0
0.028286,0.028334,0.0096016,-0.00044464,0.0027471,0.0021957,0,0,0.022196,-0.011742,0,0.0097061,0,0,0,0.010106,-0.00094879,0.0027471,11.393,0.003968,0.0097513,4.3151e-08,0.46,0.46,0
0.028591,0.029145,0.0099344,-0.00025086,0.002905,0.0025302,0,0,0.012312,-0.0057364,0,0.0078506,0,0,0,0.010541,-0.00085716,0.002905,12.937,0.0041962,0.01006,3.681e-08,0.48,0.46,0
0.028794,0.02987,0.010428,-0.00045055,0.0029932,0.0027465,0,0,0.010046,-0.0046545,0,0.0073615,0,0,0,0.011084,-0.0011069,0.0029932,13.329,0.0043235,0.010745,3.5715e-08,0.5,0.46,0
0.028991,0.030597,0.010565,-0.00042581,0.0030417,0.0028505,0,0,0.0097801,-0.0045078,0,0.0074113,0,0,0,0.011261,-0.0011223,0.0030417,13.715,0.0043936,0.010915,3.5536e-08,0.52,0.46,0
0.029185,0.031331,0.010534,-9.7859e-05,0.0031308,0.0029045,0,0,0.0096241,-0.0041973,0,0.0075516,0,0,0,0.011277,-0.00084055,0.0031308,14.334,0.0045223,0.0107,3.4932e-08,0.54,0.46,0
0.029376,0.032065,0.01052,0.00027633,0.003239,0.0029141,0,0,0.0094658,-0.0038515,0,0.0075766,0,0,0,0.011292,-0.00049539,0.003239,14.826,0.0046786,0.010435,3.4155e-08,0.56,0.46,0
0.029564,0.032794,0.010508,0.0005855,0.0033281,0.0028882,0,0,0.009334,-0.0035653,0,0.0075092,0,0,0,0.011288,-0.0001946,0.0033281,15.112,0.0048072,0.010189,3.3281e-08,0.58,0.46,0
0.029749,0.033513,0.010461,0.00081889,0.0033841,0.0028271,0,0,0.0092005,-0.0033348,0,0.0073506,0,0,0,0.01123,5.075e-05,0.0033841,15.197,0.0048881,0.0099407,3.2061e-08,0.6,0.46,0
0.029932,0.034219,0.010378,0.00094819,0.0033979,0.0027068,0,0,0.0090745,-0.0031847,0,0.0070377,0,0,0,0.011101,0.00022546,0.0033979,14.921,0.0049081,0.0096872,3.0433e-08,0.62,0.46,0
0.030112,0.034908,0.010307,0.00085204,0.0033476,0.0025362,0,0,0.0090468,-0.0032442,0,0.006594,0,0,0,0.010947,0.00021151,0.0033476,14.105,0.0048354,0.0095618,2.9169e-08,0.64,0.46,0
0.030294,0.035584,0.0102,0.00036103,0.0031683,0.0024285,0,0,0.0091413,-0.0036495,0,0.006314,0,0,0,0.010769,-0.00020815,0.0031683,13.15,0.0045765,0.0097414,2.8841e-08,0.66,0.46,0
0.030478,0.03626,0.0098017,-0.00019627,0.0028816,0.0024019,0,0,0.0093995,-0.0041591,0,0.0066513,0,0,0,0.01035,-0.00074466,0.0028816,12.958,0.0041624,0.0098015,2.8275e-08,0.68,0.46,0
0.030667,0.036946,0.00925,-9.6011e-05,0.0027462,0.0023228,0,0,0.011934,-0.0046499,0,0.0090635,0,0,0,0.0098003,-0.00064633,0.0027462,13.529,0.0039667,0.009234,2.9246e-08,0.7,0.46,0
0.030976,0.037622,0.0095213,0.00082492,0.0031039,0.0022844,0,0,0.022888,-0.0061512,0,0.017755,0,0,0,0.010098,0.00024816,0.0031039,14.002,0.0044834,0.0087858,3.6481e-08,0.72,0.46,0
0.031691,0.038233,0.010603,0.0020226,0.0037878,0.0024558,0,0,0.044522,-0.0089306,0,0.035396,0,0,0,0.011278,0.0013476,0.0037878,14.918,0.0054712,0.0089695,4.5238e-08,0.74,0.46,0
0.032935,0.038801,0.010877,0.0026972,0.0040721,0.0026015,0,0,0.066238,-0.011804,0,0.053771,0,0,0,0.011653,0.0019204,0.0040721,16.498,0.005882,0.0088575,4.147e-08,0.76,0.46,0
0.034466,0.039469,0.010136,0.0026387,0.0038324,0.0025491,0,0,0.076761,-0.014198,0,0.062982,0,0,0,0.010934,0.0018405,0.0038324,17.328,0.0055357,0.0082805,2.7882e-08,0.78,0.46,0
0.036038,0.040311,0.0095855,0.0023818,0.0035902,0.0024974,0,0,0.077938,-0.015708,0,0.064933,0,0,0,0.010377,0.0015905,0.0035902,17.42,0.0051858,0.0079772,2.0732e-08,0.8,0.46,0
0.037584,0.041259,0.0093647,0.0022327,0.0034792,0.0024709,0,0,0.076511,-0.016205,0,0.064243,0,0,0,0.010143,0.0014541,0.0034792,17.379,0.0050255,0.0078744,1.9633e-08,0.82,0.46,0
0.039099,0.042247,0.0091616,0.0021521,0.0033941,0.0023976,0,0,0.074977,-0.016146,0,0.062338,0,0,0,0.0099074,0.0014063,0.0033941,17.198,0.0049026,0.0077021,1.8326e-08,0.84,0.46,0
0.040583,0.043249,0.0089838,0.0021234,0.0033321,0.0023077,0,0,0.073471,-0.015714,0,0.06,0,0,0,0.009691,0.0014162,0.0033321,16.972,0.0048131,0.0075026,1.7034e-08,0.86,0.46,0
0.042037,0.044251,0.0088266,0.002148,0.0032924,0.0022081,0,0,0.071945,-0.014877,0,0.05741,0,0,0,0.0094933,0.0014813,0.0032924,16.741,0.0047557,0.0072776,1.5757e-08,0.88,0.46,0
0.043461,0.045241,0.008681,0.0022262,0.0032721,0.0021068,0,0,0.070315,-0.013598,0,0.054776,0,0,0,0.0093101,0.0015971,0.0032721,16.571,0.0047264,0.0070271,1.448e-08,0.9,0.46,0
0.04485,0.046216,0.0085403,0.0023566,0.0032691,0.0020117,0,0,0.068526,-0.011862,0,0.052305,0,0,0,0.0091393,0.0017576,0.0032691,16.53,0.004722,0.0067544,1.3206e-08,0.92,0.46,0
0.046202,0.047175,0.0084005,0.0025389,0.0032818,0.0019301,0,0,0.066543,-0.0096582,0,0.050182,0,0,0,0.008981,0.0019584,0.0032818,16.691,0.0047404,0.0064639,1.1945e-08,0.94,0.46,0
0.047512,0.04812,0.0082582,0.0027747,0.0033099,0.0018687,0,0,0.064328,-0.0069571,0,0.048585,0,0,0,0.0088367,0.0021962,0.0033099,17.153,0.0047809,0.0061606,1.0705e-08,0.96,0.46,0
0.048775,0.04906,0.0081603,0.0030902,0.0033752,0.0018308,0,0,0.062207,-0.0037041,0,0.0476,0,0,0,0.0087548,0.0024957,0.0033752,17.935,0.0048752,0.0058705,9.6027e-09,0.98,0.46,0
0.049394,0.04953,0.0081347,0.0032741,0.0034226,0.0018176,0,0,0.061257,-0.0019308,0,0.047259,0,0,0,0.0087413,0.0026675,0.0034226,18.397,0.0049438,0.0057347,9.113e-09,1,0.46,0
0.00050249,0.00033534,0.0067535,0.0027782,0.0028595,0.0012924,0,0,0.050622,-0.0010574,0,0.033603,0,0,0,0.0071371,0.0023946,0.0028595,16.514,0.0041304,0.0045283,4.6062e-09,0,0.48,0
0.0010124,0.00068552,0.006768,0.00267,0.0028314,0.0013072,0,0,0.051176,-0.0020984,0,0.033988,0,0,0,0.0071498,0.0022882,0.0028314,16.272,0.0040898,0.0046148,4.8201e-09,0.02,0.48,0
0.002047,0.0014144,0.0068215,0.002468,0.0027869,0.001346,0,0,0.052451,-0.004145,0,0.034996,0,0,0,0.0072042,0.0020853,0.0027869,15.868,0.0040255,0.0048074,5.3107e-09,0.04,0.48,0
0.0031105,0.0021984,0.0068983,0.0022844,0.0027548,0.0013882,0,0,0.053865,-0.0061153,0,0.036093,0,0,0,0.0072839,0.0018988,0.0027548,15.522,0.0039792,0.0050128,5.8506e-09,0.06,0.48,0
0.0042016,0.0030334,0.0069718,0.002109,0.0027242,0.0014193,0,0,0.055219,-0.0079985,0,0.036901,0,0,0,0.0073559,0.0017249,0.0027242,15.141,0.003935,0.0052043,6.3615e-09,0.08,0.48,0
0.0053192,0.0039162,0.0070415,0.0019427,0.0026953,0.0014401,0,0,0.056501,-0.0097834,0,0.037442,0,0,0,0.0074203,0.0015639,0.0026953,14.736,0.0038931,0.005381,6.8383e-09,0.1,0.48,0
0.0064617,0.0048438,0.0071065,0.0017864,0.0026679,0.0014512,0,0,0.057702,-0.011459,0,0.03773,0,0,0,0.0074767,0.0014162,0.0026679,14.313,0.0038536,0.005542,7.2755e-09,0.12,0.48,0
0.0076273,0.0058137,0.0071659,0.0016412,0.0026421,0.001453,0,0,0.058809,-0.013012,0,0.037778,0,0,0,0.0075249,0.0012822,0.0026421,13.879,0.0038164,0.0056863,7.6679e-09,0.14,0.48,0
0.008814,0.0068238,0.0072188,0.0015078,0.002618,0.0014462,0,0,0.059811,-0.014432,0,0.0376,0,0,0,0.0075643,0.0011623,0.002618,13.437,0.0037815,0.0058127,8.0102e-09,0.16,0.48,0
0.01002,0.0078727,0.0072641,0.001387,0.0025953,0.0014313,0,0,0.060694,-0.015708,0,0.037213,0,0,0,0.0075944,0.0010567,0.0025953,12.993,0.0037488,0.0059204,8.2979e-09,0.18,0.48,0
0.011242,0.0089595,0.0073008,0.0012794,0.002574,0.0014092,0,0,0.061448,-0.016831,0,0.036638,0,0,0,0.0076145,0.00096562,0.002574,12.551,0.0037181,0.0060085,8.5269e-09,0.2,0.48,0
0.012478,0.010084,0.0073275,0.0011851,0.0025538,0.001381,0,0,0.062058,-0.017793,0,0.035907,0,0,0,0.0076241,0.00088853,0.0025538,12.117,0.0036888,0.0060766,8.6942e-09,0.22,0.48,0
0.013724,0.011248,0.0073429,0.0011038,0.002534,0.0013483,0,0,0.062516,-0.018592,0,0.035057,0,0,0,0.0076223,0.00082448,0.002534,11.701,0.0036603,0.0061247,8.7983e-09,0.24,0.48,0
0.014978,0.012453,0.0073457,0.0010344,0.002514,0.0013131,0,0,0.062812,-0.019235,0,0.034142,0,0,0,0.0076086,0.0007715,0.002514,11.313,0.0036314,0.0061538,8.8399e-09,0.26,0.48,0
0.016237,0.013704,0.0073341,0.00097412,0.0024925,0.0012781,0,0,0.062941,-0.019738,0,0.033229,0,0,0,0.0075821,0.00072614,0.0024925,10.969,0.0036002,0.0061655,8.8223e-09,0.28,0.48,0
0.017496,0.015007,0.0073061,0.00091815,0.0024673,0.0012466,0,0,0.062905,-0.020139,0,0.032411,0,0,0,0.0075418,0.00068248,0.0024673,10.687,0.0035638,0.0061639,8.7527e-09,0.3,0.48,0
0.018753,0.016372,0.0072592,0.00085769,0.0024351,0.0012237,0,0,0.062714,-0.020506,0,0.031816,0,0,0,0.0074866,0.00063034,0.0024351,10.495,0.0035173,0.0061556,8.644e-09,0.32,0.48,0
0.020004,0.017812,0.0071902,0.00077657,0.00239,0.0012168,0,0,0.062402,-0.020975,0,0.031636,0,0,0,0.0074153,0.00055152,0.00239,10.431,0.0034523,0.0061541,8.5196e-09,0.34,0.48,0
0.021249,0.019347,0.0071009,0.00064417,0.0023235,0.0012375,0,0,0.062106,-0.021832,0,0.032176,0,0,0,0.0073325,0.0004126,0.0023235,10.533,0.0033562,0.00619,8.4373e-09,0.36,0.48,0
0.022489,0.021006,0.0070188,0.00038873,0.0022223,0.0012862,0,0,0.062355,-0.023836,0,0.033441,0,0,0,0.0072619,0.00014565,0.0022223,10.647,0.0032099,0.0063393,8.5572e-09,0.38,0.48,0
0.023743,0.022809,0.006933,-0.00023729,0.0020087,0.0012743,0,0,0.064016,-0.029198,0,0.033132,0,0,0,0.0071596,-0.00046391,0.0020087,9.9357,0.0029015,0.006741,8.8611e-09,0.4,0.48,0
0.025049,0.024706,0.0070647,-0.0011679,0.001769,0.0011536,0,0,0.064319,-0.035728,0,0.027145,0,0,0,0.0072418,-0.001345,0.001769,7.8628,0.0025553,0.0075331,1.273e-08,0.42,0.48,0
0.026345,0.026511,0.0076061,-0.0015898,0.0018049,0.0011521,0,0,0.055421,-0.033905,0,0.017054,0,0,0,0.0077875,-0.0017712,0.0018049,6.3941,0.0026071,0.0083673,2.2046e-08,0.44,0.48,0
0.027371,0.027968,0.008029,-0.0011773,0.0020555,0.0014515,0,0,0.036552,-0.022077,0,0.0098328,0,0,0,0.0083198,-0.0014682,0.0020555,7.7619,0.002969,0.0085903,2.8443e-08,0.46,0.48,0
0.027948,0.028998,0.0082783,-0.00071404,0.0022693,0.0019217,0,0,0.019148,-0.01058,0,0.007343,0,0,0,0.0087205,-0.0011562,0.0022693,10.5,0.0032778,0.0086881,2.8268e-08,0.48,0.48,0
0.028218,0.029777,0.0089937,-0.00064343,0.0025051,0.0023523,0,0,0.011146,-0.0055931,0,0.0068204,0,0,0,0.009552,-0.0012017,0.0025051,12.214,0.0036185,0.0094622,2.8426e-08,0.5,0.48,0
0.028408,0.030507,0.0099053,-0.00052567,0.0028139,0.0026068,0,0,0.0095454,-0.0045237,0,0.0068565,0,0,0,0.010526,-0.0011466,0.0028139,12.986,0.0040645,0.010282,3.1015e-08,0.52,0.48,0
0.028598,0.031246,0.010461,-0.00015488,0.0030917,0.0027007,0,0,0.0095795,-0.0042206,0,0.0070219,0,0,0,0.011114,-0.00080857,0.0030917,13.45,0.0044658,0.01053,3.3529e-08,0.54,0.48,0
0.028791,0.031987,0.01078,0.00023341,0.0033039,0.0027389,0,0,0.0097184,-0.0039916,0,0.0071212,0,0,0,0.011455,-0.00044207,0.0033039,13.729,0.0047723,0.010536,3.5518e-08,0.56,0.48,0
0.028987,0.032721,0.011009,0.00054049,0.0034648,0.0027862,0,0,0.0098073,-0.0038016,0,0.007244,0,0,0,0.01171,-0.00016075,0.0034648,14.046,0.0050047,0.010537,3.7104e-08,0.58,0.48,0
0.029184,0.033445,0.011087,0.00078419,0.0035612,0.0028462,0,0,0.0097829,-0.0036101,0,0.0074001,0,0,0,0.011824,4.6272e-05,0.0035612,14.504,0.005144,0.010473,3.7647e-08,0.6,0.48,0
0.029378,0.034154,0.010952,0.00095077,0.0035708,0.0028685,0,0,0.0095953,-0.003406,0,0.0074581,0,0,0,0.011718,0.00018429,0.0035708,14.939,0.0051578,0.010269,3.6297e-08,0.62,0.48,0
0.029568,0.034844,0.010614,0.00092706,0.0034622,0.0028162,0,0,0.0092968,-0.0032957,0,0.0073221,0,0,0,0.01138,0.00016109,0.0034622,15.057,0.005001,0.0099867,3.3229e-08,0.64,0.48,0
0.02975,0.035511,0.0098334,0.00026034,0.0030281,0.0026797,0,0,0.0092597,-0.0038594,0,0.0076514,0,0,0,0.010548,-0.00045452,0.0030281,14.777,0.0043739,0.0097483,2.8839e-08,0.66,0.48,0
0.029935,0.036174,0.0088384,-0.00049121,0.0025041,0.00253,0,0,0.011702,-0.0051946,0,0.010561,0,0,0,0.0094976,-0.0011504,0.0025041,14.791,0.0036171,0.0093806,2.7633e-08,0.68,0.48,0
0.030239,0.036837,0.0088767,4.6279e-05,0.0026769,0.0025425,0,0,0.022365,-0.0073024,0,0.020045,0,0,0,0.0095726,-0.00064958,0.0026769,15.507,0.0038666,0.0090419,3.4607e-08,0.7,0.48,0
0.030939,0.037452,0.0098056,0.0013143,0.003336,0.0026552,0,0,0.043229,-0.010888,0,0.037254,0,0,0,0.010579,0.00054122,0.003336,16.289,0.0048186,0.0089805,3.9751e-08,0.72,0.48,0
0.032147,0.037987,0.010016,0.0020921,0.0036324,0.0026358,0,0,0.063568,-0.01393,0,0.054383,0,0,0,0.010821,0.0012874,0.0036324,17.069,0.0052468,0.0086066,3.2638e-08,0.74,0.48,0
0.033606,0.038527,0.0094328,0.0023812,0.0035442,0.0025684,0,0,0.072329,-0.01395,0,0.063968,0,0,0,0.010275,0.0015387,0.0035442,18.19,0.0051194,0.0079274,2.215e-08,0.76,0.48,0
0.035072,0.039195,0.0090388,0.0024436,0.0034447,0.0026069,0,0,0.072723,-0.013015,0,0.067779,0,0,0,0.009948,0.0015343,0.0034447,19.188,0.0049757,0.0076402,1.8233e-08,0.78,0.48,0
0.036515,0.040022,0.0089479,0.0023743,0.0033967,0.0026533,0,0,0.072166,-0.013291,0,0.068986,0,0,0,0.0098883,0.0014338,0.0033967,19.487,0.0049063,0.0076641,1.8154e-08,0.8,0.48,0
0.037958,0.040956,0.0088873,0.0022801,0.0033502,0.0026207,0,0,0.071982,-0.013912,0,0.068138,0,0,0,0.0098041,0.0013633,0.0033502,19.241,0.0048392,0.0076435,1.7859e-08,0.82,0.48,0
0.039395,0.041943,0.0088046,0.002229,0.0033101,0.0025389,0,0,0.071429,-0.014054,0,0.066012,0,0,0,0.0096741,0.0013595,0.0033101,18.858,0.0047812,0.0075312,1.7108e-08,0.84,0.48,0
0.040816,0.042953,0.0087046,0.0022181,0.0032768,0.0024391,0,0,0.070562,-0.013764,0,0.063417,0,0,0,0.0095222,0.0014004,0.0032768,18.486,0.0047332,0.0073652,1.614e-08,0.86,0.48,0
0.042217,0.04397,0.0085994,0.0022495,0.0032547,0.002334,0,0,0.069482,-0.013068,0,0.060684,0,0,0,0.0093674,0.0014815,0.0032547,18.17,0.0047012,0.007166,1.5087e-08,0.88,0.48,0
0.043595,0.044984,0.0084921,0.0023249,0.0032451,0.0022308,0,0,0.068211,-0.011963,0,0.058002,0,0,0,0.0092166,0.0016004,0.0032451,17.95,0.0046873,0.0069418,1.3997e-08,0.9,0.48,0
0.044945,0.045992,0.0083821,0.0024449,0.0032481,0.0021363,0,0,0.066742,-0.010442,0,0.055545,0,0,0,0.0090728,0.0017541,0.0032481,17.879,0.0046917,0.0066982,1.2895e-08,0.92,0.48,0
0.046265,0.046992,0.0082681,0.00261,0.0032634,0.0020573,0,0,0.065061,-0.008495,0,0.053489,0,0,0,0.0089389,0.0019391,0.0032634,18.023,0.0047138,0.0064411,1.18e-08,0.94,0.48,0
0.047548,0.047989,0.0081486,0.0028213,0.003291,0.002001,0,0,0.063149,-0.0061055,0,0.052025,0,0,0,0.0088185,0.0021513,0.003291,18.473,0.0047536,0.0061774,1.0736e-08,0.96,0.48,0
0.04879,0.04899,0.0080654,0.0031004,0.0033498,0.0019684,0,0,0.061304,-0.0032414,0,0.051178,0,0,0,0.0087533,0.0024125,0.0033498,19.221,0.0048385,0.0059291,9.803e-09,0.98,0.48,0
0.049401,0.049493,0.0080437,0.0032621,0.0033917,0.0019573,0,0,0.060476,-0.0016856,0,0.05089,0,0,0,0.0087445,0.0025613,0.0033917,19.655,0.0048992,0.0058134,9.3914e-09,1,0.48,0
0.00048894,0.00031497,0.0065719,0.0027086,0.0027842,0.0012144,0,0,0.049241,-0.00098213,0,0.031574,0,0,0,0.0069222,0.0023583,0.0027842,16.076,0.0040216,0.0043669,4.146e-09,0,0.5,0
0.00098481,0.00064506,0.0065852,0.0026077,0.0027579,0.0012299,0,0,0.049755,-0.001952,0,0.031977,0,0,0,0.006935,0.0022579,0.0027579,15.869,0.0039836,0.004449,4.3378e-09,0.02,0.5,0
0.0019902,0.0013344,0.0066344,0.0024188,0.002716,0.0012707,0,0,0.05094,-0.003863,0,0.033038,0,0,0,0.0069879,0.0020653,0.002716,15.542,0.0039231,0.0046324,4.7783e-09,0.04,0.5,0
0.0030224,0.0020803,0.0067046,0.0022461,0.0026852,0.0013159,0,0,0.052252,-0.0057082,0,0.034213,0,0,0,0.0070642,0.0018866,0.0026852,15.279,0.0038787,0.0048285,5.2637e-09,0.06,0.5,0
0.0040803,0.0028789,0.0067711,0.0020808,0.0026556,0.0013508,0,0,0.053502,-0.007472,0,0.035122,0,0,0,0.0071325,0.0017195,0.0026556,14.975,0.0038358,0.0050114,5.7224e-09,0.08,0.5,0
0.0051625,0.0037273,0.0068329,0.001924,0.0026271,0.0013764,0,0,0.054676,-0.0091401,0,0.035785,0,0,0,0.0071926,0.0015643,0.0026271,14.646,0.0037946,0.0051796,6.1483e-09,0.1,0.5,0
0.0062673,0.0046226,0.0068889,0.0017767,0.0025997,0.0013931,0,0,0.05576,-0.010699,0,0.036219,0,0,0,0.007244,0.0014216,0.0025997,14.301,0.0037551,0.0053321,6.5354e-09,0.12,0.5,0
0.0073929,0.0055626,0.0069381,0.0016398,0.0025734,0.0014015,0,0,0.056742,-0.012136,0,0.03644,0,0,0,0.0072862,0.0012918,0.0025734,13.947,0.0037171,0.0054676,6.8781e-09,0.14,0.5,0
0.008537,0.0065456,0.0069793,0.0015142,0.0025481,0.0014024,0,0,0.057607,-0.01344,0,0.036463,0,0,0,0.0073184,0.0011752,0.0025481,13.592,0.0036805,0.0055849,7.1707e-09,0.16,0.5,0
0.0096972,0.0075702,0.0070113,0.0014004,0.0025235,0.0013964,0,0,0.058341,-0.0146,0,0.036308,0,0,0,0.0073398,0.0010718,0.0025235,13.24,0.0036451,0.0056831,7.4083e-09,0.18,0.5,0
0.010871,0.0086358,0.0070325,0.0012987,0.0024994,0.0013846,0,0,0.058931,-0.015609,0,0.036,0,0,0,0.0073497,0.00098156,0.0024994,12.9,0.0036102,0.0057612,7.5867e-09,0.2,0.5,0
0.012054,0.0097426,0.0070415,0.001209,0.0024751,0.0013682,0,0,0.059363,-0.01646,0,0.035572,0,0,0,0.0073469,0.00090359,0.0024751,12.579,0.0035752,0.005819,7.7026e-09,0.22,0.5,0
0.013245,0.010892,0.0070364,0.0011304,0.0024501,0.0013488,0,0,0.059623,-0.017155,0,0.035068,0,0,0,0.0073304,0.00083644,0.0024501,12.289,0.003539,0.0058564,7.7545e-09,0.24,0.5,0
0.014439,0.012085,0.0070153,0.0010612,0.002423,0.0013286,0,0,0.0597,-0.017702,0,0.034543,0,0,0,0.0072991,0.00077749,0.002423,12.043,0.0034998,0.0058743,7.7423e-09,0.26,0.5,0
0.015633,0.013327,0.0069758,0.00099816,0.0023922,0.0013105,0,0,0.059587,-0.018122,0,0.034072,0,0,0,0.0072515,0.00072243,0.0023922,11.86,0.0034554,0.005875,7.6692e-09,0.28,0.5,0
0.016823,0.014623,0.0069154,0.00093537,0.0023552,0.0012982,0,0,0.059282,-0.018458,0,0.033753,0,0,0,0.0071865,0.00066424,0.0023552,11.761,0.003402,0.0058627,7.5426e-09,0.3,0.5,0
0.018004,0.015981,0.0068319,0.00086297,0.0023085,0.0012967,0,0,0.058805,-0.018791,0,0.033713,0,0,0,0.0071034,0.00059144,0.0023085,11.772,0.0033344,0.0058458,7.3774e-09,0.32,0.5,0
0.019175,0.017413,0.0067256,0.00076382,0.0022468,0.0013121,0,0,0.058225,-0.019279,0,0.034115,0,0,0,0.0070043,0.00048521,0.0022468,11.91,0.0032454,0.0058411,7.2046e-09,0.34,0.5,0
0.020333,0.01893,0.0066066,0.00060668,0.002164,0.0013483,0,0,0.057754,-0.020245,0,0.035056,0,0,0,0.0068986,0.00031473,0.002164,12.128,0.0031258,0.0058818,7.0881e-09,0.36,0.5,0
0.021485,0.020547,0.0064899,0.00032459,0.0020443,0.00139,0,0,0.057792,-0.022357,0,0.036139,0,0,0,0.0067916,2.2942e-05,0.0020443,12.169,0.002953,0.0060192,7.0941e-09,0.38,0.5,0
0.022645,0.022258,0.006359,-0.00017799,0.0018543,0.0013741,0,0,0.058561,-0.02642,0,0.035727,0,0,0,0.0066411,-0.00046007,0.0018543,11.482,0.0026784,0.0062749,7.0955e-09,0.4,0.5,0
0.023828,0.02402,0.0061897,-0.0008679,0.0015965,0.0012043,0,0,0.059711,-0.032038,0,0.031312,0,0,0,0.0064039,-0.0010821,0.0015965,9.5831,0.0023061,0.0065722,6.8236e-09,0.42,0.5,0
0.025034,0.02576,0.0062111,-0.0014393,0.0014316,0.00095416,0,0,0.058324,-0.035375,0,0.022525,0,0,0,0.0063507,-0.0015788,0.0014316,6.9886,0.0020678,0.0069345,8.5368e-09,0.44,0.5,0
0.026186,0.027363,0.0065569,-0.0015535,0.001501,0.00090198,0,0,0.048668,-0.030932,0,0.013277,0,0,0,0.0066907,-0.0016873,0.001501,5.6458,0.0021681,0.0073265,1.3674e-08,0.46,0.5,0
0.027071,0.02867,0.0067755,-0.0013422,0.00163,0.0011559,0,0,0.03133,-0.019721,0,0.0077136,0,0,0,0.0069874,-0.0015541,0.00163,6.6768,0.0023544,0.0074799,1.7244e-08,0.48,0.5,0
0.027561,0.029637,0.0071458,-0.0010897,0.0018168,0.0015506,0,0,0.016408,-0.010046,0,0.0059034,0,0,0,0.0074631,-0.001407,0.0018168,8.8496,0.0026243,0.0077833,1.8494e-08,0.5,0.5,0
0.027798,0.030417,0.0081947,-0.0007309,0.0022391,0.0018932,0,0,0.010254,-0.0061564,0,0.0063648,0,0,0,0.0085983,-0.0011345,0.0022391,11.016,0.0032343,0.0085706,2.2297e-08,0.52,0.5,0
0.027986,0.031162,0.0092461,-0.00028356,0.0026888,0.0021205,0,0,0.0096852,-0.0052423,0,0.0081464,0,0,0,0.0097252,-0.00076263,0.0026888,12.883,0.0038838,0.0092669,2.796e-08,0.54,0.5,0
0.028186,0.031905,0.0099278,0.00010193,0.0030089,0.0022976,0,0,0.010254,-0.0048215,0,0.010152,0,0,0,0.01049,-0.00046039,0.0030089,14.158,0.0043462,0.0097,3.3192e-08,0.56,0.5,0
0.028396,0.032642,0.010418,0.00040423,0.0032468,0.0024968,0,0,0.010659,-0.0045408,0,0.011984,0,0,0,0.011082,-0.00025922,0.0032468,15.094,0.0046898,0.010064,3.7706e-08,0.58,0.5,0
0.028612,0.033369,0.010699,0.00064535,0.0034033,0.0027334,0,0,0.010883,-0.0043174,0,0.013865,0,0,0,0.01149,-0.00014567,0.0034033,16.097,0.0049159,0.010337,4.1064e-08,0.6,0.5,0
0.028831,0.034082,0.010719,0.00082587,0.0034634,0.0029866,0,0,0.0109,-0.0041332,0,0.015882,0,0,0,0.011663,-0.00011804,0.0034634,17.231,0.0050027,0.010471,4.261e-08,0.62,0.5,0
0.029048,0.034776,0.010449,0.00091629,0.0034097,0.0031988,0,0,0.010745,-0.0040655,0,0.017972,0,0,0,0.011551,-0.00018505,0.0034097,18.345,0.0049251,0.01043,4.2346e-08,0.64,0.5,0
0.029261,0.035431,0.0096865,0.00034695,0.00301,0.0032191,0,0,0.012677,-0.0051471,0,0.020251,0,0,0,0.010805,-0.00077171,0.00301,18.63,0.0043478,0.010249,4.1711e-08,0.66,0.5,0
0.02958,0.036049,0.0091151,-0.00024016,0.0026625,0.0031218,0,0,0.022799,-0.0082387,0,0.027259,0,0,0,0.010124,-0.001249,0.0026625,18.083,0.0038458,0.010029,4.3649e-08,0.68,0.5,0
0.030283,0.036632,0.0095222,0.00055592,0.0030234,0.0030699,0,0,0.042946,-0.012549,0,0.042762,0,0,0,0.010491,-0.00041274,0.0030234,17.868,0.0043672,0.009671,4.358e-08,0.7,0.5,0
0.031476,0.037154,0.0096343,0.0015871,0.0033664,0.0028869,0,0,0.062363,-0.016038,0,0.058354,0,0,0,0.010569,0.00065238,0.0033664,18.057,0.0048626,0.0088802,3.3336e-08,0.72,0.5,0
0.032902,0.037656,0.0089826,0.0019302,0.0032738,0.0026434,0,0,0.07018,-0.01619,0,0.065422,0,0,0,0.0098689,0.0010439,0.0032738,18.556,0.0047289,0.0079492,2.1066e-08,0.74,0.5,0
0.034314,0.038238,0.0085711,0.0021733,0.0032233,0.0025884,0,0,0.069521,-0.013651,0,0.067298,0,0,0,0.0094921,0.0012523,0.0032233,19.532,0.0046559,0.0074529,1.6415e-08,0.76,0.5,0
0.035682,0.038948,0.0084869,0.002357,0.0032532,0.002648,0,0,0.068038,-0.01165,0,0.068849,0,0,0,0.0094749,0.001369,0.0032532,20.434,0.004699,0.0073475,1.5984e-08,0.78,0.5,0
0.037036,0.039779,0.0084561,0.0023853,0.0032524,0.0026876,0,0,0.067648,-0.011273,0,0.069876,0,0,0,0.0094764,0.0013649,0.0032524,20.783,0.0046979,0.0073518,1.6006e-08,0.8,0.5,0
0.038388,0.040703,0.0084396,0.0023437,0.003235,0.0026694,0,0,0.06766,-0.011587,0,0.069405,0,0,0,0.0094452,0.0013381,0.003235,20.63,0.0046728,0.0073447,1.5904e-08,0.82,0.5,0
0.039742,0.041685,0.0084216,0.0023139,0.0032206,0.002605,0,0,0.067612,-0.011788,0,0.067731,0,0,0,0.0093838,0.0013516,0.0032206,20.254,0.004652,0.00728,1.5531e-08,0.84,0.5,0
0.041093,0.042699,0.008385,0.0023143,0.0032098,0.002516,0,0,0.067277,-0.011641,0,0.065416,0,0,0,0.0092943,0.0014051,0.0032098,19.844,0.0046364,0.0071596,1.4912e-08,0.86,0.5,0
0.042433,0.043728,0.008331,0.0023491,0.003204,0.0024182,0,0,0.06665,-0.011114,0,0.062874,0,0,0,0.0091882,0.0014919,0.003204,19.491,0.004628,0.0069992,1.4139e-08,0.88,0.5,0
0.043759,0.044762,0.0082639,0.0024204,0.0032053,0.0023215,0,0,0.065761,-0.010203,0,0.060359,0,0,0,0.0090757,0.0016086,0.0032053,19.246,0.0046299,0.0068107,1.3282e-08,0.9,0.5,0
0.045064,0.045798,0.0081863,0.0025292,0.0032147,0.0022332,0,0,0.064632,-0.0089109,0,0.058064,0,0,0,0.0089634,0.0017522,0.0032147,19.157,0.0046434,0.0066028,1.2385e-08,0.92,0.5,0
0.046344,0.046835,0.0080996,0.0026759,0.0032327,0.0021607,0,0,0.063271,-0.0072379,0,0.056178,0,0,0,0.0088568,0.0019187,0.0032327,19.285,0.0046694,0.0063837,1.1483e-08,0.94,0.5,0
0.047595,0.047876,0.0080042,0.0028609,0.0032595,0.0021117,0,0,0.061681,-0.0051828,0,0.054904,0,0,0,0.008762,0.0021031,0.0032595,19.71,0.0047082,0.006163,1.0613e-08,0.96,0.5,0
0.048811,0.04893,0.0079368,0.0031005,0.0033112,0.0020853,0,0,0.060133,-0.0027394,0,0.054219,0,0,0,0.0087136,0.0023236,0.0033112,20.4,0.0047828,0.0059587,9.862e-09,0.98,0.5,0
0.04941,0.049462,0.0079192,0.003238,0.0033472,0.0020766,0,0,0.059437,-0.0014195,0,0.053991,0,0,0,0.008709,0.0024482,0.0033472,20.792,0.0048348,0.0058638,9.533e-09,1,0.5,0
0.00047532,0.00029605,0.0063893,0.0026379,0.0027082,0.001142,0,0,0.047855,-0.0009129,0,0.029692,0,0,0,0.0067098,0.0023174,0.0027082,15.665,0.0039118,0.004211,3.7293e-09,0,0.52,0
0.00095709,0.00060744,0.0064015,0.0025438,0.0026836,0.0011583,0,0,0.048333,-0.0018174,0,0.030115,0,0,0,0.0067228,0.0022226,0.0026836,15.493,0.0038763,0.004289,3.9013e-09,0.02,0.52,0
0.0019333,0.0012599,0.0064468,0.0023669,0.0026441,0.0012013,0,0,0.049435,-0.003604,0,0.031233,0,0,0,0.0067743,0.0020394,0.0026441,15.245,0.0038193,0.004464,4.2973e-09,0.04,0.52,0
0.0029345,0.0019701,0.0065112,0.0022042,0.0026146,0.0012499,0,0,0.050655,-0.005335,0,0.032496,0,0,0,0.0068477,0.0018678,0.0026146,15.066,0.0037767,0.0046522,4.735e-09,0.06,0.52,0
0.0039595,0.0027346,0.0065714,0.0020481,0.0025858,0.0012893,0,0,0.051812,-0.0069908,0,0.033522,0,0,0,0.0069131,0.0017063,0.0025858,14.846,0.0037351,0.0048279,5.1492e-09,0.08,0.52,0
0.005007,0.0035506,0.0066262,0.0018998,0.0025578,0.0013204,0,0,0.052889,-0.0085545,0,0.034329,0,0,0,0.0069701,0.0015559,0.0025578,14.6,0.0036946,0.0049896,5.5332e-09,0.1,0.52,0
0.0060751,0.0044159,0.0066745,0.0017604,0.0025305,0.0013437,0,0,0.053872,-0.010011,0,0.034937,0,0,0,0.007018,0.0014169,0.0025305,14.342,0.0036551,0.0051359,5.8808e-09,0.12,0.52,0
0.0071619,0.0053283,0.006715,0.0016308,0.0025037,0.00136,0,0,0.054747,-0.011348,0,0.03536,0,0,0,0.007056,0.0012898,0.0025037,14.08,0.0036165,0.0052655,6.1861e-09,0.14,0.52,0
0.008265,0.0062862,0.0067465,0.0015118,0.0024775,0.0013699,0,0,0.055497,-0.012554,0,0.035619,0,0,0,0.0070835,0.0011748,0.0024775,13.822,0.0035786,0.0053771,6.4438e-09,0.16,0.52,0
0.0093818,0.0072887,0.0067676,0.0014037,0.0024514,0.0013744,0,0,0.056111,-0.01362,0,0.035735,0,0,0,0.0070994,0.0010718,0.0024514,13.576,0.0035409,0.00547,6.6491e-09,0.18,0.52,0
0.010509,0.0083352,0.0067767,0.0013065,0.002425,0.0013745,0,0,0.056573,-0.01454,0,0.035737,0,0,0,0.007103,0.0009803,0.002425,13.351,0.0035027,0.0055434,6.7983e-09,0.2,0.52,0
0.011645,0.0094259,0.0067723,0.0012198,0.0023976,0.0013716,0,0,0.056871,-0.015311,0,0.035663,0,0,0,0.0070931,0.00089908,0.0023976,13.158,0.0034633,0.0055973,6.8892e-09,0.22,0.52,0
0.012784,0.010562,0.0067526,0.0011424,0.0023685,0.0013677,0,0,0.056993,-0.015939,0,0.035559,0,0,0,0.0070688,0.00082616,0.0023685,13.01,0.0034212,0.0056322,6.9212e-09,0.24,0.52,0
0.013924,0.011745,0.0067156,0.0010719,0.0023362,0.0013649,0,0,0.056931,-0.016436,0,0.035487,0,0,0,0.0070292,0.00075829,0.0023362,12.922,0.0033746,0.0056497,6.8961e-09,0.26,0.52,0
0.015061,0.012979,0.0066594,0.0010044,0.0022991,0.0013663,0,0,0.056684,-0.016832,0,0.035524,0,0,0,0.0069734,0.00069041,0.0022991,12.913,0.003321,0.005653,6.8194e-09,0.28,0.52,0
0.016192,0.014269,0.0065827,0.00093344,0.0022548,0.0013755,0,0,0.056262,-0.017178,0,0.035762,0,0,0,0.0069014,0.00061474,0.0022548,13.001,0.003257,0.0056482,6.7021e-09,0.3,0.52,0
0.017312,0.01562,0.0064854,0.00084851,0.0022002,0.0013964,0,0,0.055708,-0.017571,0,0.036306,0,0,0,0.0068144,0.0005195,0.0022002,13.196,0.003178,0.0056455,6.5633e-09,0.32,0.52,0
0.01842,0.017041,0.0063708,0.00073249,0.002131,0.0014319,0,0,0.055118,-0.018181,0,0.03723,0,0,0,0.006716,0.00038729,0.002131,13.477,0.0030781,0.0056622,6.4335e-09,0.34,0.52,0
0.019517,0.018538,0.0062464,0.00055652,0.0020409,0.0014787,0,0,0.054672,-0.019297,0,0.038445,0,0,0,0.0066102,0.00019278,0.0020409,13.742,0.002948,0.0057222,6.3461e-09,0.36,0.52,0
0.020607,0.020112,0.0061157,0.00027863,0.0019183,0.0015166,0,0,0.054566,-0.021316,0,0.039432,0,0,0,0.0064888,-9.4427e-05,0.0019183,13.747,0.0027709,0.0058438,6.2918e-09,0.38,0.52,0
0.021699,0.021752,0.005969,-0.00012906,0.001752,0.0015023,0,0,0.054821,-0.024454,0,0.039061,0,0,0,0.0063234,-0.00048344,0.001752,13.159,0.0025306,0.0060106,6.1617e-09,0.4,0.52,0
0.0228,0.023425,0.0057784,-0.00063194,0.0015439,0.0013874,0,0,0.055048,-0.028286,0,0.036073,0,0,0,0.0060751,-0.00092861,0.0015439,11.774,0.0022301,0.0061533,5.7725e-09,0.42,0.52,0
0.023901,0.025081,0.0055216,-0.0011319,0.0013169,0.0011518,0,0,0.054661,-0.031834,0,0.029947,0,0,0,0.0057335,-0.0013438,0.0013169,9.6493,0.0019022,0.0061927,5.0642e-09,0.44,0.52,0
0.024986,0.026674,0.0053733,-0.0014973,0.0011628,0.00089674,0,0,0.051471,-0.032805,0,0.021639,0,0,0,0.0055121,-0.0016362,0.0011628,7.3202,0.0016796,0.0062399,5.5097e-09,0.46,0.52,0
0.025982,0.028133,0.0053616,-0.0017035,0.0010974,0.00081991,0,0,0.041337,-0.027795,0,0.013762,0,0,0,0.0054788,-0.0018206,0.0010974,6.043,0.0015852,0.0063659,7.3011e-09,0.48,0.52,0
0.026717,0.029332,0.0053983,-0.0015767,0.0011465,0.00095198,0,0,0.026818,-0.018872,0,0.0093998,0,0,0,0.0055449,-0.0017233,0.0011465,6.8448,0.001656,0.0063516,9.1505e-09,0.5,0.52,0
0.027144,0.030252,0.0057086,-0.0010228,0.0014057,0.0011792,0,0,0.017126,-0.012401,0,0.010334,0,0,0,0.0059313,-0.0012454,0.0014057,9.9649,0.0020305,0.0063067,1.2266e-08,0.52,0.52,0
0.027436,0.031037,0.006249,-0.00047196,0.0017331,0.0014638,0,0,0.01434,-0.0094186,0,0.01538,0,0,0,0.0066143,-0.00083727,0.0017331,14.417,0.0025034,0.0065749,1.6758e-08,0.54,0.52,0
0.027717,0.031794,0.006772,-0.00011064,0.0019984,0.0017916,0,0,0.014188,-0.0078191,0,0.021515,0,0,0,0.0073378,-0.00067642,0.0019984,18.189,0.0028866,0.0070826,2.131e-08,0.56,0.52,0
0.028003,0.03254,0.0072085,0.0001747,0.0022149,0.0021323,0,0,0.014513,-0.0068895,0,0.027297,0,0,0,0.0079989,-0.00061576,0.0022149,20.631,0.0031994,0.0076215,2.5532e-08,0.58,0.52,0
0.028298,0.033272,0.0075563,0.00040278,0.0023877,0.0024908,0,0,0.015076,-0.0063688,0,0.032975,0,0,0,0.0085847,-0.00062561,0.0023877,22.342,0.0034489,0.0081524,2.9417e-08,0.6,0.52,0
0.028606,0.033989,0.0078562,0.0005994,0.0025367,0.0028883,0,0,0.015988,-0.0062475,0,0.038947,0,0,0,0.0091413,-0.00068567,0.0025367,23.649,0.0036641,0.0086993,3.3456e-08,0.62,0.52,0
0.028937,0.034681,0.0082317,0.000829,0.0027182,0.0032707,0,0,0.017704,-0.0067296,0,0.045025,0,0,0,0.0097529,-0.00069221,0.0027182,24.396,0.0039263,0.0092571,3.9026e-08,0.64,0.52,0
0.029314,0.035305,0.0087702,0.00065906,0.0028288,0.0035511,0,0,0.023537,-0.0085554,0,0.049814,0,0,0,0.010349,-0.00091979,0.0028288,23.682,0.004086,0.0099759,4.8667e-08,0.66,0.52,0
0.029938,0.035831,0.0092032,0.00040144,0.0028814,0.003594,0,0,0.038857,-0.012391,0,0.056466,0,0,0,0.010616,-0.0010112,0.0028814,21.771,0.004162,0.010275,5.1778e-08,0.68,0.52,0
0.031018,0.036303,0.0090454,0.00095374,0.0029997,0.0032738,0,0,0.057631,-0.016296,0,0.065993,0,0,0,0.01024,-0.00024102,0.0029997,20.422,0.004333,0.0093052,3.7204e-08,0.7,0.52,0
0.032365,0.036786,0.0084303,0.0015752,0.0030016,0.0028544,0,0,0.066444,-0.016965,0,0.0703,0,0,0,0.0094727,0.00053268,0.0030016,20.101,0.0043357,0.0079983,2.0717e-08,0.72,0.52,0
0.033707,0.037334,0.0080485,0.0018477,0.0029689,0.002661,0,0,0.066035,-0.014575,0,0.069186,0,0,0,0.00904,0.00085617,0.0029689,20.401,0.0042884,0.0073593,1.5055e-08,0.74,0.52,0
0.035006,0.037981,0.0079908,0.0021222,0.0030339,0.002638,0,0,0.06444,-0.011853,0,0.068589,0,0,0,0.0090056,0.0011074,0.0030339,21.02,0.0043823,0.0071332,1.4211e-08,0.76,0.52,0
0.036285,0.038729,0.0079898,0.0023014,0.0030874,0.0026554,0,0,0.063732,-0.010218,0,0.069042,0,0,0,0.0090382,0.0012529,0.0030874,21.542,0.0044595,0.0070495,1.4015e-08,0.78,0.52,0
0.037555,0.039571,0.0080073,0.0023743,0.0031145,0.0026708,0,0,0.063607,-0.0096226,0,0.069442,0,0,0,0.0090732,0.0013083,0.0031145,21.759,0.0044987,0.0070379,1.4048e-08,0.8,0.52,0
0.038829,0.040493,0.0080351,0.0023875,0.0031268,0.0026588,0,0,0.063808,-0.0096108,0,0.069128,0,0,0,0.0090908,0.0013317,0.0031268,21.657,0.0045165,0.0070355,1.4073e-08,0.82,0.52,0
0.040108,0.041472,0.0080571,0.0023868,0.0031332,0.0026132,0,0,0.064011,-0.0097028,0,0.067944,0,0,0,0.009079,0.0013649,0.0031332,21.352,0.0045257,0.0069995,1.3925e-08,0.84,0.52,0
0.041389,0.042487,0.0080633,0.0024007,0.0031392,0.0025437,0,0,0.064014,-0.0096007,0,0.066137,0,0,0,0.0090396,0.0014244,0.0031392,20.985,0.0045344,0.0069191,1.3577e-08,0.86,0.52,0
0.042668,0.043525,0.0080498,0.0024396,0.0031468,0.0024624,0,0,0.063739,-0.0091941,0,0.064021,0,0,0,0.0089786,0.0015107,0.0031468,20.652,0.0045454,0.0067992,1.3064e-08,0.88,0.52,0
0.043939,0.044576,0.0080178,0.0025073,0.0031575,0.0023792,0,0,0.063184,-0.0084529,0,0.061858,0,0,0,0.0089043,0.0016209,0.0031575,20.418,0.0045609,0.0066498,1.2439e-08,0.9,0.52,0
0.045196,0.045636,0.0079703,0.0026054,0.0031727,0.0023025,0,0,0.062368,-0.007375,0,0.059865,0,0,0,0.0088243,0.0017514,0.0031727,20.333,0.0045828,0.0064804,1.1752e-08,0.92,0.52,0
0.046434,0.046703,0.0079095,0.0027339,0.003193,0.0022401,0,0,0.061315,-0.0059686,0,0.058242,0,0,0,0.0087458,0.0018977,0.003193,20.452,0.0046122,0.0063013,1.1048e-08,0.94,0.52,0
0.047648,0.047782,0.0078378,0.0028923,0.003219,0.0022002,0,0,0.060044,-0.0042473,0,0.057206,0,0,0,0.0086764,0.0020537,0.003219,20.844,0.0046497,0.0061241,1.0374e-08,0.96,0.52,0
0.048835,0.048881,0.0077858,0.0030918,0.0032633,0.0021808,0,0,0.058793,-0.0022295,0,0.0567,0,0,0,0.0086441,0.0022336,0.0032633,21.459,0.0047136,0.0059632,9.8011e-09,0.98,0.52,0
0.049422,0.049437,0.0077723,0.0032047,0.0032931,0.0021745,0,0,0.05823,-0.001149,0,0.056537,0,0,0,0.008643,0.002334,0.0032931,21.8,0.0047567,0.0058887,9.5517e-09,1,0.52,0
0.00046174,0.00027845,0.0062071,0.0025666,0.0026321,0.0010747,0,0,0.046475,-0.00085202,0,0.027942,0,0,0,0.0065009,0.0022728,0.0026321,15.277,0.0038019,0.0040607,3.3533e-09,0,0.54,0
0.0009295,0.00057236,0.0062185,0.0024784,0.002609,0.0010918,0,0,0.046922,-0.001699,0,0.028386,0,0,0,0.006514,0.0021828,0.002609,15.138,0.0037686,0.0041352,3.508e-09,0.02,0.54,0
0.0018769,0.0011903,0.0062604,0.002312,0.0025717,0.0011371,0,0,0.047953,-0.003376,0,0.029563,0,0,0,0.0065645,0.0020079,0.0025717,14.967,0.0037147,0.0043031,3.8652e-09,0.04,0.54,0
0.0028476,0.0018669,0.0063197,0.0021582,0.0025434,0.0011893,0,0,0.049092,-0.0050068,0,0.030923,0,0,0,0.0066356,0.0018423,0.0025434,14.876,0.0036738,0.0044846,4.2621e-09,0.06,0.54,0
0.0038406,0.0025993,0.0063745,0.0020101,0.0025154,0.0012337,0,0,0.050169,-0.0065685,0,0.032077,0,0,0,0.0066992,0.0016855,0.0025154,14.742,0.0036334,0.0046549,4.6392e-09,0.08,0.54,0
0.0048544,0.0033851,0.0064236,0.0018692,0.0024878,0.001271,0,0,0.051165,-0.0080425,0,0.033045,0,0,0,0.0067543,0.0015385,0.0024878,14.586,0.0035936,0.0048122,4.9898e-09,0.1,0.54,0
0.0058872,0.0042221,0.0064657,0.0017366,0.0024607,0.0013017,0,0,0.052065,-0.0094133,0,0.033844,0,0,0,0.0068003,0.0014019,0.0024607,14.421,0.0035543,0.0049548,5.3076e-09,0.12,0.54,0
0.006937,0.0051087,0.0064994,0.0016131,0.0024338,0.0013266,0,0,0.052853,-0.010668,0,0.034491,0,0,0,0.0068364,0.0012762,0.0024338,14.256,0.0035154,0.0050815,5.5868e-09,0.14,0.54,0
0.0080013,0.0060434,0.0065235,0.0014994,0.0024069,0.0013464,0,0,0.053516,-0.011797,0,0.035007,0,0,0,0.0068617,0.0011613,0.0024069,14.102,0.0034766,0.0051911,5.8225e-09,0.16,0.54,0
0.0090776,0.0070254,0.0065367,0.0013957,0.0023797,0.0013622,0,0,0.054041,-0.012792,0,0.035416,0,0,0,0.0068755,0.0010569,0.0023797,13.968,0.0034373,0.005283,6.0108e-09,0.18,0.54,0
0.010163,0.0080542,0.0065375,0.0013016,0.0023517,0.001375,0,0,0.054415,-0.013652,0,0.03575,0,0,0,0.0068769,0.0009622,0.0023517,13.864,0.0033969,0.0053569,6.1491e-09,0.2,0.54,0
0.011254,0.0091301,0.0065246,0.0012164,0.0023223,0.0013865,0,0,0.05463,-0.014377,0,0.036048,0,0,0,0.0068653,0.00087566,0.0023223,13.801,0.0033544,0.0054134,6.2363e-09,0.22,0.54,0
0.012348,0.010254,0.0064964,0.0011384,0.0022905,0.0013985,0,0,0.054677,-0.014976,0,0.03636,0,0,0,0.0068401,0.00079479,0.0022905,13.794,0.0033084,0.0054535,6.2736e-09,0.24,0.54,0
0.013441,0.011428,0.0064517,0.0010649,0.002255,0.0014133,0,0,0.054557,-0.015471,0,0.036746,0,0,0,0.0068008,0.00071582,0.002255,13.855,0.0032572,0.00548,6.265e-09,0.26,0.54,0
0.01453,0.012654,0.0063894,0.00099151,0.0022143,0.0014337,0,0,0.054277,-0.015896,0,0.037276,0,0,0,0.0067477,0.00063323,0.0022143,14,0.0031984,0.0054973,6.2182e-09,0.28,0.54,0
0.015612,0.013936,0.0063095,0.00091134,0.0021662,0.0014625,0,0,0.053862,-0.016314,0,0.038025,0,0,0,0.0066817,0.00053915,0.0021662,14.235,0.003129,0.0055122,6.146e-09,0.3,0.54,0
0.016685,0.015279,0.0062133,0.00081411,0.0021082,0.001502,0,0,0.053366,-0.016824,0,0.039053,0,0,0,0.0066047,0.00042272,0.0021082,14.551,0.0030452,0.0055354,6.066e-09,0.32,0.54,0
0.017747,0.016685,0.0061043,0.00068446,0.0020366,0.001552,0,0,0.05288,-0.017578,0,0.040352,0,0,0,0.006519,0.00026973,0.0020366,14.901,0.0029418,0.0055801,5.9974e-09,0.34,0.54,0
0.0188,0.018159,0.0059862,0.00050143,0.0019463,0.0016058,0,0,0.052519,-0.018783,0,0.04175,0,0,0,0.0064235,6.4171e-05,0.0019463,15.175,0.0028113,0.0056586,5.9462e-09,0.36,0.54,0
0.019848,0.019694,0.0058589,0.000244,0.0018309,0.0016462,0,0,0.052364,-0.020629,0,0.042801,0,0,0,0.0063078,-0.00020494,0.0018309,15.198,0.0026446,0.0057714,5.8801e-09,0.38,0.54,0
0.020895,0.02128,0.0057124,-9.4113e-05,0.0016855,0.0016465,0,0,0.05235,-0.023135,0,0.042808,0,0,0,0.0061498,-0.00053149,0.0016855,14.793,0.0024346,0.005895,5.7121e-09,0.4,0.54,0
0.021942,0.022888,0.0055267,-0.0004864,0.0015121,0.0015805,0,0,0.05219,-0.02598,0,0.041094,0,0,0,0.0059226,-0.00088237,0.0015121,13.884,0.0021841,0.0059797,5.335e-09,0.42,0.54,0
0.022982,0.024486,0.005271,-0.00088216,0.0013167,0.0014403,0,0,0.051407,-0.028585,0,0.037448,0,0,0,0.0056019,-0.001213,0.0013167,12.55,0.0019019,0.0059674,4.6835e-09,0.44,0.54,0
0.023998,0.026037,0.0049188,-0.0012455,0.001102,0.001237,0,0,0.049618,-0.030517,0,0.032161,0,0,0,0.0051762,-0.0015029,0.001102,10.918,0.0015918,0.0058315,3.7971e-09,0.46,0.54,0
0.024967,0.027511,0.0045649,-0.0015962,0.00089061,0.0010304,0,0,0.04529,-0.030506,0,0.025562,0,0,0,0.0047565,-0.0017878,0.00089061,9.1818,0.0012864,0.0056995,3.1918e-09,0.48,0.54,0
0.025827,0.028827,0.0042688,-0.0016585,0.00078308,0.00091865,0,0,0.037749,-0.026973,0,0.020239,0,0,0,0.0044251,-0.0018149,0.00078308,8.519,0.0011311,0.0054339,3.4585e-09,0.5,0.54,0
0.026512,0.0299,0.0039753,-0.0012223,0.0008259,0.00096681,0,0,0.030326,-0.021322,0,0.020345,0,0,0,0.0041697,-0.0014167,0.0008259,10.754,0.001193,0.00488,4.3323e-09,0.52,0.54,0
0.027058,0.030785,0.0038005,-0.00071778,0.00092481,0.0011881,0,0,0.025777,-0.016499,0,0.025904,0,0,0,0.0041408,-0.0010582,0.00092481,15.527,0.0013358,0.0045549,5.4477e-09,0.54,0.54,0
0.027543,0.031593,0.0038322,-0.00038927,0.0010329,0.0015191,0,0,0.023794,-0.013457,0,0.0338,0,0,0,0.0044067,-0.00096377,0.0010329,20.377,0.0014919,0.0047105,6.8333e-09,0.56,0.54,0
0.02801,0.032366,0.0039878,-0.00013539,0.0011557,0.0018738,0,0,0.023459,-0.011698,0,0.04205,0,0,0,0.0048302,-0.00097776,0.0011557,23.882,0.0016694,0.0050977,8.3925e-09,0.58,0.54,0
0.028482,0.033114,0.00423,6.6096e-05,0.0012888,0.0022282,0,0,0.024253,-0.010811,0,0.050188,0,0,0,0.0053389,-0.0010428,0.0012888,26.102,0.0018616,0.0056034,1.0178e-08,0.6,0.54,0
0.02898,0.033832,0.0046048,0.00024014,0.0014535,0.0025898,0,0,0.026286,-0.010748,0,0.058241,0,0,0,0.0059605,-0.0011156,0.0014535,27.256,0.0020995,0.0062163,1.2716e-08,0.62,0.54,0
0.029533,0.034507,0.0052505,0.00043762,0.0017064,0.0029126,0,0,0.030138,-0.011708,0,0.065455,0,0,0,0.0067766,-0.0010885,0.0017064,27.195,0.0024648,0.0069232,1.7121e-08,0.64,0.54,0
0.030186,0.035084,0.0062391,0.00055579,0.0020385,0.0031797,0,0,0.03676,-0.013305,0,0.070462,0,0,0,0.0078055,-0.0010106,0.0020385,25.92,0.0029445,0.0077736,2.4595e-08,0.66,0.54,0
0.031034,0.035536,0.0070015,0.00069014,0.0023075,0.0032335,0,0,0.046615,-0.014738,0,0.072987,0,0,0,0.0084529,-0.00076125,0.0023075,24.187,0.0033331,0.0081379,2.6588e-08,0.68,0.54,0
0.032112,0.035961,0.0071248,0.0011045,0.0024688,0.0029646,0,0,0.055575,-0.015122,0,0.072865,0,0,0,0.0083676,-0.00013829,0.0024688,22.831,0.003566,0.007553,1.8303e-08,0.7,0.54,0
0.033288,0.036468,0.0071551,0.0015549,0.002613,0.0027126,0,0,0.059047,-0.013755,0,0.070529,0,0,0,0.0082586,0.00045141,0.002613,22.154,0.0037743,0.0069834,1.2354e-08,0.72,0.54,0
0.034474,0.037073,0.0073224,0.0018616,0.0027552,0.0026316,0,0,0.059373,-0.011616,0,0.068422,0,0,0,0.0083864,0.00079757,0.0027552,22.027,0.0039797,0.0068246,1.2018e-08,0.74,0.54,0
0.035663,0.037764,0.00744,0.0021025,0.0028627,0.0026039,0,0,0.059505,-0.0098836,0,0.0677,0,0,0,0.0085009,0.0010416,0.0028627,22.178,0.0041351,0.0067363,1.1984e-08,0.76,0.54,0
0.036854,0.038539,0.007527,0.0022671,0.0029382,0.0026066,0,0,0.059655,-0.0087253,0,0.06777,0,0,0,0.0086005,0.0011936,0.0029382,22.391,0.0042441,0.0067071,1.2081e-08,0.78,0.54,0
0.038049,0.039394,0.0076037,0.002363,0.00299,0.0026157,0,0,0.059978,-0.0081513,0,0.068008,0,0,0,0.0086862,0.0012804,0.00299,22.489,0.0043189,0.0067162,1.2266e-08,0.8,0.54,0
0.039253,0.040319,0.0076706,0.0024103,0.0030243,0.0026103,0,0,0.060403,-0.0079816,0,0.067867,0,0,0,0.0087465,0.0013344,0.0030243,22.405,0.0043684,0.0067283,1.2412e-08,0.82,0.54,0
0.040465,0.041297,0.0077249,0.0024383,0.0030489,0.0025824,0,0,0.060787,-0.0079387,0,0.067142,0,0,0,0.0087776,0.0013856,0.0030489,22.18,0.004404,0.0067167,1.243e-08,0.84,0.54,0
0.041684,0.042315,0.0077611,0.0024687,0.0030689,0.0025342,0,0,0.060998,-0.0078031,0,0.06589,0,0,0,0.0087797,0.0014501,0.0030689,21.895,0.0044329,0.0066693,1.2283e-08,0.86,0.54,0
0.042905,0.04336,0.0077768,0.0025143,0.0030873,0.0024733,0,0,0.060963,-0.0074497,0,0.064307,0,0,0,0.0087577,0.0015334,0.0030873,21.627,0.0044594,0.0065864,1.1981e-08,0.88,0.54,0
0.044123,0.044424,0.0077722,0.0025806,0.0031058,0.0024081,0,0,0.060663,-0.006828,0,0.06261,0,0,0,0.0087182,0.0016347,0.0031058,21.438,0.0044862,0.0064746,1.1562e-08,0.9,0.54,0
0.045332,0.045503,0.0077495,0.0026698,0.0031258,0.0023466,0,0,0.060108,-0.005928,0,0.061013,0,0,0,0.0086687,0.0017507,0.0031258,21.379,0.004515,0.0063434,1.1069e-08,0.92,0.54,0
0.046527,0.046596,0.0077115,0.0027818,0.003148,0.002297,0,0,0.059326,-0.0047609,0,0.059721,0,0,0,0.0086169,0.0018763,0.003148,21.502,0.0045471,0.0062035,1.055e-08,0.94,0.54,0
0.047705,0.047706,0.0076612,0.002915,0.0031728,0.0022675,0,0,0.058348,-0.0033522,0,0.058955,0,0,0,0.0085715,0.0020047,0.0031728,21.859,0.004583,0.0060679,1.0058e-08,0.96,0.54,0
0.048861,0.048841,0.0076235,0.003076,0.0032098,0.0022552,0,0,0.057377,-0.0017404,0,0.058635,0,0,0,0.0085533,0.0021462,0.0032098,22.391,0.0046364,0.0059474,9.6475e-09,0.98,0.54,0
0.049434,0.049416,0.0076137,0.0031653,0.0032337,0.0022515,0,0,0.05694,-0.00088936,0,0.058539,0,0,0,0.0085551,0.0022239,0.0032337,22.677,0.0046709,0.0058918,9.4695e-09,1,0.54,0
0.00044829,0.00026197,0.0060266,0.0024948,0.0025564,0.0010118,0,0,0.045112,-0.00080127,0,0.026306,0,0,0,0.0062961,0.0022253,0.0025564,14.903,0.0036926,0.003916,3.0146e-09,0,0.56,0
0.00090225,0.00053948,0.0060372,0.0024115,0.0025346,0.0010296,0,0,0.045534,-0.0016001,0,0.026771,0,0,0,0.0063093,0.0021394,0.0025346,14.796,0.0036611,0.0039877,3.1546e-09,0.02,0.56,0
0.0018213,0.0011249,0.0060764,0.0022541,0.0024991,0.0010773,0,0,0.046504,-0.0031854,0,0.028009,0,0,0,0.0063591,0.0019714,0.0024991,14.699,0.0036099,0.0041497,3.4788e-09,0.04,0.56,0
0.0027624,0.0017698,0.0061316,0.0021078,0.0024718,0.0011334,0,0,0.047577,-0.004732,0,0.029469,0,0,0,0.0064289,0.0018105,0.0024718,14.695,0.0035704,0.0043263,3.8412e-09,0.06,0.56,0
0.0037244,0.0024718,0.0061822,0.0019665,0.0024446,0.001183,0,0,0.048589,-0.0062153,0,0.030759,0,0,0,0.0064915,0.0016572,0.0024446,14.651,0.0035311,0.0044931,4.1882e-09,0.08,0.56,0
0.004706,0.0032289,0.0062269,0.0018318,0.0024176,0.0012268,0,0,0.049521,-0.0076157,0,0.031896,0,0,0,0.0065462,0.0015125,0.0024176,14.588,0.0034921,0.004648,4.5128e-09,0.1,0.56,0
0.0057053,0.0040393,0.0062643,0.0017047,0.0023907,0.0012653,0,0,0.050357,-0.0089176,0,0.032897,0,0,0,0.0065919,0.0013772,0.0023907,14.518,0.0034533,0.0047893,4.8089e-09,0.12,0.56,0
0.0067202,0.0049015,0.0062932,0.0015862,0.0023638,0.0012991,0,0,0.051082,-0.010109,0,0.033778,0,0,0,0.006628,0.0012514,0.0023638,14.453,0.0034144,0.0049159,5.0712e-09,0.14,0.56,0
0.0077485,0.0058144,0.0063124,0.0014766,0.0023367,0.0013292,0,0,0.051684,-0.011182,0,0.034559,0,0,0,0.0066538,0.0011352,0.0023367,14.405,0.0033752,0.0050268,5.2956e-09,0.16,0.56,0
0.0087876,0.006777,0.0063208,0.0013759,0.002309,0.0013564,0,0,0.052153,-0.012131,0,0.035267,0,0,0,0.0066686,0.0010281,0.002309,14.381,0.0033352,0.0051217,5.4789e-09,0.18,0.56,0
0.0098347,0.0077891,0.0063171,0.0012835,0.0022802,0.001382,0,0,0.05248,-0.012957,0,0.035933,0,0,0,0.0066718,0.00092878,0.0022802,14.393,0.0032936,0.0052008,5.6197e-09,0.2,0.56,0
0.010887,0.0088508,0.0063003,0.0011984,0.0022496,0.0014075,0,0,0.052659,-0.013665,0,0.036595,0,0,0,0.0066632,0.00083551,0.0022496,14.451,0.0032494,0.0052651,5.7182e-09,0.22,0.56,0
0.011941,0.0099628,0.0062695,0.0011186,0.0022164,0.0014347,0,0,0.05269,-0.014272,0,0.037302,0,0,0,0.0066427,0.00074543,0.0022164,14.567,0.0032015,0.0053167,5.7772e-09,0.24,0.56,0
0.012994,0.011126,0.006224,0.001041,0.0021795,0.0014656,0,0,0.052579,-0.014801,0,0.038106,0,0,0,0.0066105,0.00065452,0.0021795,14.751,0.0031482,0.0053588,5.802e-09,0.26,0.56,0
0.014044,0.012344,0.0061638,0.00096089,0.0021374,0.0015025,0,0,0.052343,-0.015295,0,0.039065,0,0,0,0.0065674,0.00055725,0.0021374,15.009,0.0030874,0.0053966,5.8014e-09,0.28,0.56,0
0.015088,0.013616,0.0060896,0.00087171,0.0020884,0.0015472,0,0,0.052016,-0.015817,0,0.040227,0,0,0,0.006515,0.00044635,0.0020884,15.337,0.0030166,0.005437,5.7869e-09,0.3,0.56,0
0.016125,0.014947,0.0060035,0.00076416,0.0020303,0.0016005,0,0,0.051651,-0.01646,0,0.041612,0,0,0,0.0064548,0.00031279,0.0020303,15.71,0.0029326,0.0054889,5.7714e-09,0.32,0.56,0
0.017154,0.016338,0.005908,0.00062617,0.0019603,0.0016602,0,0,0.051321,-0.017343,0,0.043166,0,0,0,0.0063876,0.00014653,0.0019603,16.073,0.0028315,0.005561,5.7635e-09,0.34,0.56,0
0.018178,0.017786,0.0058053,0.00044435,0.0018749,0.0017197,0,0,0.051095,-0.018597,0,0.044713,0,0,0,0.0063105,-6.0939e-05,0.0018749,16.337,0.0027082,0.0056581,5.7566e-09,0.36,0.56,0
0.019198,0.019287,0.0056939,0.00020869,0.0017708,0.0017664,0,0,0.051001,-0.020307,0,0.045927,0,0,0,0.0062146,-0.00031204,0.0017708,16.39,0.0025578,0.0057748,5.7176e-09,0.38,0.56,0
0.020218,0.020827,0.005567,-7.9541e-05,0.0016462,0.0017841,0,0,0.05097,-0.022435,0,0.046386,0,0,0,0.0060851,-0.00059762,0.0016462,16.145,0.0023779,0.0058911,5.5861e-09,0.4,0.56,0
0.021237,0.022386,0.0054114,-0.00040276,0.0015026,0.0017595,0,0,0.050815,-0.02477,0,0.045747,0,0,0,0.0059051,-0.00089648,0.0015026,15.589,0.0021704,0.0059755,5.2971e-09,0.42,0.56,0
0.02225,0.023938,0.0052116,-0.00073135,0.0013441,0.0016894,0,0,0.050278,-0.02698,0,0.043924,0,0,0,0.0056626,-0.0011824,0.0013441,14.791,0.0019414,0.0059958,4.8191e-09,0.44,0.56,0
0.023248,0.025453,0.0049537,-0.0010411,0.0011738,0.0015816,0,0,0.049139,-0.028794,0,0.041122,0,0,0,0.0053515,-0.0014389,0.0011738,13.858,0.0016954,0.005933,4.1727e-09,0.46,0.56,0
0.024216,0.026902,0.0046265,-0.0013375,0.00098671,0.001432,0,0,0.047317,-0.030214,0,0.037232,0,0,0,0.0049628,-0.0016737,0.00098671,12.7,0.0014252,0.0057857,3.404e-09,0.48,0.56,0
0.025141,0.028231,0.0042687,-0.0014866,0.00083461,0.0012708,0,0,0.044643,-0.030176,0,0.033041,0,0,0,0.004548,-0.001766,0.00083461,11.729,0.0012055,0.005497,2.6659e-09,0.5,0.56,0
0.026002,0.029388,0.0039391,-0.0013149,0.00078725,0.0012026,0,0,0.040974,-0.027328,0,0.031268,0,0,0,0.0042094,-0.0015852,0.00078725,12.274,0.0011371,0.005046,2.1529e-09,0.52,0.56,0
0.026779,0.030377,0.003668,-0.00097162,0.00080891,0.001288,0,0,0.037168,-0.023147,0,0.033487,0,0,0,0.0040133,-0.0013169,0.00080891,14.753,0.0011684,0.0046477,1.8922e-09,0.54,0.56,0
0.027488,0.031256,0.0035168,-0.0006698,0.0008541,0.0014897,0,0,0.034615,-0.019811,0,0.038732,0,0,0,0.0040126,-0.0011656,0.0008541,18.049,0.0012337,0.0045206,1.8692e-09,0.56,0.56,0
0.028164,0.032072,0.0035264,-0.0004335,0.00092786,0.0017422,0,0,0.03378,-0.017698,0,0.045298,0,0,0,0.0042099,-0.001117,0.00092786,20.958,0.0013402,0.0046547,2.1074e-09,0.58,0.56,0
0.028839,0.03284,0.0036834,-0.00024442,0.0010317,0.0019997,0,0,0.034472,-0.016589,0,0.051991,0,0,0,0.0045528,-0.0011138,0.0010317,22.944,0.0014902,0.0049557,2.6105e-09,0.6,0.56,0
0.029543,0.033559,0.0039866,-8.9207e-05,0.0011692,0.0022321,0,0,0.036626,-0.01636,0,0.058036,0,0,0,0.0050052,-0.0011077,0.0011692,23.875,0.0016889,0.0053515,3.4043e-09,0.62,0.56,0
0.030305,0.034213,0.0044334,5.057e-05,0.0013452,0.0023988,0,0,0.040146,-0.01683,0,0.062369,0,0,0,0.0055248,-0.0010409,0.0013452,23.737,0.001943,0.0057572,4.4812e-09,0.64,0.56,0
0.031149,0.03477,0.0049708,0.00028654,0.0015772,0.0024817,0,0,0.044117,-0.016779,0,0.064524,0,0,0,0.0060687,-0.00081138,0.0015772,23.109,0.0022782,0.0060525,5.741e-09,0.66,0.56,0
0.032069,0.035234,0.0055173,0.00071907,0.0018709,0.0024921,0,0,0.047403,-0.014974,0,0.064794,0,0,0,0.0065953,-0.00035885,0.0018709,22.775,0.0027024,0.006154,6.9111e-09,0.68,0.56,0
0.033045,0.035695,0.0060274,0.0012105,0.0021714,0.0024656,0,0,0.050128,-0.012491,0,0.064105,0,0,0,0.0070728,0.0001651,0.0021714,22.691,0.0031364,0.0061578,7.8914e-09,0.7,0.56,0
0.034074,0.036235,0.0064607,0.0015939,0.0024164,0.0024562,0,0,0.052576,-0.010692,0,0.063862,0,0,0,0.007486,0.00056862,0.0024164,22.6,0.0034903,0.0062046,8.7913e-09,0.72,0.56,0
0.035148,0.036869,0.0067728,0.0018704,0.002593,0.0024656,0,0,0.054338,-0.0093936,0,0.064107,0,0,0,0.0077986,0.00084454,0.002593,22.58,0.0037454,0.0062661,9.4774e-09,0.74,0.56,0
0.036248,0.037586,0.0069835,0.0020819,0.0027196,0.0024807,0,0,0.055431,-0.0082907,0,0.064498,0,0,0,0.00802,0.0010454,0.0027196,22.677,0.0039283,0.0063067,9.9424e-09,0.76,0.56,0
0.037365,0.03838,0.0071377,0.002239,0.002813,0.002504,0,0,0.056221,-0.007462,0,0.065103,0,0,0,0.0081912,0.0011855,0.002813,22.821,0.0040632,0.0063504,1.034e-08,0.78,0.56,0
0.038497,0.039245,0.0072579,0.002346,0.0028812,0.0025253,0,0,0.056898,-0.0069572,0,0.065657,0,0,0,0.0083246,0.0012793,0.0028812,22.905,0.0041617,0.0063967,1.0688e-08,0.8,0.56,0
0.039641,0.040174,0.0073555,0.0024165,0.0029316,0.0025343,0,0,0.057511,-0.0066964,0,0.065892,0,0,0,0.0084247,0.0013473,0.0029316,22.879,0.0042345,0.0064333,1.0957e-08,0.82,0.56,0
0.040797,0.041154,0.007433,0.0024676,0.0029702,0.0025254,0,0,0.058017,-0.0065339,0,0.065661,0,0,0,0.008492,0.0014086,0.0029702,22.753,0.0042902,0.0064461,1.1104e-08,0.84,0.56,0
0.041962,0.042175,0.0074899,0.002515,0.0030015,0.002499,0,0,0.05835,-0.0063247,0,0.064975,0,0,0,0.0085288,0.001476,0.0030015,22.576,0.0043354,0.0064274,1.1108e-08,0.86,0.56,0
0.043131,0.043227,0.0075256,0.0025695,0.0030285,0.0024598,0,0,0.058462,-0.0059677,0,0.063954,0,0,0,0.0085397,0.0015554,0.0030285,22.404,0.0043745,0.0063767,1.0972e-08,0.88,0.56,0
0.0443,0.044303,0.0075407,0.0026371,0.0030533,0.0024143,0,0,0.058335,-0.0054114,0,0.062772,0,0,0,0.0085304,0.0016473,0.0030533,22.289,0.0044103,0.0062991,1.0721e-08,0.9,0.56,0
0.045465,0.045398,0.0075369,0.00272,0.0030771,0.0023699,0,0,0.057978,-0.0046423,0,0.061618,0,0,0,0.0085081,0.0017488,0.0030771,22.279,0.0044446,0.0062029,1.0395e-08,0.92,0.56,0
0.046619,0.046512,0.0075172,0.0028179,0.0031006,0.0023343,0,0,0.057417,-0.003674,0,0.060693,0,0,0,0.0084805,0.0018547,0.0031006,22.416,0.0044786,0.0060992,1.0038e-08,0.94,0.56,0
0.047761,0.047648,0.0074851,0.0029287,0.0031241,0.0023156,0,0,0.056692,-0.0025404,0,0.060207,0,0,0,0.0084562,0.0019576,0.0031241,22.742,0.0045126,0.0060011,9.703e-09,0.96,0.56,0
0.048887,0.048811,0.0074597,0.0030547,0.0031543,0.0023103,0,0,0.05597,-0.0012952,0,0.060067,0,0,0,0.0084499,0.0020645,0.0031543,23.19,0.0045562,0.0059164,9.4306e-09,0.98,0.56,0
0.049446,0.049401,0.0074531,0.0031224,0.0031727,0.002309,0,0,0.055645,-0.00065279,0,0.060034,0,0,0,0.0084537,0.0021218,0.0031727,23.422,0.0045827,0.0058775,9.313e-09,1,0.56,0
0.00043504,0.0002464,0.0058486,0.0024228,0.0024814,0.00095235,0,0,0.043773,-0.00076188,0,0.024761,0,0,0,0.0060957,0.0021757,0.0024814,14.534,0.0035843,0.0037767,2.7098e-09,0,0.58,0
0.00087547,0.00050836,0.0058587,0.0023435,0.0024606,0.00097103,0,0,0.044174,-0.0015231,0,0.025247,0,0,0,0.0061092,0.002093,0.0024606,14.456,0.0035543,0.0038462,2.8374e-09,0.02,0.58,0
0.001767,0.0010629,0.0058957,0.0021931,0.0024266,0.001021,0,0,0.045098,-0.0030361,0,0.026546,0,0,0,0.0061587,0.0019302,0.0024266,14.431,0.0035052,0.004004,3.1339e-09,0.04,0.58,0
0.0026794,0.0016776,0.0059479,0.0020528,0.0024002,0.001081,0,0,0.04612,-0.0045162,0,0.028107,0,0,0,0.0062278,0.0017729,0.0024002,14.512,0.003467,0.0041773,3.4678e-09,0.06,0.58,0
0.0036118,0.0023507,0.0059955,0.001917,0.0023738,0.001136,0,0,0.047083,-0.0059377,0,0.029536,0,0,0,0.0062906,0.0016219,0.0023738,14.558,0.0034288,0.0043422,3.7904e-09,0.08,0.58,0
0.0045627,0.0030804,0.0060371,0.0017872,0.0023473,0.0011864,0,0,0.047968,-0.0072809,0,0.030847,0,0,0,0.0063459,0.0014785,0.0023473,14.587,0.0033906,0.0044967,4.0951e-09,0.1,0.58,0
0.0055305,0.0038654,0.0060715,0.0016646,0.0023209,0.0012327,0,0,0.048759,-0.0085308,0,0.032051,0,0,0,0.0063929,0.0013432,0.0023209,14.613,0.0033523,0.0046391,4.3761e-09,0.12,0.58,0
0.0065131,0.0047043,0.0060976,0.0015499,0.0022942,0.0012756,0,0,0.049444,-0.0096769,0,0.033165,0,0,0,0.006431,0.0012165,0.0022942,14.648,0.0033139,0.0047681,4.6287e-09,0.14,0.58,0
0.0075082,0.0055961,0.0061143,0.0014432,0.0022672,0.0013157,0,0,0.050012,-0.010713,0,0.034208,0,0,0,0.0064595,0.001098,0.0022672,14.7,0.0032749,0.0048831,4.8494e-09,0.16,0.58,0
0.0085135,0.0065402,0.0061207,0.0013444,0.0022395,0.001354,0,0,0.050455,-0.011637,0,0.035205,0,0,0,0.0064779,0.00098711,0.0022395,14.78,0.0032349,0.0049842,5.0359e-09,0.18,0.58,0
0.0095264,0.0075359,0.0061159,0.0012527,0.0022106,0.0013917,0,0,0.050769,-0.012452,0,0.036183,0,0,0,0.0064862,0.0008824,0.0022106,14.896,0.0031931,0.005072,5.1879e-09,0.2,0.58,0
0.010544,0.0085835,0.0060993,0.0011667,0.0021798,0.00143,0,0,0.050953,-0.01317,0,0.037181,0,0,0,0.0064842,0.00078182,0.0021798,15.057,0.0031486,0.0051479,5.3066e-09,0.22,0.58,0
0.011565,0.0096832,0.0060705,0.0010843,0.0021464,0.0014707,0,0,0.051013,-0.013808,0,0.038237,0,0,0,0.0064724,0.0006824,0.0021464,15.271,0.0031004,0.0052146,5.3956e-09,0.24,0.58,0
0.012585,0.010836,0.0060296,0.0010021,0.0021095,0.0015152,0,0,0.050961,-0.014397,0,0.039396,0,0,0,0.0064515,0.00058015,0.0021095,15.542,0.0030471,0.0052758,5.4608e-09,0.26,0.58,0
0.013603,0.012042,0.0059771,0.00091557,0.0020678,0.0015653,0,0,0.050821,-0.014979,0,0.040698,0,0,0,0.0064227,0.00046996,0.0020678,15.869,0.0029868,0.0053365,5.5103e-09,0.28,0.58,0
0.014618,0.013303,0.0059144,0.00081871,0.0020199,0.0016218,0,0,0.050628,-0.015616,0,0.042166,0,0,0,0.0063874,0.00034562,0.0020199,16.237,0.0029177,0.0054031,5.5536e-09,0.3,0.58,0
0.015628,0.01462,0.0058434,0.00070377,0.0019642,0.0016843,0,0,0.050431,-0.016385,0,0.043793,0,0,0,0.0063469,0.00020027,0.0019642,16.616,0.0028371,0.0054821,5.5986e-09,0.32,0.58,0
0.016635,0.015992,0.0057666,0.00056194,0.0018986,0.0017503,0,0,0.050284,-0.017376,0,0.045508,0,0,0,0.0063011,2.7467e-05,0.0018986,16.956,0.0027424,0.0055789,5.6478e-09,0.34,0.58,0
0.01764,0.017415,0.0056853,0.00038497,0.0018211,0.0018139,0,0,0.050235,-0.018669,0,0.04716,0,0,0,0.0062471,-0.00017684,0.0018211,17.189,0.0026304,0.0056946,5.6912e-09,0.36,0.58,0
0.018644,0.018882,0.0055989,0.00016832,0.0017302,0.0018661,0,0,0.050293,-0.020304,0,0.048519,0,0,0,0.0061788,-0.0004116,0.0017302,17.246,0.0024991,0.0058233,5.7027e-09,0.38,0.58,0
0.019651,0.020382,0.0055038,-8.5104e-05,0.0016256,0.0018971,0,0,0.050416,-0.022239,0,0.049324,0,0,0,0.0060875,-0.00066884,0.0016256,17.084,0.0023481,0.0059511,5.6434e-09,0.4,0.58,0
0.020661,0.021898,0.0053944,-0.0003633,0.0015093,0.0018989,0,0,0.050506,-0.024344,0,0.049371,0,0,0,0.0059652,-0.00093414,0.0015093,16.701,0.0021801,0.0060595,5.477e-09,0.42,0.58,0
0.021671,0.023407,0.0052658,-0.0006485,0.0013852,0.001869,0,0,0.050448,-0.026438,0,0.048595,0,0,0,0.0058083,-0.001191,0.0013852,16.139,0.0020008,0.0061319,5.1887e-09,0.44,0.58,0
0.022679,0.024886,0.0051181,-0.00092332,0.0012584,0.0018078,0,0,0.050176,-0.028363,0,0.047004,0,0,0,0.0056195,-0.0014247,0.0012584,15.433,0.0018177,0.0061582,4.7933e-09,0.46,0.58,0
0.023678,0.026303,0.0049474,-0.0011739,0.001132,0.0017139,0,0,0.0496,-0.029978,0,0.044562,0,0,0,0.0053967,-0.0016232,0.001132,14.594,0.0016352,0.0061264,4.3066e-09,0.48,0.58,0
0.024663,0.02762,0.0047547,-0.0013363,0.0010255,0.0015937,0,0,0.048479,-0.030704,0,0.041436,0,0,0,0.0051483,-0.00173,0.0010255,13.765,0.0014813,0.0059961,3.7777e-09,0.5,0.58,0
0.025618,0.028807,0.0045674,-0.001308,0.00097781,0.0014904,0,0,0.046664,-0.029716,0,0.03875,0,0,0,0.0049249,-0.0016655,0.00097781,13.422,0.0014124,0.0057448,3.33e-09,0.52,0.58,0
0.026529,0.029859,0.0044148,-0.0011088,0.00099181,0.0014662,0,0,0.044499,-0.027307,0,0.038121,0,0,0,0.004782,-0.0014759,0.00099181,14.028,0.0014326,0.0054599,3.054e-09,0.54,0.58,0
0.027398,0.0308,0.0043238,-0.00086373,0.001038,0.0015358,0,0,0.042715,-0.024723,0,0.03993,0,0,0,0.00475,-0.0012899,0.001038,15.432,0.0014993,0.0052765,2.9744e-09,0.56,0.58,0
0.028238,0.031658,0.0043302,-0.00064217,0.0011064,0.0016629,0,0,0.041909,-0.022731,0,0.043234,0,0,0,0.004845,-0.001157,0.0011064,17.026,0.0015981,0.0052501,3.1135e-09,0.58,0.58,0
0.029074,0.03245,0.0044513,-0.00044819,0.0012009,0.0018027,0,0,0.042255,-0.021439,0,0.046869,0,0,0,0.0050566,-0.0010535,0.0012009,18.284,0.0017347,0.0053519,3.4753e-09,0.6,0.58,0
0.029928,0.033178,0.0046754,-0.00026851,0.0013221,0.0019161,0,0,0.043594,-0.020678,0,0.049819,0,0,0,0.0053462,-0.00093923,0.0013221,18.942,0.0019097,0.0055146,4.0168e-09,0.62,0.58,0
0.030818,0.033834,0.004964,-6.665e-05,0.0014692,0.0019744,0,0,0.045433,-0.019966,0,0.051335,0,0,0,0.0056601,-0.00076276,0.0014692,19.048,0.0021222,0.0056487,4.6253e-09,0.64,0.58,0
0.031745,0.034412,0.0052822,0.00025348,0.0016607,0.0019821,0,0,0.047079,-0.018294,0,0.051535,0,0,0,0.0059798,-0.00044415,0.0016607,19.067,0.0023988,0.0056741,5.1914e-09,0.66,0.58,0
0.032701,0.034937,0.0056143,0.00073384,0.0019045,0.0019963,0,0,0.048228,-0.015218,0,0.051904,0,0,0,0.0063349,1.3236e-05,0.0019045,19.582,0.0027509,0.0056221,5.7458e-09,0.68,0.58,0
0.033675,0.035462,0.0059286,0.0012218,0.0021451,0.0020626,0,0,0.049185,-0.012003,0,0.053628,0,0,0,0.0067109,0.00043954,0.0021451,20.549,0.0030985,0.0056173,6.3688e-09,0.7,0.58,0
0.034668,0.036041,0.0062079,0.0015803,0.0023364,0.002156,0,0,0.050328,-0.00983,0,0.056056,0,0,0,0.0070601,0.00072804,0.0023364,21.43,0.0033749,0.0057011,7.0607e-09,0.72,0.58,0
0.035688,0.036697,0.0064593,0.0018383,0.0024893,0.0022405,0,0,0.05161,-0.0084625,0,0.058254,0,0,0,0.0073686,0.00092897,0.0024893,22.023,0.0035956,0.0058189,7.7594e-09,0.74,0.58,0
0.036733,0.037433,0.0066735,0.0020413,0.0026144,0.0023097,0,0,0.052768,-0.0074509,0,0.060053,0,0,0,0.0076289,0.0010859,0.0026144,22.441,0.0037764,0.0059286,8.3885e-09,0.76,0.58,0
0.037798,0.038241,0.0068457,0.002198,0.0027131,0.0023666,0,0,0.053723,-0.006696,0,0.06153,0,0,0,0.0078388,0.0012049,0.0027131,22.751,0.003919,0.0060232,8.9263e-09,0.78,0.58,0
0.038882,0.039116,0.0069849,0.0023162,0.0027903,0.0024111,0,0,0.054529,-0.0061638,0,0.06269,0,0,0,0.0080066,0.0012945,0.0027903,22.96,0.0040305,0.0061034,9.3805e-09,0.8,0.58,0
0.03998,0.040051,0.0070979,0.0024048,0.0028508,0.0024404,0,0,0.055212,-0.005798,0,0.06345,0,0,0,0.0081369,0.0013658,0.0028508,23.062,0.0041179,0.0061643,9.7384e-09,0.82,0.58,0
0.04109,0.041036,0.0071883,0.0024755,0.0028992,0.0024523,0,0,0.055759,-0.0055074,0,0.06376,0,0,0,0.0082329,0.0014309,0.0028992,23.075,0.0041877,0.0061998,9.9802e-09,0.84,0.58,0
0.04221,0.042062,0.0072572,0.0025391,0.0029389,0.0024476,0,0,0.056138,-0.0051971,0,0.063638,0,0,0,0.0082977,0.0014986,0.0029389,23.034,0.0042451,0.0062056,1.0094e-08,0.86,0.58,0
0.043336,0.043121,0.0073049,0.002604,0.0029727,0.0024298,0,0,0.056319,-0.0047928,0,0.063175,0,0,0,0.0083353,0.0015736,0.0029727,22.983,0.0042939,0.0061822,1.0082e-08,0.88,0.58,0
0.044463,0.044208,0.0073326,0.0026752,0.0030023,0.0024043,0,0,0.056293,-0.0042526,0,0.062511,0,0,0,0.0083514,0.0016564,0.0030023,22.965,0.0043367,0.0061339,9.9635e-09,0.9,0.58,0
0.045587,0.045317,0.007342,0.0027547,0.003029,0.0023773,0,0,0.056069,-0.0035659,0,0.06181,0,0,0,0.0083522,0.0017445,0.003029,23.021,0.0043753,0.0060684,9.7715e-09,0.92,0.58,0
0.046706,0.046449,0.0073361,0.0028419,0.0030534,0.0023559,0,0,0.055675,-0.0027492,0,0.061253,0,0,0,0.0083452,0.0018328,0.0030534,23.185,0.0044105,0.0059961,9.5474e-09,0.94,0.58,0
0.047814,0.047605,0.0073184,0.0029339,0.0030757,0.0023475,0,0,0.055155,-0.0018427,0,0.061036,0,0,0,0.0083387,0.0019136,0.0030757,23.486,0.0044427,0.0059301,9.3413e-09,0.96,0.58,0
0.048912,0.048789,0.007303,0.0030298,0.0030998,0.0023485,0,0,0.054641,-0.00091085,0,0.06106,0,0,0,0.0083418,0.0019909,0.0030998,23.856,0.0044775,0.0058755,9.1795e-09,0.98,0.58,0
0.049457,0.04939,0.0072989,0.0030789,0.0031133,0.0023493,0,0,0.054412,-0.00044815,0,0.061082,0,0,0,0.008347,0.0020308,0.0031133,24.038,0.004497,0.0058506,9.1096e-09,1,0.58,0
0.00042203,0.0002315,0.0056737,0.0023509,0.0024074,0.00089551,0,0,0.042462,-0.00073449,0,0.023283,0,0,0,0.0058998,0.0021248,0.0024074,14.159,0.0034773,0.0036422,2.4351e-09,0,0.6,0
0.00084924,0.00047855,0.0056834,0.0022743,0.0023873,0.00091497,0,0,0.042849,-0.0014691,0,0.023789,0,0,0,0.0059135,0.0020441,0.0023873,14.108,0.0034483,0.0037103,2.5524e-09,0.02,0.6,0
0.001714,0.0010034,0.005719,0.002129,0.0023544,0.00096729,0,0,0.04374,-0.0029305,0,0.025149,0,0,0,0.0059632,0.0018849,0.0023544,14.149,0.0034008,0.0038656,2.8261e-09,0.04,0.6,0
0.0025989,0.0015891,0.0057692,0.0019932,0.0023287,0.0010311,0,0,0.044726,-0.0043621,0,0.02681,0,0,0,0.0060325,0.0017299,0.0023287,14.313,0.0033637,0.0040371,3.1366e-09,0.06,0.6,0
0.003503,0.0022343,0.0058149,0.0018615,0.0023029,0.0010914,0,0,0.045656,-0.0057383,0,0.028377,0,0,0,0.0060963,0.0015802,0.0023029,14.448,0.0033265,0.004202,3.4397e-09,0.08,0.6,0
0.0044251,0.0029377,0.0058548,0.0017356,0.0022771,0.0011484,0,0,0.04651,-0.0070403,0,0.029858,0,0,0,0.0061534,0.001437,0.0022771,14.568,0.0032892,0.0043578,3.7292e-09,0.1,0.6,0
0.0053634,0.0036981,0.0058878,0.0016163,0.0022512,0.0012024,0,0,0.047275,-0.008254,0,0.031262,0,0,0,0.006203,0.0013011,0.0022512,14.688,0.0032518,0.0045029,3.9999e-09,0.12,0.6,0
0.0063161,0.0045145,0.0059129,0.0015043,0.0022251,0.0012539,0,0,0.04794,-0.0093709,0,0.032601,0,0,0,0.0062446,0.0011726,0.0022251,14.816,0.0032141,0.0046364,4.2477e-09,0.14,0.6,0
0.007281,0.0053858,0.0059291,0.0013997,0.0021986,0.0013035,0,0,0.048496,-0.010387,0,0.033891,0,0,0,0.0062776,0.0010512,0.0021986,14.962,0.0031758,0.0047577,4.4696e-09,0.16,0.6,0
0.008256,0.0063115,0.005936,0.0013019,0.0021714,0.0013521,0,0,0.04894,-0.011303,0,0.035154,0,0,0,0.0063018,0.00093617,0.0021714,15.134,0.0031364,0.0048672,4.6642e-09,0.18,0.6,0
0.0092386,0.007291,0.005933,0.0012102,0.002143,0.0014006,0,0,0.04927,-0.012126,0,0.036415,0,0,0,0.0063173,0.0008259,0.002143,15.338,0.0030954,0.0049658,4.8318e-09,0.2,0.6,0
0.010227,0.008324,0.0059198,0.0011229,0.0021128,0.0014502,0,0,0.049491,-0.012869,0,0.037704,0,0,0,0.0063244,0.00071828,0.0021128,15.58,0.0030518,0.0050554,4.9743e-09,0.22,0.6,0
0.011218,0.0094105,0.0058966,0.0010375,0.0020802,0.0015021,0,0,0.049613,-0.013555,0,0.039053,0,0,0,0.0063238,0.00061039,0.0020802,15.863,0.0030048,0.0051387,5.0956e-09,0.24,0.6,0
0.012211,0.010551,0.0058638,0.00095106,0.0020445,0.0015574,0,0,0.049652,-0.014214,0,0.040494,0,0,0,0.0063164,0.00049854,0.0020445,16.187,0.0029531,0.0052196,5.2013e-09,0.26,0.6,0
0.013204,0.011744,0.0058226,0.00085916,0.0020045,0.0016173,0,0,0.049635,-0.01489,0,0.042049,0,0,0,0.0063035,0.00037829,0.0020045,16.543,0.0028954,0.0053027,5.2983e-09,0.28,0.6,0
0.014197,0.012992,0.0057746,0.00075657,0.0019593,0.0016817,0,0,0.049598,-0.015636,0,0.043724,0,0,0,0.0062864,0.00024469,0.0019593,16.912,0.0028302,0.0053931,5.3935e-09,0.3,0.6,0
0.015188,0.014292,0.0057217,0.00063718,0.0019077,0.0017498,0,0,0.049582,-0.016516,0,0.045494,0,0,0,0.006266,9.2842e-05,0.0019077,17.264,0.0027555,0.0054956,5.4917e-09,0.32,0.6,0
0.01618,0.015643,0.0056661,0.00049472,0.0018482,0.0018187,0,0,0.049632,-0.017596,0,0.047287,0,0,0,0.0062419,-8.1134e-05,0.0018482,17.556,0.0026697,0.0056131,5.5924e-09,0.34,0.6,0
0.017174,0.017039,0.0056093,0.00032412,0.00178,0.0018838,0,0,0.04978,-0.018927,0,0.048978,0,0,0,0.0062122,-0.00027876,0.00178,17.738,0.0025711,0.0057455,5.6864e-09,0.36,0.6,0
0.018171,0.018475,0.0055516,0.00012342,0.0017025,0.0019384,0,0,0.050038,-0.020528,0,0.050397,0,0,0,0.0061729,-0.00049783,0.0017025,17.765,0.0024592,0.0058878,5.755e-09,0.38,0.6,0
0.019175,0.019937,0.0054921,-0.00010443,0.0016163,0.0019754,0,0,0.050385,-0.022369,0,0.051362,0,0,0,0.0061193,-0.00073167,0.0016163,17.611,0.0023347,0.0060305,5.7738e-09,0.4,0.6,0
0.020187,0.021412,0.0054291,-0.00035116,0.0015234,0.0019891,0,0,0.050774,-0.024369,0,0.051717,0,0,0,0.0060478,-0.00096985,0.0015234,17.271,0.0022004,0.006162,5.7208e-09,0.42,0.6,0
0.021206,0.02288,0.0053616,-0.00060456,0.0014271,0.0019752,0,0,0.051149,-0.026412,0,0.051356,0,0,0,0.0059568,-0.0011998,0.0014271,16.757,0.0020614,0.0062707,5.5852e-09,0.44,0.6,0
0.022233,0.024319,0.0052881,-0.00085072,0.0013312,0.0019305,0,0,0.051439,-0.028365,0,0.050193,0,0,0,0.0058455,-0.0014081,0.0013312,16.084,0.0019229,0.0063444,5.3643e-09,0.46,0.6,0
0.023264,0.025703,0.0052047,-0.0010667,0.0012414,0.0018526,0,0,0.051523,-0.030005,0,0.048169,0,0,0,0.0057121,-0.0015741,0.0012414,15.282,0.0017931,0.0063642,5.0617e-09,0.48,0.6,0
0.024293,0.027003,0.0051119,-0.0012065,0.0011716,0.0017492,0,0,0.051223,-0.030915,0,0.045478,0,0,0,0.0055646,-0.0016592,0.0011716,14.473,0.0016923,0.0063047,4.7114e-09,0.5,0.6,0
0.025313,0.028199,0.0050189,-0.0012236,0.0011386,0.0016474,0,0,0.050444,-0.030708,0,0.042831,0,0,0,0.0054272,-0.001632,0.0011386,13.902,0.0016446,0.0061605,4.3841e-09,0.52,0.6,0
0.026311,0.029284,0.004942,-0.0011205,0.0011465,0.0015824,0,0,0.049342,-0.02947,0,0.041141,0,0,0,0.0053305,-0.0015089,0.0011465,13.794,0.001656,0.0059724,4.1486e-09,0.54,0.6,0
0.027286,0.030267,0.0049021,-0.00094753,0.0011864,0.0015713,0,0,0.048305,-0.027741,0,0.040853,0,0,0,0.0052989,-0.0013443,0.0011864,14.162,0.0017137,0.0058075,4.0477e-09,0.56,0.6,0
0.028243,0.031163,0.0049201,-0.00075341,0.00125,0.0016027,0,0,0.047711,-0.026044,0,0.04167,0,0,0,0.0053448,-0.0011782,0.00125,14.79,0.0018055,0.0057104,4.1016e-09,0.58,0.6,0
0.029195,0.031982,0.0050063,-0.00055568,0.0013352,0.0016492,0,0,0.047724,-0.024581,0,0.042879,0,0,0,0.0054636,-0.001013,0.0013352,15.388,0.0019286,0.0056794,4.3018e-09,0.6,0.6,0
0.030152,0.032732,0.0051516,-0.0003441,0.0014422,0.0016843,0,0,0.048221,-0.023222,0,0.043792,0,0,0,0.0056327,-0.0008252,0.0014422,15.786,0.0020832,0.0056751,4.5977e-09,0.62,0.6,0
0.031124,0.033414,0.0053336,-8.4104e-05,0.0015748,0.0016962,0,0,0.048863,-0.021566,0,0.0441,0,0,0,0.0058264,-0.00057691,0.0015748,16.035,0.0022748,0.0056446,4.9106e-09,0.64,0.6,0
0.032107,0.034038,0.0055325,0.00026509,0.0017393,0.0017,0,0,0.049312,-0.019164,0,0.044201,0,0,0,0.0060384,-0.00024081,0.0017393,16.42,0.0025123,0.0055613,5.1884e-09,0.66,0.6,0
0.033096,0.034625,0.0057358,0.00069419,0.001929,0.0017304,0,0,0.049489,-0.016053,0,0.04499,0,0,0,0.0062775,0.00015249,0.001929,17.232,0.0027863,0.0054593,5.4521e-09,0.68,0.6,0
0.034086,0.035215,0.0059359,0.0011257,0.0021185,0.0018072,0,0,0.049626,-0.012906,0,0.046986,0,0,0,0.0065443,0.00051728,0.0021185,18.446,0.00306,0.005408,5.7815e-09,0.7,0.6,0
0.035081,0.035842,0.0061299,0.0014846,0.0022844,0.0019173,0,0,0.049992,-0.010396,0,0.049849,0,0,0,0.0068232,0.00079133,0.0022844,19.738,0.0032996,0.0054416,6.2323e-09,0.72,0.6,0
0.036086,0.036531,0.0063175,0.001758,0.0024226,0.0020322,0,0,0.050633,-0.0086406,0,0.052838,0,0,0,0.0070945,0.00098101,0.0024226,20.823,0.0034994,0.0055355,6.7774e-09,0.74,0.6,0
0.037106,0.037288,0.0064942,0.0019691,0.002539,0.0021346,0,0,0.051417,-0.0074083,0,0.0555,0,0,0,0.0073437,0.0011196,0.002539,21.64,0.0036674,0.0056499,7.3493e-09,0.76,0.6,0
0.038143,0.038112,0.006652,0.0021359,0.0026364,0.0022203,0,0,0.052204,-0.0065062,0,0.057727,0,0,0,0.0075615,0.0012265,0.0026364,22.24,0.0038081,0.005761,7.8926e-09,0.78,0.6,0
0.039195,0.038999,0.0067876,0.002268,0.0027167,0.0022886,0,0,0.052922,-0.005833,0,0.059503,0,0,0,0.0077444,0.0013112,0.0027167,22.67,0.0039241,0.0058583,8.3747e-09,0.8,0.6,0
0.04026,0.039942,0.0069014,0.002374,0.0027826,0.0023391,0,0,0.053544,-0.0053116,0,0.060817,0,0,0,0.0078929,0.0013825,0.0027826,22.964,0.0040193,0.0059356,8.7738e-09,0.82,0.6,0
0.041336,0.040934,0.0069943,0.0024627,0.0028371,0.0023718,0,0,0.054043,-0.004867,0,0.061667,0,0,0,0.0080087,0.0014483,0.0028371,23.154,0.004098,0.005988,9.0717e-09,0.84,0.6,0
0.042421,0.041967,0.0070669,0.002542,0.0028827,0.002388,0,0,0.054395,-0.0044285,0,0.062087,0,0,0,0.0080941,0.0015149,0.0028827,23.275,0.0041639,0.0060131,9.2581e-09,0.86,0.6,0
0.043512,0.043036,0.0071199,0.0026183,0.0029214,0.0023905,0,0,0.05458,-0.0039415,0,0.062154,0,0,0,0.0081526,0.0015856,0.0029214,23.366,0.0042199,0.0060115,9.3343e-09,0.88,0.6,0
0.044605,0.044133,0.0071542,0.0026952,0.0029548,0.0023839,0,0,0.054592,-0.003375,0,0.061982,0,0,0,0.0081889,0.0016605,0.0029548,23.464,0.0042681,0.0059872,9.315e-09,0.9,0.6,0
0.045696,0.045256,0.0071716,0.0027742,0.0029837,0.0023736,0,0,0.054443,-0.0027244,0,0.061713,0,0,0,0.0082086,0.0017372,0.0029837,23.601,0.0043098,0.0059471,9.2268e-09,0.92,0.6,0
0.046782,0.046402,0.007175,0.0028541,0.0030087,0.0023655,0,0,0.054161,-0.0020101,0,0.061504,0,0,0,0.0082185,0.0018105,0.0030087,23.803,0.0043459,0.0059009,9.1062e-09,0.94,0.6,0
0.047862,0.047574,0.0071679,0.0029316,0.0030298,0.0023665,0,0,0.053795,-0.0012776,0,0.061528,0,0,0,0.0082261,0.0018734,0.0030298,24.089,0.0043764,0.0058607,8.9986e-09,0.96,0.6,0
0.048934,0.048775,0.0071601,0.003003,0.0030489,0.0023727,0,0,0.053445,-0.00059734,0,0.061689,0,0,0,0.0082362,0.0019269,0.0030489,24.393,0.004404,0.0058299,8.9199e-09,0.98,0.6,0
0.049468,0.049383,0.0071579,0.0030368,0.0030584,0.0023753,0,0,0.053293,-0.00028076,0,0.061758,0,0,0,0.008242,0.0019527,0.0030584,24.531,0.0044177,0.0058159,8.8855e-09,1,0.6,0
0.00040926,0.00021702,0.0055021,0.002279,0.0023343,0.00084029,0,0,0.041181,-0.00071922,0,0.021848,0,0,0,0.0057081,0.0020729,0.0023343,13.765,0.0033718,0.0035121,2.1869e-09,0,0.62,0
0.00082361,0.00044959,0.0055115,0.002204,0.0023147,0.00086053,0,0,0.041559,-0.0014384,0,0.022374,0,0,0,0.0057221,0.0019934,0.0023147,13.738,0.0033434,0.0035795,2.2959e-09,0.02,0.62,0
0.0016624,0.00094565,0.0055465,0.0020618,0.0022825,0.00091512,0,0,0.042432,-0.0028688,0,0.023793,0,0,0,0.0057723,0.001836,0.0022825,13.842,0.0032969,0.0037337,2.5508e-09,0.04,0.62,0
0.0025209,0.0015031,0.0055957,0.001929,0.0022574,0.00098273,0,0,0.043398,-0.0042696,0,0.025551,0,0,0,0.0058425,0.0016821,0.0022574,14.086,0.0032607,0.0039052,2.8421e-09,0.06,0.62,0
0.0033983,0.0021212,0.0056406,0.0018002,0.0022322,0.0010482,0,0,0.044309,-0.0056165,0,0.027252,0,0,0,0.0059081,0.0015327,0.0022322,14.307,0.0032244,0.0040714,3.1295e-09,0.08,0.62,0
0.0042932,0.0027988,0.00568,0.001677,0.0022071,0.0011114,0,0,0.045148,-0.0068918,0,0.028897,0,0,0,0.0059679,0.001389,0.0022071,14.516,0.003188,0.00423,3.4074e-09,0.1,0.62,0
0.0052042,0.0035353,0.0057129,0.0015601,0.0021819,0.0011727,0,0,0.045903,-0.0080835,0,0.030489,0,0,0,0.0060212,0.0012518,0.0021819,14.724,0.0031516,0.0043793,3.671e-09,0.12,0.62,0
0.0061294,0.0043295,0.0057385,0.0014501,0.0021566,0.0012322,0,0,0.046565,-0.0091847,0,0.032038,0,0,0,0.0060674,0.0011212,0.0021566,14.94,0.003115,0.0045186,3.9168e-09,0.14,0.62,0
0.0070668,0.0051807,0.0057562,0.0013467,0.0021309,0.0012905,0,0,0.047129,-0.010194,0,0.033554,0,0,0,0.0061062,0.00099674,0.0021309,15.17,0.0030779,0.0046476,4.1425e-09,0.16,0.62,0
0.0080145,0.006088,0.0057656,0.0012496,0.0021045,0.0013483,0,0,0.047593,-0.011114,0,0.035054,0,0,0,0.0061376,0.00087758,0.0021045,15.419,0.0030399,0.0047666,4.3472e-09,0.18,0.62,0
0.0089705,0.0070509,0.0057665,0.0011575,0.0020772,0.0014061,0,0,0.047961,-0.011956,0,0.036559,0,0,0,0.0061617,0.00076221,0.0020772,15.694,0.0030004,0.004877,4.5316e-09,0.2,0.62,0
0.009933,0.0080687,0.005759,0.0010687,0.0020483,0.001465,0,0,0.048239,-0.012735,0,0.03809,0,0,0,0.0061792,0.0006485,0.0020483,15.995,0.0029587,0.0049807,4.6978e-09,0.22,0.62,0
0.0109,0.009141,0.0057437,0.00098086,0.0020174,0.0015258,0,0,0.048443,-0.013475,0,0.039671,0,0,0,0.0061908,0.00053376,0.0020174,16.322,0.002914,0.0050806,4.8496e-09,0.24,0.62,0
0.011871,0.010267,0.0057214,0.00089094,0.0019837,0.0015892,0,0,0.04859,-0.014206,0,0.04132,0,0,0,0.0061976,0.00041474,0.0019837,16.669,0.0028654,0.00518,4.9918e-09,0.26,0.62,0
0.012844,0.011447,0.0056934,0.00079512,0.0019466,0.0016556,0,0,0.048709,-0.014969,0,0.043046,0,0,0,0.0062008,0.00028777,0.0019466,17.026,0.0028117,0.0052829,5.13e-09,0.28,0.62,0
0.013819,0.012678,0.0056615,0.00068897,0.0019051,0.0017247,0,0,0.048833,-0.01581,0,0.044842,0,0,0,0.0062014,0.00014911,0.0019051,17.37,0.0027519,0.0053933,5.2692e-09,0.3,0.62,0
0.014797,0.01396,0.0056277,0.00056777,0.0018586,0.0017951,0,0,0.048998,-0.016781,0,0.046673,0,0,0,0.0062,-4.5534e-06,0.0018586,17.674,0.0026847,0.0055146,5.4119e-09,0.32,0.62,0
0.015779,0.015288,0.0055939,0.00042708,0.0018063,0.0018642,0,0,0.049239,-0.01793,0,0.048469,0,0,0,0.0061964,-0.00017539,0.0018063,17.904,0.0026091,0.0056483,5.5566e-09,0.34,0.62,0
0.016767,0.016658,0.0055619,0.0002638,0.0017477,0.0019279,0,0,0.049585,-0.019291,0,0.050125,0,0,0,0.0061892,-0.0003635,0.0017477,18.021,0.0025245,0.0057935,5.6959e-09,0.36,0.62,0
0.017762,0.018061,0.0055326,7.7264e-05,0.001683,0.001981,0,0,0.050045,-0.020874,0,0.051507,0,0,0,0.0061761,-0.00056625,0.001683,17.996,0.0024309,0.0059461,5.8166e-09,0.38,0.62,0
0.018768,0.019487,0.0055061,-0.00012977,0.0016129,0.002018,0,0,0.050612,-0.022655,0,0.052467,0,0,0,0.0061543,-0.00077791,0.0016129,17.807,0.0023298,0.0060992,5.9024e-09,0.4,0.62,0
0.019787,0.020923,0.0054822,-0.00035084,0.0015394,0.0020334,0,0,0.051257,-0.024573,0,0.05287,0,0,0,0.0061214,-0.00098996,0.0015394,17.447,0.0022236,0.0062437,5.9377e-09,0.42,0.62,0
0.020819,0.022351,0.0054599,-0.00057603,0.0014652,0.0020228,0,0,0.051932,-0.026535,0,0.052593,0,0,0,0.0060755,-0.0011916,0.0014652,16.922,0.0021163,0.0063691,5.9105e-09,0.44,0.62,0
0.021864,0.023751,0.0054368,-0.00079106,0.0013937,0.0019825,0,0,0.05256,-0.028402,0,0.051544,0,0,0,0.006015,-0.0013692,0.0013937,16.246,0.0020132,0.0064622,5.8137e-09,0.46,0.62,0
0.022921,0.025102,0.0054101,-0.00097387,0.0013309,0.001912,0,0,0.05303,-0.029962,0,0.049711,0,0,0,0.0059397,-0.0015035,0.0013309,15.462,0.0019224,0.0065069,5.6492e-09,0.48,0.62,0
0.023985,0.026384,0.0053785,-0.0010947,0.0012851,0.0018186,0,0,0.053214,-0.030938,0,0.047284,0,0,0,0.0058551,-0.0015713,0.0012851,14.662,0.0018563,0.0064884,5.4387e-09,0.5,0.62,0
0.02505,0.027579,0.0053456,-0.0011284,0.0012651,0.0017198,0,0,0.053046,-0.031117,0,0.044714,0,0,0,0.0057745,-0.0015573,0.0012651,13.986,0.0018274,0.0064054,5.2239e-09,0.52,0.62,0
0.026107,0.02868,0.0053202,-0.0010729,0.0012742,0.0016365,0,0,0.052598,-0.030512,0,0.042549,0,0,0,0.005715,-0.0014677,0.0012742,13.557,0.0018405,0.0062782,5.0507e-09,0.54,0.62,0
0.027154,0.029691,0.0053145,-0.00094911,0.0013096,0.0015818,0,0,0.052064,-0.029364,0,0.041127,0,0,0,0.0056918,-0.0013264,0.0013096,13.411,0.0018917,0.0061405,4.953e-09,0.56,0.62,0
0.02819,0.030617,0.0053402,-0.00078281,0.0013672,0.0015542,0,0,0.051649,-0.02795,0,0.040408,0,0,0,0.0057132,-0.0011558,0.0013672,13.478,0.0019749,0.0060184,4.9457e-09,0.58,0.62,0
0.02922,0.031467,0.0054024,-0.00058734,0.0014445,0.0015418,0,0,0.051452,-0.026414,0,0.040088,0,0,0,0.0057779,-0.00096279,0.0014445,13.643,0.0020865,0.0059168,5.0193e-09,0.6,0.62,0
0.030248,0.032249,0.0054964,-0.00035832,0.0015414,0.0015328,0,0,0.051415,-0.024697,0,0.039852,0,0,0,0.0058757,-0.00073764,0.0015414,13.837,0.0022265,0.0058192,5.1392e-09,0.62,0.62,0
0.031276,0.032971,0.0056111,-7.9627e-05,0.0016595,0.0015249,0,0,0.051372,-0.022608,0,0.039647,0,0,0,0.0059964,-0.00046488,0.0016595,14.108,0.002397,0.0057046,5.2615e-09,0.64,0.62,0
0.032303,0.033646,0.005736,0.00025935,0.0017986,0.0015297,0,0,0.051186,-0.02001,0,0.039773,0,0,0,0.0061368,-0.00014153,0.0017986,14.61,0.002598,0.0055687,5.3622e-09,0.66,0.62,0
0.033324,0.034295,0.0058651,0.00064268,0.0019523,0.0015653,0,0,0.050866,-0.017025,0,0.040697,0,0,0,0.0063015,0.00020629,0.0019523,15.488,0.00282,0.0054375,5.4633e-09,0.68,0.62,0
0.034337,0.034946,0.0059968,0.0010264,0.002107,0.0016404,0,0,0.050568,-0.014047,0,0.042651,0,0,0,0.0064933,0.00052992,0.002107,16.724,0.0030434,0.0053527,5.6236e-09,0.7,0.62,0
0.035346,0.035625,0.0061319,0.001367,0.0022497,0.0017468,0,0,0.050469,-0.011474,0,0.045418,0,0,0,0.0067076,0.00079135,0.0022497,18.119,0.0032495,0.005339,5.8933e-09,0.72,0.62,0
0.036356,0.036352,0.0062702,0.0016471,0.0023752,0.001866,0,0,0.050636,-0.0094656,0,0.048515,0,0,0,0.0069325,0.00098476,0.0023752,19.438,0.0034308,0.005389,6.2755e-09,0.74,0.62,0
0.037372,0.037136,0.0064082,0.0018716,0.0024839,0.0019815,0,0,0.051015,-0.0079599,0,0.051519,0,0,0,0.007154,0.0011258,0.0024839,20.549,0.0035879,0.0054769,6.7304e-09,0.76,0.62,0
0.038397,0.037981,0.0065396,0.0020528,0.0025777,0.0020844,0,0,0.051504,-0.0068238,0,0.054194,0,0,0,0.0073598,0.0012326,0.0025777,21.43,0.0037234,0.0055777,7.2063e-09,0.78,0.62,0
0.039432,0.038883,0.006659,0.0022009,0.002658,0.002171,0,0,0.052013,-0.0059414,0,0.056446,0,0,0,0.0075423,0.0013176,0.002658,22.109,0.0038393,0.0056745,7.6595e-09,0.8,0.62,0
0.040477,0.039838,0.0067631,0.0023244,0.0027263,0.00224,0,0,0.052479,-0.0052244,0,0.058241,0,0,0,0.0076975,0.00139,0.0027263,22.624,0.0039379,0.0057569,8.0573e-09,0.82,0.62,0
0.041531,0.040841,0.0068505,0.0024304,0.0027843,0.0022915,0,0,0.052861,-0.0046003,0,0.05958,0,0,0,0.0078243,0.0014567,0.0027843,23.014,0.0040217,0.0058186,8.3769e-09,0.84,0.62,0
0.042592,0.041885,0.0069205,0.0025253,0.0028337,0.0023266,0,0,0.053128,-0.00401,0,0.060492,0,0,0,0.0079234,0.0015224,0.0028337,23.316,0.0040931,0.0058565,8.6049e-09,0.86,0.62,0
0.043656,0.042964,0.006973,0.0026136,0.002876,0.0023478,0,0,0.053262,-0.0034113,0,0.061042,0,0,0,0.007997,0.0015896,0.002876,23.564,0.0041542,0.0058709,8.7392e-09,0.88,0.62,0
0.044722,0.044073,0.007009,0.0026981,0.0029121,0.0023585,0,0,0.053259,-0.0027827,0,0.06132,0,0,0,0.0080487,0.0016584,0.0029121,23.79,0.0042064,0.0058649,8.7894e-09,0.9,0.62,0
0.045786,0.045208,0.00703,0.0027792,0.0029428,0.0023632,0,0,0.053134,-0.0021259,0,0.061443,0,0,0,0.0080831,0.0017261,0.0029428,24.02,0.0042507,0.0058445,8.7767e-09,0.92,0.62,0
0.046847,0.046369,0.0070387,0.0028555,0.0029682,0.0023671,0,0,0.052916,-0.0014662,0,0.061544,0,0,0,0.0081061,0.0017881,0.0029682,24.271,0.0042875,0.0058184,8.732e-09,0.94,0.62,0
0.047903,0.047554,0.0070387,0.0029229,0.0029885,0.0023758,0,0,0.052653,-0.00085262,0,0.061772,0,0,0,0.0081242,0.0018374,0.0029885,24.553,0.0043167,0.0057976,8.6949e-09,0.96,0.62,0
0.048953,0.048766,0.0070361,0.002976,0.0030036,0.0023861,0,0,0.052422,-0.00035885,0,0.062038,0,0,0,0.008139,0.0018731,0.0030036,24.806,0.0043386,0.0057841,8.6737e-09,0.98,0.62,0
0.049477,0.049379,0.0070352,0.0029983,0.00301,0.00239,0,0,0.052327,-0.00015277,0,0.062141,0,0,0,0.0081451,0.0018883,0.00301,24.91,0.0043478,0.0057782,8.6638e-09,1,0.62,0
0.00039674,0.00020273,0.0053335,0.0022071,0.0022622,0.00078577,0,0,0.039927,-0.00071575,0,0.02043,0,0,0,0.0055201,0.0020206,0.0022622,13.339,0.0032676,0.0033854,1.9618e-09,0,0.64,0
0.00079855,0.00042102,0.005343,0.0021327,0.0022427,0.00080677,0,0,0.040304,-0.0014303,0,0.020976,0,0,0,0.0055345,0.0019412,0.0022427,13.334,0.0032395,0.003453,2.0642e-09,0.02,0.64,0
0.0016121,0.00088867,0.0053779,0.0019917,0.0022109,0.00086356,0,0,0.041171,-0.0028495,0,0.022452,0,0,0,0.0055855,0.001784,0.0022109,13.495,0.0031935,0.0036077,2.3037e-09,0.04,0.64,0
0.0024454,0.0014183,0.005427,0.0018603,0.0021862,0.00093478,0,0,0.042131,-0.0042364,0,0.024304,0,0,0,0.0056573,0.0016301,0.0021862,13.818,0.0031579,0.0037805,2.579e-09,0.06,0.64,0
0.0032974,0.0020097,0.0054722,0.0017333,0.0021616,0.0010051,0,0,0.043037,-0.0055686,0,0.026133,0,0,0,0.0057253,0.0014801,0.0021616,14.122,0.0031224,0.0039492,2.8535e-09,0.08,0.64,0
0.0041669,0.002662,0.0055121,0.0016118,0.0021372,0.0010743,0,0,0.043875,-0.0068304,0,0.027931,0,0,0,0.0057885,0.0013354,0.0021372,14.416,0.003087,0.0041117,3.122e-09,0.1,0.64,0
0.0050524,0.0033748,0.0055462,0.0014965,0.0021128,0.0011422,0,0,0.044633,-0.0080115,0,0.029698,0,0,0,0.0058462,0.0011965,0.0021128,14.707,0.0030518,0.0042663,3.3804e-09,0.12,0.64,0
0.0059522,0.0041471,0.0055736,0.0013878,0.0020884,0.0012091,0,0,0.045307,-0.0091076,0,0.031436,0,0,0,0.0058978,0.0010636,0.0020884,15.003,0.0030166,0.0044122,3.6256e-09,0.14,0.64,0
0.0068646,0.0049781,0.005594,0.0012855,0.0020638,0.0012751,0,0,0.045893,-0.010119,0,0.033153,0,0,0,0.0059432,0.0009363,0.0020638,15.306,0.0029811,0.0045494,3.8558e-09,0.16,0.64,0
0.0077879,0.005867,0.0056074,0.0011886,0.0020388,0.0013407,0,0,0.046392,-0.011052,0,0.034857,0,0,0,0.0059825,0.00081359,0.0020388,15.621,0.002945,0.0046784,4.0705e-09,0.18,0.64,0
0.0087203,0.0068128,0.0056138,0.0010962,0.002013,0.0014063,0,0,0.046811,-0.011919,0,0.036564,0,0,0,0.0060159,0.00069404,0.002013,15.949,0.0029077,0.0048005,4.2704e-09,0.2,0.64,0
0.0096603,0.0078146,0.0056137,0.0010063,0.001986,0.0014726,0,0,0.04716,-0.012736,0,0.038287,0,0,0,0.0060442,0.00057569,0.001986,16.291,0.0028686,0.0049177,4.4577e-09,0.22,0.64,0
0.010607,0.0088715,0.0056077,0.00091668,0.0019573,0.00154,0,0,0.047455,-0.013528,0,0.04004,0,0,0,0.0060682,0.00045614,0.0019573,16.64,0.0028272,0.0050325,4.6358e-09,0.24,0.64,0
0.011559,0.0099824,0.0055969,0.00082453,0.0019264,0.0016089,0,0,0.047717,-0.014325,0,0.04183,0,0,0,0.0060888,0.00033265,0.0019264,16.991,0.0027826,0.0051479,4.8086e-09,0.26,0.64,0
0.012515,0.011146,0.0055829,0.0007265,0.0018928,0.0016791,0,0,0.047971,-0.015162,0,0.043657,0,0,0,0.0061071,0.00020233,0.0018928,17.328,0.0027341,0.0052673,4.9805e-09,0.28,0.64,0
0.013477,0.012359,0.0055674,0.00061896,0.0018559,0.0017501,0,0,0.04825,-0.01608,0,0.045503,0,0,0,0.0061239,6.2453e-05,0.0018559,17.633,0.0026808,0.0053934,5.1547e-09,0.3,0.64,0
0.014445,0.013621,0.0055523,0.00049828,0.0018152,0.0018203,0,0,0.048583,-0.01712,0,0.047327,0,0,0,0.0061397,-8.9126e-05,0.0018152,17.88,0.0026219,0.0055286,5.3327e-09,0.32,0.64,0
0.015421,0.014925,0.0055395,0.00036137,0.0017703,0.0018871,0,0,0.049,-0.018316,0,0.049065,0,0,0,0.0061543,-0.0002534,0.0017703,18.042,0.0025571,0.0056736,5.5127e-09,0.34,0.64,0
0.016405,0.016268,0.0055306,0.00020638,0.0017211,0.0019471,0,0,0.049524,-0.019691,0,0.050624,0,0,0,0.0061667,-0.00042968,0.0017211,18.091,0.002486,0.0058269,5.6889e-09,0.36,0.64,0
0.017402,0.01764,0.0055268,3.3441e-05,0.0016681,0.0019958,0,0,0.050163,-0.02125,0,0.051891,0,0,0,0.0061753,-0.00061513,0.0016681,18.004,0.0024094,0.0059851,5.8515e-09,0.38,0.64,0
0.018412,0.019031,0.0055283,-0.0001547,0.0016121,0.0020286,0,0,0.050911,-0.022968,0,0.052743,0,0,0,0.0061783,-0.00080464,0.0016121,17.766,0.0023286,0.0061423,5.9885e-09,0.4,0.64,0
0.019438,0.020429,0.0055351,-0.00035231,0.0015548,0.0020407,0,0,0.051743,-0.024793,0,0.053058,0,0,0,0.0061735,-0.00099077,0.0015548,17.372,0.0022459,0.0062906,6.0875e-09,0.42,0.64,0
0.020482,0.021819,0.0055457,-0.00055029,0.0014986,0.0020281,0,0,0.052612,-0.026636,0,0.052731,0,0,0,0.0061593,-0.0011639,0.0014986,16.826,0.0021647,0.0064204,6.1376e-09,0.44,0.64,0
0.021543,0.023183,0.0055579,-0.00073544,0.0014467,0.0019883,0,0,0.053445,-0.028368,0,0.051695,0,0,0,0.0061341,-0.0013116,0.0014467,16.149,0.0020897,0.00652,6.1314e-09,0.46,0.64,0
0.022619,0.024504,0.0055688,-0.00088996,0.0014036,0.0019219,0,0,0.054147,-0.029817,0,0.049968,0,0,0,0.0060981,-0.0014193,0.0014036,15.381,0.0020275,0.0065773,6.0696e-09,0.48,0.64,0
0.023708,0.025766,0.0055767,-0.00099376,0.0013749,0.0018349,0,0,0.054623,-0.030792,0,0.047708,0,0,0,0.0060551,-0.0014722,0.0013749,14.592,0.0019859,0.006583,5.965e-09,0.5,0.64,0
0.024804,0.026955,0.0055826,-0.0010312,0.0013654,0.0017391,0,0,0.054823,-0.031156,0,0.045215,0,0,0,0.0060125,-0.0014612,0.0013654,13.867,0.0019723,0.0065362,5.842e-09,0.52,0.64,0
0.025901,0.028064,0.0055906,-0.00099836,0.0013777,0.0016478,0,0,0.054768,-0.030888,0,0.042844,0,0,0,0.0059801,-0.0013879,0.0013777,13.285,0.00199,0.0064468,5.7283e-09,0.54,0.64,0
0.026995,0.029093,0.0056072,-0.00090329,0.0014112,0.0015712,0,0,0.054548,-0.030088,0,0.040851,0,0,0,0.0059669,-0.001263,0.0014112,12.884,0.0020384,0.0063317,5.6461e-09,0.56,0.64,0
0.028083,0.030045,0.0056384,-0.00075839,0.001464,0.0015121,0,0,0.054267,-0.028891,0,0.039314,0,0,0,0.0059783,-0.0010983,0.001464,12.657,0.0021147,0.006206,5.6047e-09,0.58,0.64,0
0.029166,0.030926,0.0056869,-0.00057175,0.0015345,0.001468,0,0,0.053981,-0.027382,0,0.038167,0,0,0,0.0060148,-0.0008997,0.0015345,12.574,0.0022166,0.0060752,5.5985e-09,0.6,0.64,0
0.030243,0.031744,0.0057508,-0.00034371,0.0016221,0.0014361,0,0,0.053673,-0.025556,0,0.037338,0,0,0,0.0060732,-0.00066609,0.0016221,12.626,0.0023431,0.0059361,5.6083e-09,0.62,0.64,0
0.031313,0.03251,0.0058254,-7.0735e-05,0.0017264,0.0014183,0,0,0.053287,-0.023363,0,0.036876,0,0,0,0.0061499,-0.00039529,0.0017264,12.858,0.0024937,0.0057845,5.6132e-09,0.64,0.64,0
0.032374,0.033237,0.005906,0.00024545,0.0018454,0.0014225,0,0,0.052787,-0.0208,0,0.036984,0,0,0,0.0062448,-9.3374e-05,0.0018454,13.359,0.0026656,0.0056259,5.6073e-09,0.66,0.64,0
0.033424,0.033944,0.0059907,0.00058951,0.0019741,0.0014577,0,0,0.052216,-0.017999,0,0.0379,0,0,0,0.0063611,0.00021909,0.0019741,14.201,0.0028514,0.0054803,5.6117e-09,0.68,0.64,0
0.034463,0.034653,0.0060801,0.0009341,0.0021043,0.0015274,0,0,0.051686,-0.015212,0,0.039713,0,0,0,0.0065022,0.000512,0.0021043,15.366,0.0030395,0.0053746,5.6688e-09,0.7,0.64,0
0.035492,0.035383,0.0061755,0.0012521,0.0022283,0.0016257,0,0,0.051314,-0.012691,0,0.042269,0,0,0,0.0066672,0.00076043,0.0022283,16.729,0.0032186,0.0053271,5.8181e-09,0.72,0.64,0
0.036515,0.036152,0.0062773,0.0015282,0.0023416,0.0017401,0,0,0.051163,-0.010575,0,0.045243,0,0,0,0.0068497,0.00095574,0.0023416,18.114,0.0033824,0.0053379,6.0722e-09,0.74,0.64,0
0.037538,0.036969,0.0063829,0.0017605,0.002443,0.0018575,0,0,0.051219,-0.0088731,0,0.048295,0,0,0,0.0070393,0.001104,0.002443,19.384,0.0035288,0.0053921,6.4121e-09,0.76,0.64,0
0.038564,0.037839,0.0064879,0.0019545,0.0025327,0.0019683,0,0,0.051417,-0.0075164,0,0.051175,0,0,0,0.007225,0.0012174,0.0025327,20.472,0.0036584,0.0054699,6.8005e-09,0.78,0.64,0
0.039595,0.038761,0.0065872,0.002118,0.0026116,0.0020667,0,0,0.051683,-0.0064161,0,0.053734,0,0,0,0.0073976,0.0013076,0.0026116,21.37,0.0037723,0.0055541,7.197e-09,0.8,0.64,0
0.040631,0.039733,0.0066767,0.002258,0.0026804,0.00215,0,0,0.051952,-0.0054914,0,0.055899,0,0,0,0.0075509,0.0013838,0.0026804,22.101,0.0038717,0.0056319,7.5666e-09,0.82,0.64,0
0.041673,0.04075,0.0067537,0.0023806,0.0027403,0.0022171,0,0,0.052174,-0.0046759,0,0.057646,0,0,0,0.0076816,0.0014528,0.0027403,22.693,0.0039582,0.0056953,7.8824e-09,0.84,0.64,0
0.042718,0.041807,0.0068165,0.0024907,0.0027922,0.0022686,0,0,0.052317,-0.0039187,0,0.058984,0,0,0,0.0077883,0.0015189,0.0027922,23.181,0.0040332,0.0057397,8.1275e-09,0.86,0.64,0
0.043766,0.042899,0.0068647,0.0025918,0.0028369,0.002306,0,0,0.05236,-0.0031868,0,0.059957,0,0,0,0.007872,0.0015845,0.0028369,23.593,0.0040978,0.0057643,8.2955e-09,0.88,0.64,0
0.044813,0.044022,0.0068985,0.0026855,0.0028752,0.002332,0,0,0.052303,-0.0024666,0,0.060631,0,0,0,0.0079347,0.0016493,0.0028752,23.955,0.0041531,0.0057709,8.391e-09,0.9,0.64,0
0.045858,0.045171,0.0069196,0.0027714,0.0029073,0.0023499,0,0,0.05216,-0.0017663,0,0.061098,0,0,0,0.00798,0.0017111,0.0029073,24.286,0.0041994,0.0057646,8.4296e-09,0.92,0.64,0
0.046899,0.046344,0.0069303,0.0028475,0.0029333,0.002364,0,0,0.05196,-0.0011157,0,0.061464,0,0,0,0.0080125,0.0017653,0.0029333,24.596,0.004237,0.0057528,8.4364e-09,0.94,0.64,0
0.047936,0.04754,0.0069341,0.0029094,0.0029531,0.0023789,0,0,0.051753,-0.00056699,0,0.06185,0,0,0,0.0080377,0.0018058,0.0029531,24.887,0.0042655,0.0057449,8.4446e-09,0.96,0.64,0
0.048969,0.04876,0.0069345,0.0029505,0.0029655,0.0023918,0,0,0.051597,-0.0001949,0,0.062188,0,0,0,0.0080553,0.0018297,0.0029655,25.106,0.0042835,0.0057426,8.4587e-09,0.98,0.64,0
0.049485,0.049377,0.0069343,0.0029648,0.0029697,0.0023966,0,0,0.051539,-6.3816e-05,0,0.062312,0,0,0,0.0080614,0.0018378,0.0029697,25.186,0.0042896,0.0057419,8.4637e-09,1,0.64,0
0.00038443,0.00018839,0.0051677,0.0021352,0.0021909,0.00073106,0,0,0.038699,-0.00072335,0,0.019007,0,0,0,0.0053349,0.001968,0.0021909,12.865,0.0031646,0.0032615,1.7567e-09,0,0.66,0
0.00077397,0.00039238,0.0051773,0.0020602,0.0021713,0.00075279,0,0,0.039078,-0.0014433,0,0.019572,0,0,0,0.0053497,0.0018878,0.0021713,12.88,0.0031362,0.0033299,1.8537e-09,0.02,0.66,0
0.0015631,0.00083167,0.0052127,0.0019186,0.0021394,0.00081173,0,0,0.039953,-0.0028699,0,0.021105,0,0,0,0.005402,0.0017293,0.0021394,13.098,0.0030902,0.0034865,2.0806e-09,0.04,0.66,0
0.0023721,0.0013337,0.0052627,0.0017875,0.002115,0.00088642,0,0,0.040919,-0.0042583,0,0.023047,0,0,0,0.0054759,0.0015743,0.002115,13.497,0.0030551,0.0036618,2.3425e-09,0.06,0.66,0
0.0031999,0.0018984,0.0053088,0.0016611,0.002091,0.00096132,0,0,0.041832,-0.0055888,0,0.024994,0,0,0,0.0055468,0.0014231,0.002091,13.882,0.0030203,0.0038341,2.6059e-09,0.08,0.66,0
0.0040454,0.0025256,0.0053503,0.0015405,0.0020672,0.0010359,0,0,0.04268,-0.0068478,0,0.026935,0,0,0,0.0056139,0.0012769,0.0020672,14.258,0.002986,0.0040012,2.8663e-09,0.1,0.66,0
0.0049071,0.0032148,0.0053864,0.0014263,0.0020438,0.00111,0,0,0.043453,-0.0080276,0,0.02886,0,0,0,0.0056764,0.0011363,0.0020438,14.628,0.0029521,0.0041615,3.1202e-09,0.12,0.66,0
0.0057835,0.0039652,0.0054166,0.0013186,0.0020205,0.0011833,0,0,0.044149,-0.0091259,0,0.030766,0,0,0,0.0057338,0.0010013,0.0020205,14.995,0.0029186,0.0043144,3.3649e-09,0.14,0.66,0
0.006673,0.0047759,0.0054409,0.0012169,0.0019973,0.0012559,0,0,0.044766,-0.010146,0,0.032654,0,0,0,0.0057862,0.00087159,0.0019973,15.363,0.0028851,0.0044599,3.5988e-09,0.16,0.66,0
0.0075742,0.0056459,0.0054593,0.0011205,0.0019739,0.001328,0,0,0.04531,-0.011095,0,0.034529,0,0,0,0.0058336,0.00074618,0.0019739,15.731,0.0028513,0.0045984,3.8218e-09,0.18,0.66,0
0.0084854,0.0065742,0.0054722,0.001028,0.0019501,0.0013998,0,0,0.045788,-0.011987,0,0.036396,0,0,0,0.0058765,0.00062371,0.0019501,16.1,0.0028168,0.0047314,4.0346e-09,0.2,0.66,0
0.0094057,0.0075593,0.0054802,0.00093765,0.0019254,0.0014717,0,0,0.046213,-0.01284,0,0.038263,0,0,0,0.0059154,0.00050243,0.0019254,16.466,0.0027811,0.0048605,4.2391e-09,0.22,0.66,0
0.010334,0.0085999,0.0054842,0.00084728,0.0018994,0.0015436,0,0,0.046602,-0.013678,0,0.040134,0,0,0,0.0059512,0.00038029,0.0018994,16.823,0.0027436,0.0049881,4.4381e-09,0.24,0.66,0
0.01127,0.0096941,0.0054854,0.00075429,0.0018719,0.0016158,0,0,0.046975,-0.014529,0,0.04201,0,0,0,0.0059846,0.00025504,0.0018719,17.163,0.0027039,0.0051167,4.6348e-09,0.26,0.66,0
0.012213,0.01084,0.0054853,0.00065583,0.0018423,0.0016876,0,0,0.047358,-0.015425,0,0.043878,0,0,0,0.0060166,0.00012446,0.0018423,17.471,0.0026611,0.0052487,4.8324e-09,0.28,0.66,0
0.013164,0.012035,0.0054856,0.00054894,0.0018104,0.0017584,0,0,0.047778,-0.016398,0,0.045717,0,0,0,0.0060479,-1.3371e-05,0.0018104,17.729,0.002615,0.0053863,5.0331e-09,0.3,0.66,0
0.014124,0.013275,0.005488,0.00043087,0.0017757,0.0018263,0,0,0.048261,-0.017482,0,0.047484,0,0,0,0.0060786,-0.00015972,0.0017757,17.917,0.0025649,0.0055309,5.2376e-09,0.32,0.66,0
0.015095,0.014555,0.0054944,0.0002995,0.0017382,0.0018891,0,0,0.048831,-0.018703,0,0.049117,0,0,0,0.0061087,-0.00031483,0.0017382,18.013,0.0025107,0.0056825,5.444e-09,0.34,0.66,0
0.016077,0.01587,0.005506,0.00015385,0.0016979,0.0019436,0,0,0.049504,-0.020073,0,0.050535,0,0,0,0.0061374,-0.00047755,0.0016979,17.997,0.0024526,0.0058396,5.6476e-09,0.36,0.66,0
0.017075,0.017211,0.0055238,-5.3921e-06,0.0016555,0.0019862,0,0,0.050288,-0.021592,0,0.051642,0,0,0,0.0061634,-0.00064503,0.0016555,17.851,0.0023913,0.0059989,5.8411e-09,0.38,0.66,0
0.018089,0.018569,0.0055481,-0.00017538,0.0016118,0.0020129,0,0,0.051172,-0.023234,0,0.052334,0,0,0,0.0061853,-0.00081259,0.0016118,17.565,0.0023282,0.006155,6.0149e-09,0.4,0.66,0
0.019122,0.019931,0.0055784,-0.00035075,0.0015683,0.0020197,0,0,0.052132,-0.024948,0,0.052512,0,0,0,0.0062014,-0.00097372,0.0015683,17.138,0.0022653,0.0063013,6.1591e-09,0.42,0.66,0
0.020174,0.021285,0.0056133,-0.00052324,0.001527,0.0020036,0,0,0.053121,-0.026653,0,0.052093,0,0,0,0.00621,-0.00112,0.001527,16.578,0.0022057,0.0064292,6.2643e-09,0.44,0.66,0
0.021246,0.022616,0.0056503,-0.00068157,0.0014906,0.001963,0,0,0.054076,-0.028238,0,0.051037,0,0,0,0.0062101,-0.0012414,0.0014906,15.905,0.0021531,0.0065294,6.3242e-09,0.46,0.66,0
0.022337,0.02391,0.0056869,-0.00081191,0.0014625,0.0018991,0,0,0.054917,-0.029567,0,0.049377,0,0,0,0.0062019,-0.001327,0.0014625,15.154,0.0021125,0.0065928,6.3379e-09,0.48,0.66,0
0.023443,0.025152,0.005721,-0.00089999,0.0014463,0.0018168,0,0,0.055571,-0.030502,0,0.047238,0,0,0,0.0061876,-0.0013665,0.0014463,14.379,0.0020891,0.0066128,6.3121e-09,0.5,0.66,0
0.02456,0.026333,0.0057524,-0.00093482,0.0014453,0.0017244,0,0,0.055992,-0.030941,0,0.044834,0,0,0,0.0061715,-0.0013539,0.0014453,13.639,0.0020876,0.0065881,6.2602e-09,0.52,0.66,0
0.025683,0.027445,0.0057824,-0.00091189,0.0014611,0.0016313,0,0,0.056176,-0.03085,0,0.042415,0,0,0,0.0061593,-0.0012888,0.0014611,12.989,0.0021105,0.0065235,6.1978e-09,0.54,0.66,0
0.026807,0.028487,0.005814,-0.00083339,0.0014942,0.0015457,0,0,0.056158,-0.030259,0,0.040189,0,0,0,0.0061563,-0.0011756,0.0014942,12.468,0.0021583,0.0064274,6.1377e-09,0.56,0.66,0
0.027929,0.029461,0.0058502,-0.00070489,0.0015436,0.0014725,0,0,0.055986,-0.02923,0,0.038285,0,0,0,0.0061661,-0.0010208,0.0015436,12.096,0.0022296,0.0063088,6.0858e-09,0.58,0.66,0
0.029046,0.030372,0.0058926,-0.00053136,0.0016084,0.0014138,0,0,0.055695,-0.027816,0,0.036759,0,0,0,0.0061903,-0.00082912,0.0016084,11.88,0.0023232,0.0061731,6.0397e-09,0.6,0.66,0
0.030157,0.031227,0.0059407,-0.00031557,0.0016876,0.0013715,0,0,0.055291,-0.026041,0,0.035658,0,0,0,0.0062286,-0.00060344,0.0016876,11.841,0.0024376,0.0060231,5.9912e-09,0.62,0.66,0
0.031258,0.032037,0.0059932,-5.994e-05,0.00178,0.001349,0,0,0.054772,-0.023919,0,0.035074,0,0,0,0.0062808,-0.00034755,0.00178,12.021,0.0025711,0.0058622,5.9333e-09,0.64,0.66,0
0.032348,0.032814,0.0060488,0.00022924,0.0018834,0.0013518,0,0,0.05415,-0.021504,0,0.035146,0,0,0,0.0063484,-7.0331e-05,0.0018834,12.473,0.0027205,0.0056993,5.8697e-09,0.66,0.66,0
0.033424,0.033575,0.0061076,0.00053877,0.0019939,0.0013845,0,0,0.053478,-0.018917,0,0.035997,0,0,0,0.0064343,0.00021207,0.0019939,13.239,0.0028801,0.0055507,5.8202e-09,0.68,0.66,0
0.034487,0.034337,0.006171,0.00085008,0.0021063,0.0014482,0,0,0.052841,-0.016331,0,0.037654,0,0,0,0.0065418,0.0004793,0.0021063,14.301,0.0030425,0.0054353,5.8165e-09,0.7,0.66,0
0.035538,0.035117,0.0062405,0.001145,0.0022156,0.0015382,0,0,0.052323,-0.013919,0,0.039994,0,0,0,0.0066715,0.00071397,0.0022156,15.575,0.0032004,0.005367,5.8893e-09,0.72,0.66,0
0.03658,0.035929,0.0063165,0.0014113,0.0023184,0.0016456,0,0,0.051976,-0.011791,0,0.042786,0,0,0,0.0068202,0.00090761,0.0023184,16.936,0.0033487,0.0053489,6.053e-09,0.74,0.66,0
0.037617,0.036781,0.0063975,0.0016449,0.0024127,0.0017603,0,0,0.051802,-0.0099811,0,0.045768,0,0,0,0.006981,0.0010614,0.0024127,18.264,0.003485,0.0053731,6.3004e-09,0.76,0.66,0
0.038652,0.03768,0.0064801,0.0018475,0.0024983,0.0018735,0,0,0.051764,-0.0084606,0,0.04871,0,0,0,0.007145,0.0011825,0.0024983,19.477,0.0036086,0.0054257,6.6074e-09,0.78,0.66,0
0.039687,0.038626,0.0065604,0.0020234,0.0025751,0.0019788,0,0,0.051808,-0.0071726,0,0.051449,0,0,0,0.0073037,0.00128,0.0025751,20.541,0.0037196,0.0054919,6.9416e-09,0.8,0.66,0
0.040724,0.039618,0.0066344,0.002178,0.0026437,0.0020723,0,0,0.051879,-0.0060547,0,0.053881,0,0,0,0.0074502,0.0013621,0.0026437,21.455,0.0038187,0.0055593,7.271e-09,0.82,0.66,0
0.041763,0.040654,0.0066991,0.0023159,0.0027045,0.002152,0,0,0.05193,-0.0050523,0,0.055953,0,0,0,0.0075798,0.0014352,0.0027045,22.234,0.0039065,0.0056186,7.5683e-09,0.84,0.66,0
0.042801,0.041728,0.0067525,0.0024408,0.002758,0.0022173,0,0,0.051929,-0.0041239,0,0.057649,0,0,0,0.0076897,0.0015036,0.002758,22.899,0.0039838,0.0056641,7.8138e-09,0.86,0.66,0
0.04384,0.042836,0.0067938,0.002555,0.0028046,0.0022686,0,0,0.051859,-0.0032451,0,0.058984,0,0,0,0.0077793,0.0015695,0.0028046,23.472,0.0040511,0.0056936,7.9975e-09,0.88,0.66,0
0.044876,0.043974,0.006823,0.0026593,0.0028447,0.0023076,0,0,0.051718,-0.0024101,0,0.059999,0,0,0,0.0078493,0.001633,0.0028447,23.972,0.004109,0.0057078,8.1192e-09,0.9,0.66,0
0.045908,0.045138,0.0068414,0.0027525,0.0028782,0.0023368,0,0,0.051522,-0.0016334,0,0.060757,0,0,0,0.007902,0.0016919,0.0028782,24.409,0.0041574,0.0057102,8.1891e-09,0.92,0.66,0
0.046937,0.046324,0.0068514,0.0028319,0.002905,0.0023592,0,0,0.051303,-0.00094976,0,0.06134,0,0,0,0.007941,0.0017424,0.002905,24.788,0.0041961,0.0057069,8.2265e-09,0.94,0.66,0
0.047961,0.047531,0.0068563,0.0028929,0.0029247,0.0023785,0,0,0.05111,-0.00041428,0,0.061841,0,0,0,0.0079705,0.0017786,0.0029247,25.1,0.0042246,0.0057058,8.2585e-09,0.96,0.66,0
0.048981,0.048758,0.0068579,0.0029279,0.0029357,0.0023929,0,0,0.050988,-0.00010176,0,0.062216,0,0,0,0.0079892,0.0017965,0.0029357,25.304,0.0042405,0.005709,8.2889e-09,0.98,0.66,0
0.049491,0.049376,0.0068578,0.0029378,0.0029387,0.002398,0,0,0.050949,-1.1813e-05,0,0.062348,0,0,0,0.0079949,0.0018007,0.0029387,25.37,0.0042448,0.005711,8.3008e-09,1,0.66,0
0.00037228,0.00017379,0.0050038,0.0020631,0.0021201,0.00067532,0,0,0.037489,-0.00074102,0,0.017558,0,0,0,0.0051517,0.0019152,0.0021201,12.327,0.0030623,0.0031394,1.5691e-09,0,0.68,0
0.00074978,0.00036328,0.0050137,0.0019865,0.0021001,0.00069779,0,0,0.037877,-0.0014756,0,0.018143,0,0,0,0.005167,0.0018332,0.0021001,12.362,0.0030334,0.0032094,1.6616e-09,0.02,0.68,0
0.0015151,0.00077388,0.00505,0.0018427,0.0020678,0.00075886,0,0,0.038769,-0.0029263,0,0.01973,0,0,0,0.0052208,0.001672,0.0020678,12.637,0.0029869,0.0033691,1.8779e-09,0.04,0.68,0
0.0023005,0.001248,0.0051016,0.0017106,0.0020437,0.00083686,0,0,0.039753,-0.0043298,0,0.021758,0,0,0,0.0052971,0.0015151,0.0020437,13.114,0.0029519,0.003548,2.1279e-09,0.06,0.68,0
0.0031052,0.0017861,0.0051496,0.0015839,0.00202,0.00091604,0,0,0.040684,-0.0056694,0,0.023817,0,0,0,0.0053713,0.0013622,0.00202,13.58,0.0029179,0.0037245,2.3814e-09,0.08,0.68,0
0.0039279,0.0023881,0.0051932,0.0014636,0.0019971,0.00099563,0,0,0.04155,-0.0069344,0,0.025886,0,0,0,0.0054425,0.0012143,0.0019971,14.035,0.0028846,0.0038967,2.6343e-09,0.1,0.68,0
0.0047672,0.0030537,0.005232,0.0013501,0.0019746,0.0010751,0,0,0.042346,-0.0081193,0,0.027952,0,0,0,0.00551,0.0010721,0.0019746,14.478,0.0028522,0.0040629,2.8835e-09,0.12,0.68,0
0.0056217,0.003782,0.0052659,0.0012431,0.0019527,0.001154,0,0,0.043071,-0.0092244,0,0.030003,0,0,0,0.0055735,0.00093547,0.0019527,14.912,0.0028206,0.0042226,3.1268e-09,0.14,0.68,0
0.00649,0.0045723,0.0052947,0.0011423,0.0019311,0.0012321,0,0,0.043727,-0.010255,0,0.032036,0,0,0,0.0056329,0.00080407,0.0019311,15.335,0.0027894,0.0043758,3.3629e-09,0.16,0.68,0
0.0073708,0.0054232,0.0053188,0.0010466,0.0019096,0.0013095,0,0,0.044319,-0.01122,0,0.034047,0,0,0,0.0056884,0.00067701,0.0019096,15.747,0.0027583,0.004523,3.5916e-09,0.18,0.68,0
0.0082628,0.0063333,0.0053387,0.0009546,0.001888,0.001386,0,0,0.044859,-0.012134,0,0.036036,0,0,0,0.0057402,0.00055306,0.001888,16.146,0.0027271,0.0046654,3.8136e-09,0.2,0.68,0
0.0091652,0.007301,0.0053552,0.00086465,0.001866,0.0014617,0,0,0.04536,-0.013017,0,0.038004,0,0,0,0.0057892,0.00043068,0.001866,16.526,0.0026953,0.0048046,4.0307e-09,0.22,0.68,0
0.010077,0.0083244,0.0053693,0.00077466,0.0018432,0.0015364,0,0,0.045839,-0.013891,0,0.039947,0,0,0,0.0058358,0.00030813,0.0018432,16.882,0.0026624,0.0049424,4.2449e-09,0.24,0.68,0
0.010999,0.0094012,0.0053822,0.0006823,0.0018193,0.00161,0,0,0.046317,-0.014782,0,0.041859,0,0,0,0.0058809,0.00018362,0.0018193,17.203,0.0026279,0.005081,4.4588e-09,0.26,0.68,0
0.01193,0.010529,0.0053954,0.00058513,0.0017941,0.0016817,0,0,0.046816,-0.015717,0,0.043723,0,0,0,0.005925,5.5477e-05,0.0017941,17.477,0.0025915,0.0052222,4.6747e-09,0.28,0.68,0
0.012871,0.011703,0.0054104,0.00048077,0.0017673,0.0017505,0,0,0.047359,-0.016726,0,0.045512,0,0,0,0.0059688,-7.7608e-05,0.0017673,17.688,0.0025528,0.0053674,4.8939e-09,0.3,0.68,0
0.013824,0.012921,0.0054288,0.00036713,0.0017388,0.0018148,0,0,0.04797,-0.017831,0,0.047184,0,0,0,0.0060123,-0.00021631,0.0017388,17.82,0.0025116,0.0055174,5.1168e-09,0.32,0.68,0
0.01479,0.014177,0.0054521,0.00024283,0.0017085,0.0018724,0,0,0.048667,-0.019053,0,0.048683,0,0,0,0.0060553,-0.0003604,0.0017085,17.856,0.0024678,0.0056718,5.3415e-09,0.34,0.68,0
0.015771,0.015465,0.0054813,0.00010748,0.0016766,0.0019206,0,0,0.049461,-0.020399,0,0.049937,0,0,0,0.0060973,-0.00050848,0.0016766,17.78,0.0024218,0.005829,5.5641e-09,0.36,0.68,0
0.016769,0.016776,0.0055172,-3.7814e-05,0.0016438,0.0019564,0,0,0.050354,-0.021861,0,0.050865,0,0,0,0.0061372,-0.00065782,0.0016438,17.583,0.0023744,0.0059859,5.7787e-09,0.38,0.68,0
0.017785,0.018102,0.0055597,-0.00019017,0.0016109,0.0019763,0,0,0.051335,-0.023413,0,0.051383,0,0,0,0.0061737,-0.00080422,0.0016109,17.257,0.0023268,0.0061379,5.9779e-09,0.4,0.68,0
0.018822,0.019431,0.0056081,-0.00034459,0.001579,0.0019774,0,0,0.052378,-0.025007,0,0.051413,0,0,0,0.0062055,-0.00094204,0.001579,16.804,0.0022809,0.0062789,6.1536e-09,0.42,0.68,0
0.01988,0.020753,0.0056609,-0.00049385,0.0015501,0.0019576,0,0,0.05344,-0.026571,0,0.050897,0,0,0,0.0062313,-0.0010643,0.0015501,16.235,0.002239,0.0064022,6.2981e-09,0.44,0.68,0
0.02096,0.022053,0.0057158,-0.0006286,0.0015261,0.001916,0,0,0.054465,-0.028012,0,0.049815,0,0,0,0.0062502,-0.001163,0.0015261,15.569,0.0022044,0.0065002,6.4059e-09,0.46,0.68,0
0.022059,0.023321,0.0057703,-0.00073808,0.0015097,0.0018541,0,0,0.055389,-0.029221,0,0.048206,0,0,0,0.0062622,-0.00123,0.0015097,14.838,0.0021806,0.0065661,6.4748e-09,0.48,0.68,0
0.023175,0.024546,0.0058225,-0.00081172,0.0015032,0.0017758,0,0,0.05615,-0.030094,0,0.046172,0,0,0,0.0062687,-0.001258,0.0015032,14.081,0.0021713,0.0065949,6.5076e-09,0.5,0.68,0
0.024305,0.025717,0.0058711,-0.00084116,0.001509,0.0016875,0,0,0.056707,-0.030552,0,0.043875,0,0,0,0.0062722,-0.0012422,0.001509,13.345,0.0021796,0.006585,6.5107e-09,0.52,0.68,0
0.025443,0.02683,0.0059162,-0.00082192,0.0015283,0.0015964,0,0,0.057043,-0.030553,0,0.041507,0,0,0,0.0062759,-0.0011816,0.0015283,12.673,0.0022075,0.0065383,6.492e-09,0.54,0.68,0
0.026587,0.027882,0.0059589,-0.00075361,0.0015616,0.0015095,0,0,0.057165,-0.030097,0,0.039246,0,0,0,0.0062831,-0.0010779,0.0015616,12.104,0.0022556,0.0064594,6.4586e-09,0.56,0.68,0
0.02773,0.028875,0.0060004,-0.00063856,0.0016086,0.0014322,0,0,0.057094,-0.029212,0,0.037238,0,0,0,0.0062965,-0.00093467,0.0016086,11.666,0.0023235,0.0063537,6.414e-09,0.58,0.68,0
0.02887,0.029813,0.0060419,-0.00048009,0.0016685,0.0013689,0,0,0.056853,-0.027932,0,0.035592,0,0,0,0.0063178,-0.00075602,0.0016685,11.385,0.0024101,0.0062265,6.358e-09,0.6,0.68,0
0.030004,0.030703,0.0060836,-0.00028177,0.0017406,0.0013234,0,0,0.05646,-0.02629,0,0.034407,0,0,0,0.006348,-0.00054617,0.0017406,11.291,0.0025141,0.0060826,6.2887e-09,0.62,0.68,0
0.031129,0.031553,0.0061258,-4.8206e-05,0.0018233,0.0012994,0,0,0.055933,-0.024329,0,0.033785,0,0,0,0.0063885,-0.00031089,0.0018233,11.42,0.0026336,0.0059282,6.207e-09,0.64,0.68,0
0.032241,0.032377,0.0061688,0.00021325,0.0019146,0.0013012,0,0,0.055305,-0.022118,0,0.03383,0,0,0,0.0064413,-5.9238e-05,0.0019146,11.813,0.0027656,0.005773,6.1209e-09,0.66,0.68,0
0.033341,0.033188,0.0062139,0.00049164,0.0020116,0.0013313,0,0,0.054629,-0.01976,0,0.034614,0,0,0,0.0065095,0.00019598,0.0020116,12.493,0.0029057,0.0056302,6.0485e-09,0.68,0.68,0
0.034427,0.034,0.0062624,0.00077352,0.0021108,0.0013897,0,0,0.053972,-0.017385,0,0.036132,0,0,0,0.0065959,0.00044008,0.0021108,13.446,0.0030489,0.0055141,6.0146e-09,0.7,0.68,0
0.0355,0.034827,0.006316,0.001046,0.0022086,0.0014726,0,0,0.053397,-0.015114,0,0.038288,0,0,0,0.0067018,0.00066023,0.0022086,14.616,0.0031902,0.0054357,6.0434e-09,0.72,0.68,0
0.036562,0.03568,0.0063751,0.0012996,0.0023024,0.0015734,0,0,0.052945,-0.013037,0,0.040909,0,0,0,0.0068257,0.00084891,0.0023024,15.91,0.0033257,0.0053991,6.1488e-09,0.74,0.68,0
0.037618,0.03657,0.0064386,0.0015297,0.0023905,0.0016842,0,0,0.052626,-0.01119,0,0.043789,0,0,0,0.0069633,0.001005,0.0023905,17.233,0.0034529,0.0054008,6.3299e-09,0.76,0.68,0
0.038667,0.0375,0.0065042,0.001736,0.0024721,0.0017974,0,0,0.052418,-0.0095691,0,0.046732,0,0,0,0.007108,0.0011321,0.0024721,18.506,0.0035707,0.0054315,6.5719e-09,0.78,0.68,0
0.039714,0.038474,0.0065687,0.0019207,0.0025468,0.0019068,0,0,0.052285,-0.0081399,0,0.049576,0,0,0,0.0072527,0.0012367,0.0025468,19.681,0.0036787,0.0054797,6.851e-09,0.8,0.68,0
0.040759,0.03949,0.0066288,0.0020871,0.0026148,0.0020078,0,0,0.052183,-0.0068597,0,0.052202,0,0,0,0.0073906,0.0013254,0.0026148,20.737,0.0037769,0.0055344,7.1399e-09,0.82,0.68,0
0.041802,0.040548,0.0066817,0.0022386,0.0026761,0.0020975,0,0,0.052073,-0.0056876,0,0.054534,0,0,0,0.0075164,0.0014038,0.0026761,21.674,0.0038654,0.0055863,7.4129e-09,0.84,0.68,0
0.042842,0.041642,0.0067252,0.0023775,0.0027308,0.0021742,0,0,0.051927,-0.0045932,0,0.056528,0,0,0,0.0076266,0.0014761,0.0027308,22.5,0.0039445,0.0056291,7.6496e-09,0.86,0.68,0
0.043879,0.042769,0.0067585,0.0025052,0.0027791,0.0022374,0,0,0.051732,-0.003561,0,0.058172,0,0,0,0.0077192,0.0015445,0.0027791,23.226,0.0040143,0.0056594,7.837e-09,0.88,0.68,0
0.044911,0.043925,0.0067815,0.0026214,0.0028209,0.0022876,0,0,0.051488,-0.0025932,0,0.059478,0,0,0,0.0077937,0.0016092,0.0028209,23.86,0.0040746,0.0056766,7.9708e-09,0.9,0.68,0
0.045938,0.045105,0.0067955,0.0027243,0.002856,0.0023262,0,0,0.051215,-0.0017113,0,0.060482,0,0,0,0.0078513,0.0016686,0.002856,24.406,0.0041253,0.0056829,8.0561e-09,0.92,0.68,0
0.04696,0.046306,0.0068027,0.0028104,0.002884,0.0023552,0,0,0.050944,-0.00095569,0,0.061236,0,0,0,0.0078941,0.0017191,0.002884,24.859,0.0041657,0.0056829,8.1069e-09,0.94,0.68,0
0.047976,0.047523,0.0068064,0.0028747,0.0029043,0.0023773,0,0,0.050726,-0.0003849,0,0.06181,0,0,0,0.0079254,0.0017556,0.0029043,25.206,0.0041951,0.0056832,8.1446e-09,0.96,0.68,0
0.048989,0.048756,0.0068074,0.0029094,0.002915,0.002392,0,0,0.050601,-7.3888e-05,0,0.062192,0,0,0,0.0079439,0.0017729,0.002915,25.413,0.0042106,0.0056867,8.1755e-09,0.98,0.68,0
0.049494,0.049376,0.0068072,0.0029181,0.0029176,0.002397,0,0,0.050565,6.3304e-06,0,0.062321,0,0,0,0.0079492,0.0017761,0.0029176,25.475,0.0042143,0.0056889,8.1876e-09,1,0.68,0
0.0003602,0.00015875,0.0048409,0.0019903,0.0020494,0.00061784,0,0,0.03629,-0.00076756,0,0.016064,0,0,0,0.0049693,0.0018619,0.0020494,11.708,0.0029602,0.0030184,1.3966e-09,0,0.7,0
0.0007258,0.00033336,0.0048511,0.0019115,0.0020288,0.00064105,0,0,0.03669,-0.0015248,0,0.016667,0,0,0,0.0049851,0.0017775,0.0020288,11.765,0.0029305,0.0030904,1.4854e-09,0.02,0.7,0
0.0014676,0.00071462,0.0048889,0.001764,0.0019959,0.00070424,0,0,0.037609,-0.003014,0,0.01831,0,0,0,0.0050406,0.0016123,0.0019959,12.102,0.002883,0.0032543,1.6922e-09,0.04,0.7,0
0.0022302,0.0011605,0.0049427,0.0016299,0.0019718,0.00078545,0,0,0.038621,-0.0044441,0,0.020422,0,0,0,0.0051198,0.0014528,0.0019718,12.66,0.0028481,0.0034376,1.9316e-09,0.06,0.7,0
0.0030125,0.0016716,0.004993,0.0015023,0.0019486,0.00086861,0,0,0.039577,-0.0058018,0,0.022584,0,0,0,0.0051975,0.0012978,0.0019486,13.208,0.0028146,0.0036189,2.1756e-09,0.08,0.7,0
0.0038133,0.0022483,0.0050394,0.0013818,0.0019264,0.00095269,0,0,0.040469,-0.007079,0,0.02477,0,0,0,0.0052729,0.0011483,0.0019264,13.74,0.0027825,0.0037963,2.4208e-09,0.1,0.7,0
0.0046312,0.00289,0.0050815,0.0012687,0.001905,0.0010369,0,0,0.041294,-0.0082732,0,0.026958,0,0,0,0.0053454,0.0010047,0.001905,14.255,0.0027517,0.0039683,2.6646e-09,0.12,0.7,0
0.005465,0.0035962,0.0051194,0.0011625,0.0018846,0.0011205,0,0,0.042053,-0.0093867,0,0.029133,0,0,0,0.0054148,0.00086705,0.0018846,14.75,0.0027222,0.0041343,2.905e-09,0.14,0.7,0
0.0063133,0.0043657,0.0051532,0.0010627,0.0018648,0.0012032,0,0,0.042749,-0.010427,0,0.031283,0,0,0,0.005481,0.00073488,0.0018648,15.223,0.0026935,0.0042944,3.141e-09,0.16,0.7,0
0.007175,0.0051972,0.0051833,0.00096817,0.0018454,0.0012846,0,0,0.043392,-0.011404,0,0.033399,0,0,0,0.0055441,0.0006074,0.0018454,15.672,0.0026656,0.004449,3.3724e-09,0.18,0.7,0
0.008049,0.0060888,0.0052104,0.00087747,0.0018264,0.0013644,0,0,0.043993,-0.012336,0,0.035475,0,0,0,0.0056044,0.00048349,0.0018264,16.093,0.0026381,0.0045991,3.5998e-09,0.2,0.7,0
0.0089347,0.0070386,0.0052354,0.0007889,0.0018073,0.0014425,0,0,0.044565,-0.013239,0,0.037505,0,0,0,0.0056625,0.00036181,0.0018073,16.482,0.0026105,0.0047462,3.8246e-09,0.22,0.7,0
0.0098316,0.0080442,0.0052593,0.00070052,0.001788,0.0015185,0,0,0.045128,-0.014137,0,0.039482,0,0,0,0.0057189,0.00024092,0.001788,16.83,0.0025826,0.0048917,4.0485e-09,0.24,0.7,0
0.01074,0.0091029,0.0052834,0.00061024,0.0017681,0.001592,0,0,0.045699,-0.015052,0,0.041391,0,0,0,0.0057743,0.00011937,0.0017681,17.129,0.0025539,0.0050373,4.2734e-09,0.26,0.7,0
0.01166,0.010211,0.005309,0.00051597,0.0017475,0.0016621,0,0,0.046299,-0.01601,0,0.043215,0,0,0,0.005829,-4.0745e-06,0.0017475,17.368,0.0025241,0.0051843,4.5008e-09,0.28,0.7,0
0.012592,0.011366,0.0053374,0.00041578,0.0017259,0.0017278,0,0,0.046949,-0.017032,0,0.044924,0,0,0,0.0058835,-0.00013029,0.0017259,17.535,0.002493,0.0053338,4.7317e-09,0.3,0.7,0
0.013538,0.012561,0.00537,0.00030812,0.0017034,0.0017876,0,0,0.047666,-0.018139,0,0.046478,0,0,0,0.0059377,-0.00025957,0.0017034,17.615,0.0024605,0.005486,4.966e-09,0.32,0.7,0
0.014498,0.013793,0.005408,0.00019212,0.00168,0.0018395,0,0,0.048464,-0.019343,0,0.047826,0,0,0,0.0059916,-0.00039142,0.00168,17.598,0.0024267,0.0056403,5.202e-09,0.34,0.7,0
0.015476,0.015054,0.0054522,6.7843e-05,0.001656,0.0018811,0,0,0.049351,-0.020646,0,0.048908,0,0,0,0.0060444,-0.00052437,0.001656,17.472,0.002392,0.005795,5.4364e-09,0.36,0.7,0
0.016472,0.016337,0.005503,-6.3394e-05,0.0016319,0.0019099,0,0,0.050324,-0.022038,0,0.049656,0,0,0,0.0060955,-0.00065591,0.0016319,17.232,0.0023571,0.0059473,5.6647e-09,0.38,0.7,0
0.017489,0.017632,0.00556,-0.00019876,0.0016084,0.0019233,0,0,0.051371,-0.023493,0,0.050005,0,0,0,0.0061436,-0.00078237,0.0016084,16.873,0.0023232,0.0060933,5.8807e-09,0.4,0.7,0
0.018527,0.018931,0.0056225,-0.00033373,0.0015866,0.0019191,0,0,0.052466,-0.024965,0,0.049896,0,0,0,0.0061878,-0.00089901,0.0015866,16.402,0.0022918,0.0062279,6.0779e-09,0.42,0.7,0
0.019588,0.020222,0.0056888,-0.00046212,0.001568,0.0018959,0,0,0.053571,-0.026392,0,0.049293,0,0,0,0.0062269,-0.0010002,0.001568,15.829,0.0022649,0.0063455,6.2502e-09,0.44,0.7,0
0.02067,0.021496,0.005757,-0.00057626,0.0015542,0.0018535,0,0,0.054636,-0.027696,0,0.04819,0,0,0,0.0062602,-0.0010795,0.0015542,15.173,0.002245,0.0064404,6.3925e-09,0.46,0.7,0
0.021773,0.022741,0.0058246,-0.00066773,0.001547,0.0017934,0,0,0.055608,-0.028792,0,0.046628,0,0,0,0.0062878,-0.001131,0.001547,14.46,0.0022346,0.0065071,6.5022e-09,0.48,0.7,0
0.022894,0.023948,0.0058896,-0.00072839,0.0015484,0.001719,0,0,0.056436,-0.029598,0,0.044694,0,0,0,0.0063102,-0.001149,0.0015484,13.725,0.0022365,0.0065419,6.5792e-09,0.5,0.7,0
0.024031,0.02511,0.0059506,-0.00075162,0.0015597,0.0016354,0,0,0.057081,-0.030047,0,0.042521,0,0,0,0.006329,-0.0011301,0.0015597,13.004,0.0022529,0.006543,6.6259e-09,0.52,0.7,0
0.025178,0.026223,0.0060068,-0.00073333,0.001582,0.0015486,0,0,0.057522,-0.0301,0,0.040262,0,0,0,0.0063462,-0.0010727,0.001582,12.335,0.0022852,0.006511,6.6458e-09,0.54,0.7,0
0.026331,0.027283,0.0060585,-0.00067212,0.0016159,0.0014645,0,0,0.057753,-0.029744,0,0.038077,0,0,0,0.0063638,-0.00097742,0.0016159,11.754,0.0023341,0.0064484,6.6422e-09,0.56,0.7,0
0.027488,0.028293,0.006106,-0.00056886,0.0016611,0.0013888,0,0,0.057783,-0.02899,0,0.036109,0,0,0,0.0063837,-0.00084661,0.0016611,11.293,0.0023994,0.006359,6.6172e-09,0.58,0.7,0
0.028643,0.029254,0.0061501,-0.00042591,0.0017173,0.0013264,0,0,0.057627,-0.027861,0,0.034486,0,0,0,0.0064078,-0.00068358,0.0017173,10.982,0.0024805,0.0062473,6.572e-09,0.6,0.7,0
0.029793,0.030175,0.0061915,-0.00024681,0.0017834,0.0012816,0,0,0.057305,-0.026393,0,0.033322,0,0,0,0.0064374,-0.00049273,0.0017834,10.855,0.002576,0.0061185,6.508e-09,0.62,0.7,0
0.030935,0.031063,0.006231,-3.6528e-05,0.0018583,0.0012584,0,0,0.056845,-0.024633,0,0.032719,0,0,0,0.0064745,-0.00028001,0.0018583,10.944,0.0026843,0.0059796,6.4296e-09,0.64,0.7,0
0.032067,0.031929,0.0062697,0.00019801,0.0019403,0.00126,0,0,0.056282,-0.02265,0,0.032761,0,0,0,0.0065213,-5.3566e-05,0.0019403,11.279,0.0028027,0.0058394,6.3463e-09,0.66,0.7,0
0.033186,0.032784,0.0063092,0.00044786,0.0020271,0.0012882,0,0,0.055667,-0.02053,0,0.033494,0,0,0,0.0065807,0.00017637,0.0020271,11.878,0.0029281,0.0057089,6.2743e-09,0.68,0.7,0
0.034293,0.033642,0.0063509,0.00070295,0.0021162,0.0013426,0,0,0.055052,-0.018372,0,0.034907,0,0,0,0.0066552,0.00039872,0.0021162,12.729,0.0030567,0.0055992,6.2337e-09,0.7,0.7,0
0.035388,0.034513,0.0063962,0.00095373,0.002205,0.0014201,0,0,0.054486,-0.016266,0,0.036922,0,0,0,0.0067463,0.00060367,0.002205,13.794,0.003185,0.0055193,6.2437e-09,0.72,0.7,0
0.036473,0.035407,0.0064455,0.0011929,0.0022915,0.0015157,0,0,0.054002,-0.014282,0,0.039407,0,0,0,0.0068536,0.00078476,0.0022915,15.008,0.00331,0.0054735,6.3172e-09,0.74,0.7,0
0.037548,0.036334,0.006498,0.0014162,0.0023743,0.001623,0,0,0.053609,-0.012455,0,0.042198,0,0,0,0.0069744,0.00093977,0.0023743,16.293,0.0034295,0.0054608,6.4567e-09,0.76,0.7,0
0.038617,0.037297,0.006552,0.0016223,0.0024523,0.0017357,0,0,0.053296,-0.010789,0,0.045127,0,0,0,0.007104,0.0010703,0.0024523,17.58,0.0035422,0.0054753,6.6537e-09,0.78,0.7,0
0.03968,0.038301,0.0066049,0.0018122,0.0025251,0.0018479,0,0,0.053037,-0.0092683,0,0.048045,0,0,0,0.0072367,0.0011804,0.0025251,18.819,0.0036474,0.0055085,6.8908e-09,0.8,0.7,0
0.040739,0.039344,0.006654,0.0019876,0.0025925,0.0019548,0,0,0.0528,-0.0078634,0,0.050826,0,0,0,0.0073664,0.0012752,0.0025925,19.978,0.0037447,0.0055511,7.1461e-09,0.82,0.7,0
0.041792,0.040426,0.0066968,0.0021506,0.0026542,0.0020529,0,0,0.052553,-0.0065467,0,0.053377,0,0,0,0.007488,0.0013594,0.0026542,21.043,0.0038339,0.0055948,7.3965e-09,0.84,0.7,0
0.042841,0.041544,0.0067313,0.0023026,0.0027102,0.0021396,0,0,0.052275,-0.0052982,0,0.05563,0,0,0,0.0075972,0.0014367,0.0027102,22.008,0.0039147,0.0056328,7.6215e-09,0.86,0.7,0
0.043883,0.042694,0.0067567,0.0024439,0.0027602,0.0022133,0,0,0.051955,-0.0041115,0,0.057545,0,0,0,0.0076912,0.0015094,0.0027602,22.873,0.0039869,0.005661,7.8061e-09,0.88,0.7,0
0.044919,0.043871,0.0067731,0.0025734,0.0028039,0.0022733,0,0,0.051599,-0.0029972,0,0.059105,0,0,0,0.0077685,0.001578,0.0028039,23.636,0.0040501,0.0056777,7.9425e-09,0.9,0.7,0
0.045947,0.045069,0.0067815,0.0026883,0.002841,0.0023198,0,0,0.051228,-0.0019845,0,0.060316,0,0,0,0.0078289,0.001641,0.002841,24.291,0.0041036,0.0056838,8.0314e-09,0.92,0.7,0
0.046968,0.046286,0.0067844,0.0027845,0.0028707,0.002354,0,0,0.050879,-0.0011204,0,0.061205,0,0,0,0.0078736,0.0016953,0.0028707,24.825,0.0041465,0.0056825,8.0816e-09,0.94,0.7,0
0.047982,0.047515,0.0067849,0.0028563,0.0028924,0.0023776,0,0,0.050603,-0.00046847,0,0.061818,0,0,0,0.0079048,0.0017365,0.0028924,25.219,0.0041779,0.0056793,8.1099e-09,0.96,0.7,0
0.048992,0.048755,0.0067841,0.0028959,0.002904,0.0023915,0,0,0.050442,-0.00010517,0,0.062178,0,0,0,0.007922,0.001758,0.002904,25.446,0.0041947,0.0056784,8.1278e-09,0.98,0.7,0
0.049496,0.049377,0.0067833,0.0029065,0.0029069,0.002396,0,0,0.050393,-5.9427e-06,0,0.062295,0,0,0,0.0079268,0.001763,0.0029069,25.513,0.0041989,0.0056789,8.1346e-09,1,0.7,0
0.00034811,0.00014309,0.0046778,0.0019167,0.0019783,0.00055798,0,0,0.035093,-0.00080163,0,0.014507,0,0,0,0.0047866,0.0018079,0.0019783,10.991,0.0028576,0.0028977,1.2374e-09,0,0.72,0
0.00070186,0.00030229,0.0046884,0.0018348,0.001957,0.00058196,0,0,0.035509,-0.0015883,0,0.015131,0,0,0,0.0048029,0.0017203,0.001957,11.072,0.0028267,0.0029722,1.3228e-09,0.02,0.72,0
0.0014204,0.00065332,0.004728,0.0016825,0.0019232,0.00064731,0,0,0.036463,-0.0031281,0,0.01683,0,0,0,0.0048603,0.0015502,0.0019232,11.479,0.0027779,0.0031411,1.521e-09,0.04,0.72,0
0.0021604,0.0010703,0.0047844,0.0015456,0.001899,0.00073166,0,0,0.03751,-0.0045941,0,0.019023,0,0,0,0.0049424,0.0013876,0.001899,12.126,0.002743,0.0033294,1.7502e-09,0.06,0.72,0
0.0029208,0.001554,0.0048376,0.0014165,0.0018762,0.00081855,0,0,0.038498,-0.0059765,0,0.021282,0,0,0,0.0050237,0.0012304,0.0018762,12.76,0.0027101,0.0035157,1.9846e-09,0.08,0.72,0
0.0037003,0.002105,0.0048871,0.0012956,0.0018548,0.00090666,0,0,0.03942,-0.0072701,0,0.023573,0,0,0,0.0051033,0.0010793,0.0018548,13.372,0.0026791,0.0036982,2.2216e-09,0.1,0.72,0
0.0044976,0.0027227,0.0049329,0.0011827,0.0018347,0.00099494,0,0,0.040276,-0.0084752,0,0.025868,0,0,0,0.0051808,0.00093485,0.0018347,13.957,0.0026501,0.0038755,2.4587e-09,0.12,0.72,0
0.0053113,0.0034066,0.0049751,0.0010776,0.0018158,0.0010825,0,0,0.04107,-0.0095966,0,0.028146,0,0,0,0.0052558,0.00079686,0.0018158,14.511,0.0026228,0.0040471,2.6944e-09,0.14,0.72,0
0.0061404,0.0041552,0.005014,0.00097926,0.001798,0.0011688,0,0,0.041808,-0.010643,0,0.030388,0,0,0,0.0053283,0.00066494,0.001798,15.03,0.0025971,0.004213,2.9277e-09,0.16,0.72,0
0.0069837,0.004967,0.0050502,0.00088654,0.001781,0.0012531,0,0,0.0425,-0.011628,0,0.032581,0,0,0,0.0053985,0.00053832,0.001781,15.511,0.0025726,0.0043735,3.1586e-09,0.18,0.72,0
0.0078404,0.0058399,0.0050845,0.00079796,0.0017647,0.0013351,0,0,0.043157,-0.012568,0,0.034713,0,0,0,0.0054665,0.00041597,0.0017647,15.951,0.0025491,0.0045295,3.3875e-09,0.2,0.72,0
0.00871,0.0067714,0.0051178,0.00071181,0.0017489,0.0014143,0,0,0.043796,-0.013482,0,0.036773,0,0,0,0.0055329,0.00029674,0.0017489,16.343,0.0025262,0.0046823,3.6155e-09,0.22,0.72,0
0.0095922,0.0077589,0.0051511,0.00062626,0.0017332,0.0014904,0,0,0.044433,-0.01439,0,0.03875,0,0,0,0.005598,0.00017937,0.0017332,16.681,0.0025035,0.004833,3.844e-09,0.24,0.72,0
0.010487,0.0087991,0.0051857,0.00053942,0.0017175,0.0015626,0,0,0.045086,-0.015315,0,0.040627,0,0,0,0.0056624,6.2707e-05,0.0017175,16.958,0.0024809,0.0049829,4.0743e-09,0.26,0.72,0
0.011396,0.0098883,0.0052226,0.00044948,0.0017016,0.0016301,0,0,0.045773,-0.016278,0,0.042383,0,0,0,0.0057263,-5.4196e-05,0.0017016,17.164,0.0024579,0.0051331,4.3076e-09,0.28,0.72,0
0.012318,0.011022,0.0052631,0.00035488,0.0016854,0.001692,0,0,0.04651,-0.017297,0,0.043991,0,0,0,0.0057899,-0.00017193,0.0016854,17.289,0.0024345,0.0052841,4.5444e-09,0.3,0.72,0
0.013256,0.012196,0.0053084,0.00025446,0.0016688,0.0017466,0,0,0.047314,-0.018387,0,0.045413,0,0,0,0.0058534,-0.00029054,0.0016688,17.325,0.0024106,0.0054359,4.7844e-09,0.32,0.72,0
0.014211,0.013404,0.0053591,0.00014771,0.0016521,0.0017925,0,0,0.048192,-0.019556,0,0.046605,0,0,0,0.0059163,-0.00040944,0.0016521,17.262,0.0023863,0.0055879,5.0261e-09,0.34,0.72,0
0.015184,0.014639,0.005416,3.4981e-05,0.0016353,0.0018276,0,0,0.049149,-0.020804,0,0.047517,0,0,0,0.0059782,-0.00052723,0.0016353,17.094,0.0023621,0.0057385,5.2668e-09,0.36,0.72,0
0.016177,0.015894,0.0054791,-8.2317e-05,0.001619,0.0018498,0,0,0.050181,-0.022118,0,0.048094,0,0,0,0.0060385,-0.00064169,0.001619,16.818,0.0023386,0.0058851,5.5029e-09,0.38,0.72,0
0.017191,0.017162,0.005548,-0.00020151,0.0016039,0.0018572,0,0,0.051272,-0.023471,0,0.048288,0,0,0,0.0060961,-0.00074969,0.0016039,16.434,0.0023168,0.0060244,5.7294e-09,0.4,0.72,0
0.018228,0.018433,0.0056216,-0.00031862,0.0015909,0.0018484,0,0,0.052399,-0.024824,0,0.048057,0,0,0,0.0061503,-0.00084734,0.0015909,15.949,0.002298,0.0061523,5.9411e-09,0.42,0.72,0
0.019287,0.019697,0.0056985,-0.0004284,0.001581,0.0018223,0,0,0.053527,-0.026123,0,0.047381,0,0,0,0.0062002,-0.0009301,0.001581,15.375,0.0022837,0.0062644,6.1329e-09,0.44,0.72,0
0.020369,0.020945,0.0057768,-0.0005246,0.0015756,0.0017794,0,0,0.054614,-0.027303,0,0.046265,0,0,0,0.0062453,-0.0009931,0.0015756,14.729,0.0022759,0.0063561,6.3005e-09,0.46,0.72,0
0.021472,0.02217,0.0058543,-0.00060055,0.0015761,0.0017212,0,0,0.055616,-0.028297,0,0.044751,0,0,0,0.0062853,-0.0010316,0.0015761,14.035,0.0022766,0.0064232,6.4407e-09,0.48,0.72,0
0.022593,0.023362,0.005929,-0.00064983,0.0015838,0.0016507,0,0,0.056488,-0.029037,0,0.042918,0,0,0,0.0063207,-0.0010415,0.0015838,13.322,0.0022877,0.0064628,6.5521e-09,0.5,0.72,0
0.023731,0.024515,0.0059995,-0.00066713,0.0015997,0.0015722,0,0,0.057198,-0.029469,0,0.040876,0,0,0,0.0063524,-0.00102,0.0015997,12.622,0.0023107,0.0064732,6.6347e-09,0.52,0.72,0
0.024881,0.025626,0.0060648,-0.00064886,0.0016248,0.0014907,0,0,0.05772,-0.029557,0,0.038758,0,0,0,0.0063815,-0.00096556,0.0016248,11.968,0.0023469,0.0064544,6.6895e-09,0.54,0.72,0
0.02604,0.026693,0.0061244,-0.00059338,0.0016593,0.0014117,0,0,0.058047,-0.029285,0,0.036703,0,0,0,0.0064095,-0.00087843,0.0016593,11.393,0.0023968,0.0064078,6.7177e-09,0.56,0.72,0
0.027203,0.027716,0.0061786,-0.00050089,0.0017033,0.0013403,0,0,0.058179,-0.028655,0,0.034849,0,0,0,0.0064379,-0.00076014,0.0017033,10.929,0.0024603,0.0063364,6.7206e-09,0.58,0.72,0
0.028367,0.028699,0.0062278,-0.00037315,0.0017564,0.0012816,0,0,0.058128,-0.027684,0,0.033322,0,0,0,0.0064681,-0.00061347,0.0017564,10.608,0.002537,0.0062438,6.6999e-09,0.6,0.72,0
0.029528,0.029647,0.0062728,-0.00021331,0.0018178,0.0012399,0,0,0.057914,-0.026405,0,0.032236,0,0,0,0.0065019,-0.0004424,0.0018178,10.461,0.0026258,0.006135,6.6583e-09,0.62,0.72,0
0.030684,0.030568,0.0063146,-2.5898e-05,0.0018866,0.0012188,0,0,0.057564,-0.024863,0,0.031689,0,0,0,0.006541,-0.00025232,0.0018866,10.517,0.0027251,0.0060164,6.6015e-09,0.64,0.72,0
0.031831,0.031471,0.0063546,0.00018312,0.0019613,0.0012212,0,0,0.057113,-0.023117,0,0.031751,0,0,0,0.0065878,-5.0128e-05,0.0019613,10.802,0.002833,0.0058958,6.5393e-09,0.66,0.72,0
0.032968,0.032367,0.0063942,0.00040657,0.0020402,0.0012484,0,0,0.056602,-0.021238,0,0.032459,0,0,0,0.0066448,0.00015601,0.0020402,11.328,0.002947,0.005782,6.4853e-09,0.68,0.72,0
0.034095,0.033265,0.006435,0.00063678,0.0021215,0.0013001,0,0,0.056075,-0.019302,0,0.033802,0,0,0,0.0067142,0.00035751,0.0021215,12.09,0.0030644,0.0056842,6.4561e-09,0.7,0.72,0
0.035211,0.034176,0.0064778,0.00086659,0.0022033,0.0013739,0,0,0.055568,-0.017378,0,0.035721,0,0,0,0.0067977,0.00054671,0.0022033,13.059,0.0031826,0.0056095,6.4677e-09,0.72,0.72,0
0.036318,0.035109,0.0065231,0.0010903,0.002284,0.0014658,0,0,0.055108,-0.015518,0,0.038111,0,0,0,0.0068953,0.00071812,0.002284,14.189,0.0032991,0.0055623,6.5315e-09,0.74,0.72,0
0.037415,0.036072,0.0065702,0.0013044,0.0023624,0.0015708,0,0,0.054702,-0.013754,0,0.040842,0,0,0,0.0070054,0.0008692,0.0023624,15.421,0.0034123,0.0055428,6.6516e-09,0.76,0.72,0
0.038506,0.037069,0.0066178,0.0015072,0.0024375,0.0016835,0,0,0.054344,-0.012094,0,0.043771,0,0,0,0.0071247,0.0010003,0.0024375,16.696,0.0035208,0.0055475,6.8235e-09,0.78,0.72,0
0.039589,0.038103,0.0066636,0.001699,0.0025088,0.0017985,0,0,0.054013,-0.010527,0,0.04676,0,0,0,0.0072488,0.0011138,0.0025088,17.966,0.0036238,0.0055702,7.0349e-09,0.8,0.72,0
0.040666,0.039176,0.0067053,0.0018806,0.0025758,0.0019109,0,0,0.053684,-0.0090371,0,0.049684,0,0,0,0.0073724,0.0012135,0.0025758,19.195,0.0037206,0.0056035,7.268e-09,0.82,0.72,0
0.041737,0.040286,0.0067407,0.0020532,0.0026382,0.0020168,0,0,0.053333,-0.0076045,0,0.052437,0,0,0,0.0074906,0.0013032,0.0026382,20.358,0.0038107,0.0056398,7.5024e-09,0.84,0.72,0
0.042799,0.04143,0.006768,0.0022173,0.0026956,0.0021127,0,0,0.052942,-0.0062182,0,0.054931,0,0,0,0.007599,0.0013863,0.0026956,21.44,0.0038936,0.0056726,7.7182e-09,0.86,0.72,0
0.043854,0.042605,0.0067865,0.0023723,0.0027476,0.0021961,0,0,0.052506,-0.0048798,0,0.057098,0,0,0,0.007694,0.0014648,0.0027476,22.43,0.0039688,0.0056972,7.8985e-09,0.88,0.72,0
0.0449,0.043805,0.0067964,0.0025162,0.0027938,0.0022651,0,0,0.052034,-0.0036081,0,0.058892,0,0,0,0.0077733,0.0015394,0.0027938,23.315,0.0040355,0.005711,8.0325e-09,0.9,0.72,0
0.045936,0.045026,0.0067989,0.0026456,0.0028333,0.0023188,0,0,0.051552,-0.0024406,0,0.060288,0,0,0,0.0078355,0.001609,0.0028333,24.078,0.0040926,0.0057136,8.1165e-09,0.92,0.72,0
0.046962,0.046261,0.0067964,0.0027553,0.0028655,0.0023572,0,0,0.051102,-0.0014329,0,0.061287,0,0,0,0.0078809,0.0016709,0.0028655,24.7,0.0041391,0.0057073,8.1553e-09,0.94,0.72,0
0.04798,0.047505,0.0067923,0.0028389,0.0028894,0.0023812,0,0,0.050738,-0.00065578,0,0.061911,0,0,0,0.0079105,0.0017207,0.0028894,25.153,0.0041735,0.0056961,8.1613e-09,0.96,0.72,0
0.048991,0.048752,0.0067885,0.0028885,0.0029031,0.0023935,0,0,0.05051,-0.00018995,0,0.06223,0,0,0,0.0079258,0.0017512,0.0029031,25.415,0.0041934,0.0056868,8.1547e-09,0.98,0.72,0
0.049496,0.049376,0.0067867,0.0029036,0.0029071,0.0023972,0,0,0.050435,-4.5397e-05,0,0.062326,0,0,0,0.00793,0.0017603,0.0029071,25.497,0.0041991,0.0056837,8.1512e-09,1,0.72,0
0.00033592,0.00012668,0.0045131,0.0018417,0.0019064,0.00049521,0,0,0.033886,-0.00084185,0,0.012876,0,0,0,0.0046023,0.0017524,0.0019064,10.156,0.0027537,0.0027766,1.0903e-09,0,0.74,0
0.00067773,0.00026982,0.0045242,0.0017561,0.0018841,0.00052001,0,0,0.034321,-0.0016635,0,0.01352,0,0,0,0.0046191,0.0016613,0.0018841,10.268,0.0027215,0.002854,1.1724e-09,0.02,0.74,0
0.0013729,0.0005895,0.0045659,0.0015982,0.0018492,0.00058761,0,0,0.035316,-0.0032635,0,0.015278,0,0,0,0.0046785,0.0014855,0.0018492,10.758,0.0026711,0.0030285,1.3621e-09,0.04,0.74,0
0.0020904,0.00097671,0.0046253,0.0014578,0.0018249,0.00067508,0,0,0.036405,-0.0047724,0,0.017552,0,0,0,0.0047637,0.0013194,0.0018249,11.506,0.002636,0.0032221,1.581e-09,0.06,0.74,0
0.002829,0.0014326,0.0046816,0.0013268,0.0018025,0.00076548,0,0,0.037428,-0.0061839,0,0.019903,0,0,0,0.0048485,0.00116,0.0018025,12.234,0.0026037,0.0034135,1.8054e-09,0.08,0.74,0
0.0035875,0.0019574,0.0047345,0.0012053,0.001782,0.00085725,0,0,0.038383,-0.0074959,0,0.022288,0,0,0,0.0049321,0.0010077,0.001782,12.929,0.0025739,0.0036007,2.0331e-09,0.1,0.74,0
0.0043644,0.002551,0.0047841,0.001093,0.0017631,0.00094907,0,0,0.039273,-0.0087115,0,0.024676,0,0,0,0.0050142,0.00086294,0.0017631,13.586,0.0025468,0.0037827,2.2621e-09,0.12,0.74,0
0.0051584,0.0032123,0.0048307,0.00098924,0.001746,0.0010399,0,0,0.040102,-0.0098378,0,0.027037,0,0,0,0.0050945,0.0007255,0.001746,14.197,0.002522,0.0039589,2.491e-09,0.14,0.74,0
0.0059684,0.00394,0.0048749,0.00089293,0.0017303,0.0011288,0,0,0.040879,-0.010886,0,0.029349,0,0,0,0.0051729,0.00059494,0.0017303,14.761,0.0024994,0.0041293,2.719e-09,0.16,0.74,0
0.0067936,0.004732,0.0049172,0.00080278,0.001716,0.0012151,0,0,0.041615,-0.011872,0,0.031593,0,0,0,0.0052494,0.00047049,0.001716,15.272,0.0024786,0.0042941,2.9462e-09,0.18,0.74,0
0.0076331,0.0055861,0.0049584,0.00071722,0.0017027,0.0012982,0,0,0.042325,-0.012811,0,0.033753,0,0,0,0.0053244,0.00035122,0.0017027,15.727,0.0024595,0.0044542,3.1729e-09,0.2,0.74,0
0.0084865,0.0064993,0.0049997,0.00063455,0.0016903,0.0013775,0,0,0.043022,-0.013724,0,0.035816,0,0,0,0.0053982,0.00023603,0.0016903,16.12,0.0024415,0.0046105,3.4001e-09,0.22,0.74,0
0.0093539,0.0074686,0.0050419,0.000553,0.0016785,0.0014525,0,0,0.043725,-0.014631,0,0.037766,0,0,0,0.005471,0.00012385,0.0016785,16.448,0.0024245,0.0047642,3.6287e-09,0.24,0.74,0
0.010236,0.0084903,0.0050862,0.00047085,0.0016671,0.0015226,0,0,0.044448,-0.015551,0,0.039587,0,0,0,0.0055433,1.3704e-05,0.0016671,16.703,0.002408,0.0049162,3.8597e-09,0.26,0.74,0
0.011132,0.0095602,0.0051335,0.00038649,0.001656,0.0015868,0,0,0.045208,-0.016504,0,0.041257,0,0,0,0.0056152,-9.5181e-05,0.001656,16.878,0.002392,0.0050672,4.0941e-09,0.28,0.74,0
0.012044,0.010674,0.005185,0.00029865,0.0016451,0.0016442,0,0,0.046019,-0.017504,0,0.04275,0,0,0,0.0056868,-0.00020322,0.0016451,16.967,0.0023762,0.0052176,4.3321e-09,0.3,0.74,0
0.012973,0.011826,0.0052414,0.00020643,0.0016343,0.0016936,0,0,0.046891,-0.018563,0,0.044033,0,0,0,0.0057582,-0.00031036,0.0016343,16.963,0.0023607,0.0053673,4.5734e-09,0.32,0.74,0
0.013919,0.013011,0.0053033,0.00010959,0.0016239,0.0017335,0,0,0.047833,-0.019686,0,0.04507,0,0,0,0.0058289,-0.00041602,0.0016239,16.861,0.0023456,0.0055156,4.8165e-09,0.34,0.74,0
0.014886,0.014222,0.0053711,8.6109e-06,0.0016139,0.0017623,0,0,0.048843,-0.020869,0,0.045819,0,0,0,0.0058986,-0.00051896,0.0016139,16.657,0.0023312,0.005661,5.0595e-09,0.36,0.74,0
0.015873,0.015452,0.0054446,-9.5084e-05,0.0016049,0.0017785,0,0,0.049917,-0.022099,0,0.04624,0,0,0,0.0059668,-0.00061726,0.0016049,16.352,0.0023181,0.0058015,5.2992e-09,0.38,0.74,0
0.016883,0.016693,0.0055233,-0.00019907,0.0015973,0.0017806,0,0,0.051038,-0.023352,0,0.046296,0,0,0,0.0060326,-0.00070837,0.0015973,15.948,0.0023072,0.0059342,5.5317e-09,0.4,0.74,0
0.017915,0.017938,0.0056061,-0.00029989,0.0015919,0.0017677,0,0,0.052185,-0.024593,0,0.045961,0,0,0,0.0060953,-0.00078915,0.0015919,15.453,0.0022994,0.0060559,5.753e-09,0.42,0.74,0
0.01897,0.019177,0.0056916,-0.00039316,0.0015895,0.0017395,0,0,0.053327,-0.025775,0,0.045226,0,0,0,0.0061544,-0.000856,0.0015895,14.879,0.002296,0.006163,5.9586e-09,0.44,0.74,0
0.020048,0.020404,0.005778,-0.00047378,0.0015913,0.0016964,0,0,0.054428,-0.026846,0,0.044106,0,0,0,0.0062094,-0.00090517,0.0015913,14.244,0.0022985,0.0062521,6.1448e-09,0.46,0.74,0
0.021147,0.021609,0.0058635,-0.00053641,0.0015981,0.0016401,0,0,0.05545,-0.027749,0,0.042643,0,0,0,0.0062601,-0.00093303,0.0015981,13.567,0.0023084,0.0063199,6.3086e-09,0.48,0.74,0
0.022266,0.022787,0.0059462,-0.00057595,0.0016111,0.0015734,0,0,0.056356,-0.028431,0,0.040909,0,0,0,0.0063067,-0.00093646,0.0016111,12.876,0.0023271,0.0063641,6.4476e-09,0.5,0.74,0
0.023401,0.023932,0.0060246,-0.00058811,0.0016309,0.0015,0,0,0.057118,-0.028848,0,0.039001,0,0,0,0.0063497,-0.00091317,0.0016309,12.198,0.0023558,0.0063832,6.5609e-09,0.52,0.74,0
0.024551,0.025041,0.0060977,-0.00056983,0.0016584,0.0014244,0,0,0.057712,-0.028967,0,0.037033,0,0,0,0.0063899,-0.00086197,0.0016584,11.563,0.0023954,0.0063769,6.648e-09,0.54,0.74,0
0.02571,0.026112,0.006165,-0.00051954,0.0016936,0.0013512,0,0,0.058128,-0.028771,0,0.035132,0,0,0,0.0064283,-0.00078282,0.0016936,11.002,0.0024464,0.0063464,6.709e-09,0.56,0.74,0
0.026876,0.027146,0.0062264,-0.00043715,0.0017368,0.0012855,0,0,0.058365,-0.028261,0,0.033422,0,0,0,0.0064662,-0.00067688,0.0017368,10.545,0.0025087,0.0062936,6.7447e-09,0.58,0.74,0
0.028044,0.028147,0.0062823,-0.000324,0.0017875,0.0012317,0,0,0.058433,-0.027449,0,0.032023,0,0,0,0.0065047,-0.0005464,0.0017875,10.222,0.0025819,0.0062218,6.7568e-09,0.6,0.74,0
0.029213,0.029119,0.0063335,-0.00018271,0.0018452,0.001194,0,0,0.058347,-0.026363,0,0.031043,0,0,0,0.0065455,-0.00039478,0.0018452,10.062,0.0026653,0.0061352,6.7486e-09,0.62,0.74,0
0.030378,0.030069,0.0063809,-1.7096e-05,0.0019091,0.0011758,0,0,0.058133,-0.025041,0,0.030571,0,0,0,0.0065904,-0.00022656,0.0019091,10.092,0.0027576,0.0060394,6.7257e-09,0.64,0.74,0
0.031538,0.031004,0.0064259,0.00016794,0.0019782,0.0011797,0,0,0.057821,-0.023533,0,0.030671,0,0,0,0.0066412,-4.7403e-05,0.0019782,10.333,0.0028573,0.005941,6.6969e-09,0.66,0.74,0
0.032691,0.031935,0.0064698,0.00036678,0.002051,0.0012068,0,0,0.057445,-0.021895,0,0.031377,0,0,0,0.0067004,0.00013619,0.002051,10.797,0.0029625,0.0058471,6.6742e-09,0.68,0.74,0
0.033836,0.03287,0.0065139,0.00057355,0.0021262,0.001257,0,0,0.05704,-0.020185,0,0.032683,0,0,0,0.0067699,0.00031753,0.0021262,11.48,0.0030712,0.0057651,6.6711e-09,0.7,0.74,0
0.034973,0.033817,0.0065589,0.00078287,0.0022025,0.0013286,0,0,0.056633,-0.018456,0,0.034543,0,0,0,0.0068512,0.00049054,0.0022025,12.364,0.0031814,0.0057011,6.7008e-09,0.72,0.74,0
0.036101,0.034786,0.0066051,0.00099041,0.0022786,0.0014184,0,0,0.056243,-0.016747,0,0.036878,0,0,0,0.0069448,0.00065066,0.0022786,13.415,0.0032914,0.0056588,6.7735e-09,0.74,0.74,0
0.037222,0.035783,0.0066518,0.0011933,0.0023535,0.0015224,0,0,0.055877,-0.015083,0,0.039583,0,0,0,0.0070497,0.00079536,0.0023535,14.588,0.0033995,0.0056393,6.8939e-09,0.76,0.74,0
0.038336,0.036813,0.0066976,0.0013903,0.0024264,0.001636,0,0,0.055526,-0.013469,0,0.042536,0,0,0,0.0071637,0.00092429,0.0024264,15.836,0.0035048,0.0056405,7.0602e-09,0.78,0.74,0
0.039444,0.03788,0.0067408,0.0015811,0.0024966,0.0017543,0,0,0.055175,-0.011901,0,0.045612,0,0,0,0.0072831,0.0010389,0.0024966,17.115,0.0036062,0.0056581,7.2633e-09,0.8,0.74,0
0.040543,0.038983,0.0067791,0.0017664,0.0025637,0.0018726,0,0,0.054801,-0.010364,0,0.048688,0,0,0,0.0074036,0.0011419,0.0025637,18.388,0.0037031,0.0056858,7.4887e-09,0.82,0.74,0
0.041636,0.040122,0.0068104,0.0019466,0.0026271,0.0019865,0,0,0.054383,-0.0088466,0,0.051649,0,0,0,0.0075206,0.0012364,0.0026271,19.626,0.0037947,0.0057172,7.718e-09,0.84,0.74,0
0.042719,0.041296,0.0068331,0.0021217,0.0026864,0.0020918,0,0,0.053907,-0.0073416,0,0.054386,0,0,0,0.0076295,0.0013253,0.0026864,20.806,0.0038804,0.0057459,7.9314e-09,0.86,0.74,0
0.043792,0.042499,0.0068464,0.0022905,0.0027411,0.0021849,0,0,0.053369,-0.0058571,0,0.056808,0,0,0,0.0077263,0.0014107,0.0027411,21.907,0.0039594,0.0057667,8.1106e-09,0.88,0.74,0
0.044854,0.043726,0.0068506,0.0024504,0.0027903,0.0022629,0,0,0.052784,-0.0044189,0,0.058836,0,0,0,0.0078077,0.0014933,0.0027903,22.907,0.0040304,0.0057763,8.2413e-09,0.9,0.74,0
0.045903,0.044972,0.0068472,0.0025968,0.0028332,0.0023236,0,0,0.052182,-0.0030734,0,0.060414,0,0,0,0.0078717,0.0015723,0.0028332,23.781,0.0040924,0.0057732,8.3158e-09,0.92,0.74,0
0.046941,0.046228,0.0068388,0.0027235,0.0028687,0.0023659,0,0,0.051611,-0.0018869,0,0.061513,0,0,0,0.0079171,0.0016452,0.0028687,24.496,0.0041437,0.0057585,8.3346e-09,0.94,0.74,0
0.047968,0.047489,0.0068288,0.0028233,0.0028956,0.0023898,0,0,0.051132,-0.00094067,0,0.062134,0,0,0,0.0079443,0.0017078,0.0028956,25.019,0.0041826,0.0057356,8.3073e-09,0.96,0.74,0
0.048986,0.048747,0.0068211,0.0028877,0.0029126,0.0023998,0,0,0.05081,-0.00032402,0,0.062396,0,0,0,0.0079572,0.0017516,0.0029126,25.334,0.0042071,0.0057143,8.2656e-09,0.98,0.74,0
0.049494,0.049375,0.0068181,0.00291,0.0029184,0.0024025,0,0,0.050696,-0.00010947,0,0.062465,0,0,0,0.0079609,0.0017672,0.0029184,25.439,0.0042155,0.0057058,8.2472e-09,1,0.74,0
0.00032349,0.00010942,0.0043452,0.0017648,0.001833,0.00042914,0,0,0.032659,-0.00088678,0,0.011158,0,0,0,0.0044152,0.0016948,0.001833,9.1783,0.0026477,0.0026546,9.5412e-10,0,0.76,0
0.00065317,0.00023575,0.0043569,0.0016752,0.0018096,0.0004548,0,0,0.033115,-0.0017475,0,0.011825,0,0,0,0.0044325,0.0015996,0.0018096,9.3316,0.0026139,0.0027351,1.0328e-09,0.02,0.76,0
0.0013246,0.00052278,0.0044008,0.0015108,0.0017735,0.00052478,0,0,0.034155,-0.0034148,0,0.013644,0,0,0,0.0044939,0.0014177,0.0017735,9.9251,0.0025617,0.0029156,1.2139e-09,0.04,0.76,0
0.0020194,0.00087935,0.0044636,0.0013667,0.0017491,0.00061543,0,0,0.035289,-0.0049715,0,0.016001,0,0,0,0.0045821,0.0012482,0.0017491,10.792,0.0025264,0.0031146,1.4219e-09,0.06,0.76,0
0.0027361,0.0013067,0.0045232,0.0012336,0.001727,0.00070919,0,0,0.03635,-0.0064144,0,0.018439,0,0,0,0.0046702,0.0010867,0.001727,11.625,0.0024946,0.0033107,1.6355e-09,0.08,0.76,0
0.0034734,0.0018051,0.0045796,0.0011116,0.0017074,0.00080428,0,0,0.037339,-0.0077447,0,0.020911,0,0,0,0.0047576,0.00093368,0.0017074,12.411,0.0024662,0.0035022,1.8527e-09,0.1,0.76,0
0.0042297,0.0023743,0.0046332,0.0010001,0.00169,0.00089915,0,0,0.038261,-0.0089681,0,0.023378,0,0,0,0.004844,0.00078933,0.00169,13.142,0.0024411,0.0036881,2.0718e-09,0.12,0.76,0
0.0050038,0.0030131,0.0046842,0.00089821,0.0016747,0.00099252,0,0,0.039123,-0.010095,0,0.025806,0,0,0,0.004929,0.00065341,0.0016747,13.813,0.0024191,0.0038677,2.2918e-09,0.14,0.76,0
0.0057946,0.0037197,0.0047335,0.00080462,0.0016614,0.0010833,0,0,0.039937,-0.011138,0,0.028167,0,0,0,0.0050127,0.00052538,0.0016614,14.421,0.0023998,0.0040411,2.512e-09,0.16,0.76,0
0.0066013,0.0044921,0.0047817,0.00071786,0.0016499,0.0011707,0,0,0.040713,-0.012116,0,0.030439,0,0,0,0.0050951,0.00040446,0.0016499,14.96,0.0023831,0.0042086,2.7325e-09,0.18,0.76,0
0.0074232,0.0053274,0.0048297,0.00063629,0.0016398,0.001254,0,0,0.041469,-0.013046,0,0.032603,0,0,0,0.0051763,0.0002897,0.0016398,15.429,0.0023686,0.004371,2.9537e-09,0.2,0.76,0
0.00826,0.0062225,0.0048785,0.00055814,0.001631,0.0013325,0,0,0.042218,-0.013947,0,0.034644,0,0,0,0.0052566,0.00018007,0.001631,15.824,0.0023559,0.004529,3.1763e-09,0.22,0.76,0
0.0091119,0.0071737,0.0049292,0.00048169,0.0016233,0.0014056,0,0,0.042977,-0.01484,0,0.036545,0,0,0,0.0053363,7.4552e-05,0.0016233,16.14,0.0023447,0.0046836,3.4013e-09,0.24,0.76,0
0.0099791,0.0081771,0.0049825,0.00040531,0.0016163,0.0014727,0,0,0.04376,-0.015743,0,0.03829,0,0,0,0.0054155,-2.773e-05,0.0016163,16.374,0.0023347,0.0048357,3.6293e-09,0.26,0.76,0
0.010862,0.0092282,0.0050395,0.00032758,0.0016101,0.0015331,0,0,0.044582,-0.016673,0,0.03986,0,0,0,0.0054945,-0.00012744,0.0016101,16.521,0.0023257,0.0049858,3.861e-09,0.28,0.76,0
0.011762,0.010322,0.0051009,0.00024739,0.0016045,0.0015858,0,0,0.045454,-0.017642,0,0.04123,0,0,0,0.0055732,-0.00022493,0.0016045,16.577,0.0023176,0.0051341,4.0967e-09,0.3,0.76,0
0.01268,0.011453,0.0051674,0.00016408,0.0015994,0.0016297,0,0,0.046383,-0.01866,0,0.042373,0,0,0,0.0056516,-0.00032015,0.0015994,16.539,0.0023103,0.0052805,4.3359e-09,0.32,0.76,0
0.013618,0.012616,0.0052393,7.7519e-05,0.001595,0.0016638,0,0,0.047375,-0.019728,0,0.04326,0,0,0,0.0057294,-0.00041257,0.001595,16.403,0.0023039,0.0054244,4.5775e-09,0.34,0.76,0
0.014575,0.013804,0.0053166,-1.1724e-05,0.0015915,0.0016868,0,0,0.048427,-0.020842,0,0.043858,0,0,0,0.0058061,-0.00050118,0.0015915,16.169,0.0022988,0.0055644,4.8198e-09,0.36,0.76,0
0.015555,0.015011,0.0053992,-0.00010232,0.0015891,0.0016976,0,0,0.049532,-0.021988,0,0.044137,0,0,0,0.0058813,-0.00058439,0.0015891,15.839,0.0022953,0.0056988,5.0602e-09,0.38,0.76,0
0.016557,0.016228,0.0054864,-0.00019213,0.0015883,0.0016951,0,0,0.050676,-0.023145,0,0.044073,0,0,0,0.0059545,-0.00066017,0.0015883,15.418,0.0022942,0.0058255,5.2959e-09,0.4,0.76,0
0.017582,0.017449,0.0055771,-0.00027818,0.0015897,0.0016789,0,0,0.051837,-0.024282,0,0.043651,0,0,0,0.006025,-0.00072603,0.0015897,14.915,0.0022962,0.0059418,5.5232e-09,0.42,0.76,0
0.01863,0.018666,0.00567,-0.00035683,0.0015939,0.0016489,0,0,0.052988,-0.02536,0,0.042871,0,0,0,0.0060923,-0.00077917,0.0015939,14.342,0.0023024,0.006045,5.7388e-09,0.44,0.76,0
0.019701,0.019872,0.0057634,-0.00042395,0.0016018,0.0016059,0,0,0.0541,-0.026335,0,0.041755,0,0,0,0.0061562,-0.00081672,0.0016018,13.715,0.0023138,0.0061324,5.9393e-09,0.46,0.76,0
0.020794,0.02106,0.0058557,-0.00047524,0.0016141,0.0015517,0,0,0.05514,-0.027162,0,0.040344,0,0,0,0.0062164,-0.0008359,0.0016141,13.054,0.0023315,0.0062015,6.1218e-09,0.48,0.76,0
0.021907,0.022224,0.0059453,-0.00050662,0.0016316,0.0014887,0,0,0.056078,-0.027797,0,0.038706,0,0,0,0.006273,-0.00083432,0.0016316,12.383,0.0023568,0.0062505,6.2839e-09,0.5,0.76,0
0.023037,0.023361,0.0060308,-0.00051461,0.0016549,0.0014202,0,0,0.056887,-0.028203,0,0.036926,0,0,0,0.0063264,-0.00081021,0.0016549,11.726,0.0023904,0.0062782,6.4241e-09,0.52,0.76,0
0.024182,0.024467,0.0061112,-0.00049668,0.0016844,0.0013503,0,0,0.057549,-0.028354,0,0.035108,0,0,0,0.0063772,-0.00076259,0.0016844,11.11,0.002433,0.0062844,6.5413e-09,0.54,0.76,0
0.025339,0.025542,0.0061861,-0.00045143,0.0017204,0.0012832,0,0,0.058054,-0.028234,0,0.033363,0,0,0,0.006426,-0.00069137,0.0017204,10.565,0.002485,0.0062697,6.6352e-09,0.56,0.76,0
0.026505,0.026585,0.0062551,-0.00037866,0.0017629,0.0012232,0,0,0.058398,-0.027841,0,0.031804,0,0,0,0.0064739,-0.00059742,0.0017629,10.118,0.0025465,0.0062358,6.7061e-09,0.58,0.76,0
0.027675,0.027601,0.0063188,-0.00027937,0.0018118,0.0011747,0,0,0.058591,-0.027186,0,0.030542,0,0,0,0.006522,-0.00048255,0.0018118,9.7965,0.0026171,0.0061853,6.7557e-09,0.6,0.76,0
0.028848,0.028592,0.0063777,-0.00015565,0.0018666,0.0011413,0,0,0.058644,-0.02629,0,0.029675,0,0,0,0.0065716,-0.00034953,0.0018666,9.628,0.0026962,0.0061218,6.787e-09,0.62,0.76,0
0.030021,0.029566,0.0064329,-1.0588e-05,0.0019267,0.0011264,0,0,0.058581,-0.025185,0,0.029286,0,0,0,0.0066244,-0.00020206,0.0019267,9.636,0.002783,0.00605,6.8055e-09,0.64,0.76,0
0.031191,0.03053,0.0064855,0.00015196,0.0019912,0.0011321,0,0,0.058425,-0.023911,0,0.029434,0,0,0,0.0066821,-4.4682e-05,0.0019912,9.8392,0.0028762,0.0059751,6.8188e-09,0.66,0.76,0
0.032358,0.031491,0.0065366,0.00032764,0.0020593,0.0011597,0,0,0.058206,-0.022511,0,0.030153,0,0,0,0.0067468,0.0001175,0.0020593,10.248,0.0029745,0.0059032,6.8368e-09,0.68,0.76,0
0.03352,0.032457,0.0065873,0.00051205,0.0021298,0.0012094,0,0,0.057948,-0.021031,0,0.031444,0,0,0,0.0068201,0.00027925,0.0021298,10.863,0.0030764,0.00584,6.871e-09,0.7,0.76,0
0.034676,0.033438,0.0066382,0.00070119,0.0022018,0.0012799,0,0,0.057673,-0.019508,0,0.033276,0,0,0,0.0069036,0.00043576,0.0022018,11.672,0.0031804,0.0057907,6.9324e-09,0.72,0.76,0
0.035827,0.034439,0.0066893,0.00089189,0.0022743,0.0013688,0,0,0.057394,-0.017972,0,0.035589,0,0,0,0.0069978,0.0005833,0.0022743,12.649,0.0032852,0.0057586,7.0299e-09,0.74,0.76,0
0.036972,0.035468,0.0067398,0.0010821,0.0023466,0.001473,0,0,0.057112,-0.016438,0,0.038298,0,0,0,0.0071023,0.00071957,0.0023466,13.764,0.0033895,0.0057449,7.1685e-09,0.76,0.76,0
0.038111,0.03653,0.0067886,0.0012709,0.0024178,0.0015885,0,0,0.056819,-0.014911,0,0.041301,0,0,0,0.0072155,0.00084397,0.0024178,14.976,0.0034924,0.0057486,7.3476e-09,0.78,0.76,0
0.039244,0.037627,0.0068336,0.0014582,0.0024875,0.0017111,0,0,0.056499,-0.013381,0,0.044488,0,0,0,0.0073344,0.00095737,0.0024875,16.25,0.0035931,0.0057664,7.5606e-09,0.8,0.76,0
0.040371,0.038761,0.0068727,0.0016445,0.0025552,0.001836,0,0,0.056128,-0.011838,0,0.047736,0,0,0,0.0074554,0.0010618,0.0025552,17.549,0.0036908,0.0057932,7.795e-09,0.82,0.76,0
0.04149,0.039932,0.0069037,0.0018303,0.0026202,0.0019587,0,0,0.055685,-0.010268,0,0.050926,0,0,0,0.0075741,0.0011599,0.0026202,18.844,0.0037847,0.0058232,8.0335e-09,0.84,0.76,0
0.042598,0.041136,0.0069249,0.0020154,0.0026821,0.0020743,0,0,0.055156,-0.0086669,0,0.053931,0,0,0,0.0076859,0.0012543,0.0026821,20.106,0.0038741,0.00585,8.256e-09,0.86,0.76,0
0.043696,0.042371,0.0069354,0.0021982,0.0027401,0.0021782,0,0,0.054539,-0.0070447,0,0.056632,0,0,0,0.0077864,0.0013472,0.0027401,21.308,0.0039579,0.0058682,8.4418e-09,0.88,0.76,0
0.04478,0.043629,0.0069354,0.0023754,0.0027932,0.0022661,0,0,0.053849,-0.0054325,0,0.058918,0,0,0,0.0078714,0.0014394,0.0027932,22.419,0.0040347,0.0058734,8.5729e-09,0.9,0.76,0
0.04585,0.044903,0.0069267,0.0025416,0.0028405,0.0023345,0,0,0.05312,-0.0038857,0,0.060697,0,0,0,0.0079378,0.0015304,0.0028405,23.405,0.0041029,0.0058632,8.6368e-09,0.92,0.76,0
0.046905,0.046185,0.006912,0.0026894,0.0028804,0.002381,0,0,0.05241,-0.0024831,0,0.061906,0,0,0,0.0079835,0.0016178,0.0028804,24.223,0.0041606,0.0058378,8.63e-09,0.94,0.76,0
0.047946,0.047467,0.0068953,0.0028099,0.0029116,0.0024047,0,0,0.051789,-0.0013217,0,0.062521,0,0,0,0.0080081,0.0016971,0.0029116,24.83,0.0042056,0.0057999,8.5594e-09,0.96,0.76,0
0.048976,0.048739,0.0068828,0.0028942,0.0029331,0.0024123,0,0,0.051346,-0.00050547,0,0.062719,0,0,0,0.0080185,0.0017585,0.0029331,25.211,0.0042367,0.0057632,8.4721e-09,0.98,0.76,0
0.049489,0.049372,0.0068784,0.0029263,0.0029414,0.0024137,0,0,0.051181,-0.00019673,0,0.062757,0,0,0,0.0080218,0.0017829,0.0029414,25.347,0.0042487,0.0057479,8.4343e-09,1,0.76,0
0.00031071,9.1213e-05,0.0041726,0.0016855,0.0017574,0.00035944,0,0,0.031397,-0.00093501,0,0.0093454,0,0,0,0.0042241,0.001634,0.0017574,8.0339,0.0025385,0.0025314,8.2845e-10,0,0.78,0
0.00062794,0.00019992,0.0041849,0.0015916,0.001733,0.00038605,0,0,0.031875,-0.0018376,0,0.010037,0,0,0,0.0042419,0.0015346,0.001733,8.2421,0.0025032,0.0026151,9.0348e-10,0.02,0.78,0
0.001275,0.0004529,0.0042312,0.0014203,0.0016954,0.00045858,0,0,0.032965,-0.003577,0,0.011923,0,0,0,0.004305,0.0013464,0.0016954,8.9678,0.002449,0.0028016,1.0751e-09,0.04,0.78,0
0.0019465,0.00077785,0.0042974,0.0012721,0.0016709,0.00055251,0,0,0.034145,-0.005184,0,0.014365,0,0,0,0.004396,0.0011735,0.0016709,9.9777,0.0024135,0.0030057,1.2713e-09,0.06,0.78,0
0.0026408,0.001176,0.0043604,0.0011371,0.0016492,0.00064956,0,0,0.035245,-0.0066585,0,0.016889,0,0,0,0.0044871,0.0010104,0.0016492,10.931,0.0023822,0.0032061,1.473e-09,0.08,0.78,0
0.0033563,0.0016477,0.0044204,0.0010148,0.0016306,0.00074771,0,0,0.036268,-0.0080048,0,0.019441,0,0,0,0.004578,0.00085726,0.0016306,11.817,0.0023553,0.0034011,1.6783e-09,0.1,0.78,0
0.0040916,0.0021923,0.0044778,0.00090461,0.0016147,0.0008452,0,0,0.03722,-0.0092316,0,0.021975,0,0,0,0.0046682,0.00071423,0.0016147,12.629,0.0023324,0.0035898,1.8858e-09,0.12,0.78,0
0.0048452,0.0028085,0.0045333,0.00080522,0.0016015,0.00094053,0,0,0.038112,-0.010352,0,0.024454,0,0,0,0.0047575,0.00058092,0.0016015,13.363,0.0023133,0.0037716,2.0948e-09,0.14,0.78,0
0.0056161,0.0034945,0.0045875,0.00071516,0.0015908,0.0010325,0,0,0.038957,-0.011383,0,0.026845,0,0,0,0.0048459,0.00045669,0.0015908,14.015,0.0022978,0.0039466,2.3047e-09,0.16,0.78,0
0.0064034,0.0042474,0.0046414,0.00063273,0.0015822,0.0011201,0,0,0.039769,-0.012344,0,0.029123,0,0,0,0.0049335,0.00034066,0.0015822,14.583,0.0022855,0.0041151,2.5158e-09,0.18,0.78,0
0.0072068,0.0050642,0.004696,0.0005561,0.0015756,0.0012027,0,0,0.040564,-0.013254,0,0.031269,0,0,0,0.0050202,0.00023182,0.0015756,15.066,0.0022759,0.004278,2.7285e-09,0.2,0.78,0
0.008026,0.0059414,0.0047521,0.00048346,0.0015707,0.0012795,0,0,0.041359,-0.014134,0,0.033266,0,0,0,0.0051064,0.00012912,0.0015707,15.46,0.0022687,0.004436,2.9436e-09,0.22,0.78,0
0.0088612,0.006875,0.0048108,0.00041309,0.0015672,0.00135,0,0,0.042167,-0.015003,0,0.0351,0,0,0,0.0051923,3.1559e-05,0.0015672,15.765,0.0022637,0.0045899,3.1618e-09,0.24,0.78,0
0.0097127,0.0078605,0.0048727,0.00034341,0.0015648,0.0014136,0,0,0.043003,-0.015879,0,0.036754,0,0,0,0.0052779,-6.1733e-05,0.0015648,15.979,0.0022603,0.0047405,3.3838e-09,0.26,0.78,0
0.010581,0.0088933,0.0049388,0.00027313,0.0015636,0.0014697,0,0,0.043878,-0.016776,0,0.038212,0,0,0,0.0053633,-0.00015139,0.0015636,16.099,0.0022585,0.0048884,3.6101e-09,0.28,0.78,0
0.011468,0.0099682,0.0050095,0.00020128,0.0015632,0.0015175,0,0,0.044802,-0.017706,0,0.039454,0,0,0,0.0054486,-0.00023777,0.0015632,16.125,0.002258,0.0050337,3.8408e-09,0.3,0.78,0
0.012373,0.01108,0.0050853,0.0001273,0.0015638,0.0015561,0,0,0.04578,-0.018674,0,0.040459,0,0,0,0.0055335,-0.00032087,0.0015638,16.055,0.0022588,0.0051762,4.0757e-09,0.32,0.78,0
0.013299,0.012222,0.0051663,5.1173e-05,0.0015653,0.0015847,0,0,0.046814,-0.019683,0,0.041202,0,0,0,0.0056178,-0.0004003,0.0015653,15.888,0.0022609,0.0053153,4.3137e-09,0.34,0.78,0
0.014246,0.013388,0.0052525,-2.6555e-05,0.0015678,0.0016024,0,0,0.047901,-0.020726,0,0.041661,0,0,0,0.0057012,-0.00047525,0.0015678,15.628,0.0022646,0.0054501,4.5535e-09,0.36,0.78,0
0.015215,0.014572,0.0053433,-0.00010468,0.0015716,0.0016083,0,0,0.049033,-0.021792,0,0.041815,0,0,0,0.0057832,-0.0005445,0.0015716,15.277,0.0022701,0.0055792,4.793e-09,0.38,0.78,0
0.016207,0.015767,0.0054382,-0.00018135,0.001577,0.0016018,0,0,0.050195,-0.022859,0,0.041647,0,0,0,0.0058633,-0.00060645,0.001577,14.841,0.002278,0.0057008,5.0298e-09,0.4,0.78,0
0.017223,0.016967,0.005536,-0.00025407,0.0015846,0.0015828,0,0,0.051368,-0.023902,0,0.041153,0,0,0,0.0059411,-0.00065918,0.0015846,14.331,0.0022888,0.0058128,5.2611e-09,0.42,0.78,0
0.018262,0.018163,0.0056355,-0.00031983,0.0015947,0.0015516,0,0,0.052531,-0.024889,0,0.04034,0,0,0,0.0060163,-0.00070056,0.0015947,13.759,0.0023035,0.0059133,5.4841e-09,0.44,0.78,0
0.019324,0.01935,0.0057353,-0.00037528,0.001608,0.001509,0,0,0.053655,-0.025783,0,0.039234,0,0,0,0.0060884,-0.0007284,0.001608,13.139,0.0023227,0.0060001,5.6959e-09,0.46,0.78,0
0.020408,0.020523,0.0058339,-0.00041696,0.0016251,0.0014567,0,0,0.054714,-0.026546,0,0.037875,0,0,0,0.0061575,-0.0007406,0.0016251,12.492,0.0023473,0.0060714,5.8939e-09,0.48,0.78,0
0.021513,0.021675,0.0059298,-0.00044161,0.0016465,0.0013972,0,0,0.055684,-0.027145,0,0.036328,0,0,0,0.0062236,-0.00073534,0.0016465,11.837,0.0023782,0.0061258,6.076e-09,0.5,0.78,0
0.022636,0.022804,0.006022,-0.00044642,0.0016727,0.0013334,0,0,0.056541,-0.027548,0,0.034669,0,0,0,0.0062868,-0.00071126,0.0016727,11.198,0.0024161,0.0061623,6.2403e-09,0.52,0.78,0
0.023774,0.023906,0.0061095,-0.00042933,0.001704,0.0012689,0,0,0.057271,-0.027734,0,0.032991,0,0,0,0.0063477,-0.00066759,0.001704,10.601,0.0024614,0.0061808,6.3856e-09,0.54,0.78,0
0.024926,0.024982,0.0061918,-0.00038912,0.0017408,0.0012075,0,0,0.057863,-0.027689,0,0.031394,0,0,0,0.0064069,-0.00060423,0.0017408,10.071,0.0025145,0.0061818,6.5114e-09,0.56,0.78,0
0.026089,0.026033,0.0062688,-0.00032558,0.001783,0.0011531,0,0,0.058316,-0.027411,0,0.02998,0,0,0,0.006465,-0.00052183,0.001783,9.6336,0.0025754,0.0061665,6.618e-09,0.58,0.78,0
0.027259,0.02706,0.0063408,-0.00023941,0.0018304,0.0011096,0,0,0.058635,-0.026908,0,0.028849,0,0,0,0.0065232,-0.00042182,0.0018304,9.3148,0.0026439,0.0061372,6.7069e-09,0.6,0.78,0
0.028434,0.028067,0.0064085,-0.00013226,0.0018829,0.0010804,0,0,0.058833,-0.026197,0,0.02809,0,0,0,0.0065827,-0.0003064,0.0018829,9.1388,0.0027197,0.0060968,6.7809e-09,0.62,0.78,0
0.029612,0.029061,0.0064728,-6.5063e-06,0.0019399,0.0010685,0,0,0.058928,-0.025303,0,0.027781,0,0,0,0.0066448,-0.00017848,0.0019399,9.127,0.0028021,0.0060491,6.8448e-09,0.64,0.78,0
0.030791,0.030048,0.0065346,0.00013488,0.0020008,0.0010761,0,0,0.058939,-0.024258,0,0.027979,0,0,0,0.0067111,-4.164e-05,0.0020008,9.2963,0.0028901,0.0059984,6.9051e-09,0.66,0.78,0
0.03197,0.031034,0.006595,0.00028862,0.0020651,0.0011046,0,0,0.058889,-0.023094,0,0.028718,0,0,0,0.0067835,0.00010015,0.0020651,9.6572,0.0029829,0.0059496,6.9705e-09,0.68,0.78,0
0.033147,0.032028,0.0066548,0.00045148,0.0021319,0.0011541,0,0,0.058798,-0.021845,0,0.030007,0,0,0,0.0068635,0.00024283,0.0021319,10.212,0.0030794,0.0059073,7.0503e-09,0.7,0.78,0
0.034322,0.033037,0.0067145,0.00062059,0.0022005,0.0012242,0,0,0.058681,-0.020539,0,0.031828,0,0,0,0.0069524,0.00038263,0.0022005,10.953,0.0031785,0.0058758,7.1542e-09,0.72,0.78,0
0.035494,0.034068,0.0067738,0.00079377,0.0022703,0.001313,0,0,0.058546,-0.019194,0,0.034139,0,0,0,0.007051,0.00051655,0.0022703,11.863,0.0032793,0.0058581,7.2899e-09,0.74,0.78,0
0.036664,0.035126,0.0068321,0.00096974,0.0023405,0.0014182,0,0,0.05839,-0.01782,0,0.036874,0,0,0,0.0071591,0.00064269,0.0023405,12.92,0.0033808,0.0058553,7.4625e-09,0.76,0.78,0
0.03783,0.036217,0.0068879,0.0011481,0.0024108,0.0015365,0,0,0.058202,-0.016415,0,0.03995,0,0,0,0.0072756,0.0007604,0.0024108,14.092,0.0034823,0.0058669,7.6721e-09,0.78,0.78,0
0.038992,0.037344,0.0069391,0.0013293,0.0024805,0.0016642,0,0,0.057962,-0.014966,0,0.043268,0,0,0,0.0073982,0.00087031,0.0024805,15.35,0.003583,0.0058903,7.9135e-09,0.8,0.78,0
0.040148,0.038509,0.0069835,0.0015142,0.0025493,0.0017968,0,0,0.057645,-0.013457,0,0.046716,0,0,0,0.0075236,0.00097413,0.0025493,16.662,0.0036823,0.0059213,8.1755e-09,0.82,0.78,0
0.041297,0.039711,0.0070185,0.0017034,0.0026166,0.0019295,0,0,0.057225,-0.011871,0,0.050166,0,0,0,0.0076477,0.0010743,0.0026166,17.999,0.0037795,0.0059542,8.4411e-09,0.84,0.78,0
0.042437,0.040949,0.0070421,0.001897,0.0026817,0.0020569,0,0,0.056685,-0.010201,0,0.05348,0,0,0,0.0077658,0.0011734,0.0026817,19.332,0.0038736,0.0059827,8.6889e-09,0.86,0.78,0
0.043565,0.042217,0.0070529,0.0020936,0.002744,0.0021734,0,0,0.056017,-0.0084545,0,0.056509,0,0,0,0.0078728,0.0012738,0.002744,20.627,0.0039635,0.0060007,8.8948e-09,0.88,0.78,0
0.044678,0.043509,0.007051,0.0022896,0.0028022,0.0022732,0,0,0.055235,-0.0066636,0,0.059104,0,0,0,0.0079638,0.0013768,0.0028022,21.849,0.0040476,0.0060027,9.0354e-09,0.9,0.78,0
0.045774,0.044816,0.007038,0.0024788,0.002855,0.0023511,0,0,0.054379,-0.0048915,0,0.061129,0,0,0,0.0080346,0.0014823,0.002855,22.952,0.004124,0.0059853,9.0924e-09,0.92,0.78,0
0.046853,0.046129,0.0070172,0.0026522,0.0029008,0.0024031,0,0,0.053513,-0.0032321,0,0.062481,0,0,0,0.0080818,0.0015876,0.0029008,23.886,0.0041901,0.0059475,9.057e-09,0.94,0.78,0
0.047915,0.047436,0.0069932,0.0027988,0.0029376,0.0024272,0,0,0.052723,-0.0018042,0,0.063106,0,0,0,0.0081041,0.0016879,0.0029376,24.592,0.0042432,0.0058917,8.9341e-09,0.96,0.78,0
0.048962,0.048727,0.0069751,0.0029085,0.0029651,0.0024323,0,0,0.05213,-0.00073571,0,0.06324,0,0,0,0.0081122,0.0017714,0.0029651,25.056,0.0042829,0.0058363,8.7901e-09,0.98,0.78,0
0.049482,0.049367,0.0069692,0.002953,0.0029767,0.0024325,0,0,0.051903,-0.00030728,0,0.063246,0,0,0,0.0081155,0.0018068,0.0029767,25.231,0.0042996,0.0058127,8.7279e-09,1,0.78,0
0.00029746,7.2018e-05,0.0039935,0.0016032,0.001679,0.00028593,0,0,0.030088,-0.00098512,0,0.0074342,0,0,0,0.004028,0.0015687,0.001679,6.6917,0.0024252,0.0024069,7.1296e-10,0,0.8,0
0.00060176,0.00016225,0.0040064,0.0015048,0.0016534,0.00031356,0,0,0.03059,-0.0019312,0,0.0081527,0,0,0,0.0040461,0.0014652,0.0016534,6.974,0.0023882,0.0024937,7.8382e-10,0.02,0.8,0
0.0012236,0.0003797,0.0040551,0.0013264,0.0016144,0.00038887,0,0,0.031729,-0.003745,0,0.010111,0,0,0,0.0041107,0.0012708,0.0016144,7.8699,0.002332,0.0026858,9.4491e-10,0.04,0.8,0
0.0018709,0.000672,0.0041249,0.0011741,0.0015897,0.00048626,0,0,0.032957,-0.0054027,0,0.012643,0,0,0,0.004204,0.001095,0.0015897,9.054,0.0022962,0.0028944,1.1283e-09,0.06,0.8,0
0.0025419,0.0010403,0.0041913,0.0010372,0.0015686,0.0005866,0,0,0.034095,-0.006907,0,0.015252,0,0,0,0.0042977,0.00093078,0.0015686,10.149,0.0022657,0.0030983,1.3167e-09,0.08,0.8,0
0.0032347,0.0014849,0.0042547,0.00091523,0.001551,0.00068761,0,0,0.035149,-0.0082649,0,0.017878,0,0,0,0.0043915,0.00077842,0.001551,11.149,0.0022403,0.0032959,1.5085e-09,0.1,0.8,0
0.0039478,0.002005,0.0043159,0.00080697,0.0015369,0.00078732,0,0,0.036127,-0.0094885,0,0.02047,0,0,0,0.0044851,0.00063777,0.0015369,12.05,0.0022199,0.0034862,1.7026e-09,0.12,0.8,0
0.0046798,0.002599,0.0043755,0.00071096,0.0015259,0.00088403,0,0,0.037044,-0.010595,0,0.022985,0,0,0,0.0045781,0.00050831,0.0015259,12.851,0.0022041,0.0036687,1.8984e-09,0.14,0.8,0
0.0054296,0.0032644,0.0044346,0.00062538,0.001518,0.00097643,0,0,0.037915,-0.011604,0,0.025387,0,0,0,0.0046707,0.00038924,0.001518,13.549,0.0021926,0.0038437,2.0958e-09,0.16,0.8,0
0.0061964,0.0039984,0.004494,0.00054824,0.0015127,0.0010635,0,0,0.038758,-0.012538,0,0.027651,0,0,0,0.0047628,0.0002795,0.0015127,14.145,0.002185,0.0040116,2.2951e-09,0.18,0.8,0
0.0069799,0.0047973,0.004555,0.00047753,0.0015098,0.0011445,0,0,0.039588,-0.013419,0,0.029757,0,0,0,0.0048545,0.00017797,0.0015098,14.64,0.0021808,0.0041733,2.4969e-09,0.2,0.8,0
0.0077799,0.0056571,0.0046183,0.00041133,0.0015089,0.0012188,0,0,0.040422,-0.014268,0,0.031689,0,0,0,0.0049461,8.3484e-05,0.0015089,15.032,0.0021795,0.0043297,2.7019e-09,0.22,0.8,0
0.0085968,0.0065736,0.0046848,0.00034788,0.0015098,0.001286,0,0,0.041275,-0.015105,0,0.033437,0,0,0,0.0050377,-5.0074e-06,0.0015098,15.325,0.0021808,0.0044817,2.911e-09,0.24,0.8,0
0.009431,0.0075419,0.0047552,0.00028565,0.0015123,0.0013456,0,0,0.042158,-0.015946,0,0.034986,0,0,0,0.0051293,-8.8404e-05,0.0015123,15.518,0.0021844,0.0046298,3.1248e-09,0.26,0.8,0
0.010283,0.0085571,0.0048301,0.00022343,0.0015161,0.0013971,0,0,0.043082,-0.016804,0,0.036324,0,0,0,0.0052209,-0.00016738,0.0015161,15.612,0.0021899,0.0047746,3.3437e-09,0.28,0.8,0
0.011154,0.0096138,0.0049098,0.00016034,0.001521,0.0014399,0,0,0.044054,-0.017689,0,0.037436,0,0,0,0.0053125,-0.00024233,0.001521,15.608,0.0021971,0.0049163,3.5678e-09,0.3,0.8,0
0.012045,0.010706,0.0049946,9.5917e-05,0.0015271,0.0014733,0,0,0.045076,-0.018606,0,0.038305,0,0,0,0.0054038,-0.00031335,0.0015271,15.508,0.0022059,0.0050548,3.7969e-09,0.32,0.8,0
0.012957,0.011829,0.0050843,3.0157e-05,0.0015343,0.0014967,0,0,0.046149,-0.019554,0,0.038914,0,0,0,0.0054947,-0.00038019,0.0015343,15.314,0.0022163,0.0051896,4.0302e-09,0.34,0.8,0
0.013891,0.012975,0.0051788,-3.6431e-05,0.0015427,0.0015095,0,0,0.047269,-0.020529,0,0.039247,0,0,0,0.0055846,-0.00044229,0.0015427,15.029,0.0022284,0.0053199,4.2665e-09,0.36,0.8,0
0.014848,0.014139,0.0052775,-0.0001028,0.0015524,0.0015111,0,0,0.048426,-0.021518,0,0.039289,0,0,0,0.0056734,-0.00049872,0.0015524,14.658,0.0022424,0.0054445,4.5042e-09,0.38,0.8,0
0.015828,0.015314,0.0053796,-0.00016738,0.0015637,0.0015013,0,0,0.049607,-0.022504,0,0.039033,0,0,0,0.0057605,-0.00054828,0.0015637,14.209,0.0022586,0.0055622,4.7412e-09,0.4,0.8,0
0.016832,0.016493,0.0054842,-0.0002281,0.0015768,0.0014801,0,0,0.050796,-0.023464,0,0.038482,0,0,0,0.0058457,-0.00058954,0.0015768,13.693,0.0022777,0.0056714,4.9754e-09,0.42,0.8,0
0.01786,0.01767,0.0055901,-0.0002825,0.0015923,0.0014479,0,0,0.051972,-0.024372,0,0.037646,0,0,0,0.0059285,-0.00062089,0.0015923,13.12,0.0023,0.0057705,5.2043e-09,0.44,0.8,0
0.018911,0.01884,0.005696,-0.00032787,0.0016104,0.0014059,0,0,0.053112,-0.025198,0,0.036554,0,0,0,0.0060088,-0.0006407,0.0016104,12.507,0.0023262,0.0058579,5.4255e-09,0.46,0.8,0
0.019985,0.019998,0.0058006,-0.00036145,0.0016317,0.0013557,0,0,0.054195,-0.025912,0,0.035248,0,0,0,0.0060865,-0.00064739,0.0016317,11.871,0.002357,0.0059324,5.6369e-09,0.48,0.8,0
0.021079,0.021139,0.0059027,-0.00038063,0.0016566,0.0012994,0,0,0.055199,-0.026484,0,0.033786,0,0,0,0.0061617,-0.00063961,0.0016566,11.231,0.0023929,0.0059928,5.8365e-09,0.5,0.8,0
0.022193,0.022259,0.0060013,-0.00038317,0.0016854,0.0012399,0,0,0.056106,-0.026892,0,0.032238,0,0,0,0.0062344,-0.00061631,0.0016854,10.608,0.0024345,0.0060384,6.0225e-09,0.52,0.8,0
0.023323,0.023358,0.0060956,-0.00036738,0.0017185,0.0011803,0,0,0.056903,-0.027116,0,0.030688,0,0,0,0.0063051,-0.0005769,0.0017185,10.027,0.0024822,0.0060692,6.1939e-09,0.54,0.8,0
0.024469,0.024434,0.0061853,-0.00033226,0.0017559,0.001124,0,0,0.057582,-0.027146,0,0.029225,0,0,0,0.0063743,-0.00052129,0.0017559,9.5104,0.0025363,0.0060855,6.3502e-09,0.56,0.8,0
0.025627,0.025489,0.0062703,-0.00027758,0.0017978,0.0010747,0,0,0.058143,-0.02698,0,0.027942,0,0,0,0.0064427,-0.00044997,0.0017978,9.0818,0.0025969,0.0060885,6.4916e-09,0.58,0.8,0
0.026794,0.026524,0.006351,-0.00020384,0.0018442,0.0010357,0,0,0.058589,-0.026624,0,0.026928,0,0,0,0.0065112,-0.00036403,0.0018442,8.7649,0.0026638,0.0060798,6.6195e-09,0.6,0.8,0
0.02797,0.027545,0.0064279,-0.00011227,0.0018947,0.0010102,0,0,0.058932,-0.026091,0,0.026266,0,0,0,0.0065808,-0.00026515,0.0018947,8.5815,0.0027368,0.0060619,6.7366e-09,0.62,0.8,0
0.029152,0.028554,0.006502,-4.6772e-06,0.0019492,0.0010011,0,0,0.059186,-0.0254,0,0.026028,0,0,0,0.0066529,-0.00015561,0.0019492,8.5511,0.0028155,0.0060379,6.8471e-09,0.64,0.8,0
0.030338,0.02956,0.006574,0.00011673,0.0020072,0.0010103,0,0,0.059368,-0.024576,0,0.026269,0,0,0,0.0067289,-3.8139e-05,0.0020072,8.6893,0.0028993,0.0060113,6.9568e-09,0.66,0.8,0
0.031526,0.030567,0.006645,0.00024955,0.0020684,0.0010394,0,0,0.059496,-0.023644,0,0.027025,0,0,0,0.0068103,8.4211e-05,0.0020684,9.0065,0.0029876,0.0059861,7.0731e-09,0.68,0.8,0
0.032717,0.031583,0.0067156,0.00039149,0.0021321,0.001089,0,0,0.059585,-0.022628,0,0.028313,0,0,0,0.0068988,0.00020832,0.0021321,9.5064,0.0030797,0.005966,7.2042e-09,0.7,0.8,0
0.03391,0.032616,0.0067862,0.00054059,0.002198,0.0011587,0,0,0.059646,-0.021547,0,0.030127,0,0,0,0.0069955,0.0003313,0.002198,10.185,0.0031749,0.0059546,7.3586e-09,0.72,0.8,0
0.035103,0.033671,0.0068566,0.00069553,0.0022656,0.0012477,0,0,0.059683,-0.020411,0,0.032441,0,0,0,0.0071013,0.00045081,0.0022656,11.033,0.0032726,0.0059544,7.5434e-09,0.74,0.8,0
0.036297,0.034756,0.006926,0.00085577,0.0023345,0.0013542,0,0,0.059689,-0.019224,0,0.03521,0,0,0,0.0072164,0.00056535,0.0023345,12.032,0.0033721,0.0059667,7.7636e-09,0.76,0.8,0
0.037491,0.035873,0.0069928,0.0010216,0.0024043,0.0014757,0,0,0.05965,-0.017975,0,0.038368,0,0,0,0.0073399,0.00067443,0.0024043,13.16,0.0034729,0.005991,8.0202e-09,0.78,0.8,0
0.038683,0.037029,0.0070548,0.001194,0.0024746,0.001609,0,0,0.059542,-0.016648,0,0.041833,0,0,0,0.0074701,0.00077866,0.0024746,14.394,0.0035745,0.0060253,8.3088e-09,0.8,0.8,0
0.039872,0.038223,0.0071092,0.0013744,0.0025451,0.0017501,0,0,0.059334,-0.015219,0,0.045502,0,0,0,0.007604,0.00087968,0.0025451,15.709,0.0036763,0.0060657,8.619e-09,0.82,0.8,0
0.041056,0.039457,0.0071532,0.0015644,0.0026153,0.0018942,0,0,0.058993,-0.013662,0,0.049249,0,0,0,0.0077376,0.00097993,0.0026153,17.077,0.0037776,0.0061067,8.9335e-09,0.84,0.8,0
0.042232,0.040728,0.0071838,0.0017646,0.0026845,0.0020355,0,0,0.058491,-0.011959,0,0.052923,0,0,0,0.0078661,0.0010824,0.0026845,18.469,0.0038777,0.0061416,9.2285e-09,0.86,0.8,0
0.043396,0.042033,0.0071991,0.0019744,0.0027521,0.0021673,0,0,0.057812,-0.010109,0,0.056349,0,0,0,0.0079837,0.0011898,0.0027521,19.853,0.0039752,0.0061633,9.4748e-09,0.88,0.8,0
0.044545,0.043362,0.0071984,0.0021905,0.0028167,0.002282,0,0,0.056963,-0.0081407,0,0.059333,0,0,0,0.0080846,0.0013043,0.0028167,21.186,0.0040685,0.006165,9.6416e-09,0.9,0.8,0
0.045675,0.044707,0.0071832,0.002406,0.0028767,0.0023725,0,0,0.055984,-0.00612,0,0.061685,0,0,0,0.008163,0.0014262,0.0028767,22.417,0.0041553,0.0061415,9.7018e-09,0.92,0.8,0
0.046784,0.046056,0.0071569,0.0026103,0.0029301,0.0024325,0,0,0.054947,-0.0041582,0,0.063245,0,0,0,0.0082142,0.001553,0.0029301,23.482,0.0042324,0.0060907,9.639e-09,0.94,0.8,0
0.047873,0.047395,0.007125,0.0027895,0.0029743,0.0024584,0,0,0.053959,-0.0024034,0,0.063919,0,0,0,0.0082355,0.001679,0.0029743,24.307,0.0042963,0.0060145,9.4554e-09,0.96,0.8,0
0.048942,0.04871,0.0071008,0.002931,0.0030095,0.0024616,0,0,0.053186,-0.0010209,0,0.064002,0,0,0,0.008242,0.0017898,0.0030095,24.874,0.0043471,0.0059372,9.2423e-09,0.98,0.8,0
0.049473,0.04936,0.0070931,0.0029912,0.0030253,0.0024607,0,0,0.052882,-0.00044352,0,0.063977,0,0,0,0.0082455,0.0018387,0.0030253,25.096,0.0043698,0.0059037,9.1497e-09,1,0.8,0
0.00028358,5.1808e-05,0.0038061,0.0015174,0.001597,0.00020852,0,0,0.028717,-0.0010357,0,0.0054215,0,0,0,0.0038259,0.0014975,0.001597,5.1159,0.0023068,0.0022813,6.0764e-10,0,0.82,0
0.00057435,0.00012268,0.0038196,0.0014144,0.0015702,0.00023728,0,0,0.029242,-0.0020256,0,0.0061693,0,0,0,0.0038441,0.0013899,0.0015702,5.4976,0.0022681,0.0023709,6.737e-10,0.02,0.82,0
0.0011697,0.0003031,0.0038707,0.0012287,0.0015298,0.00031562,0,0,0.030431,-0.0039141,0,0.0082062,0,0,0,0.0039095,0.00119,0.0015298,6.6133,0.0022098,0.0025678,8.2297e-10,0.04,0.82,0
0.0017916,0.00056174,0.0039439,0.0010725,0.0015049,0.00041672,0,0,0.031707,-0.0056212,0,0.010835,0,0,0,0.0040045,0.0010119,0.0015049,8.0118,0.0021738,0.0027799,9.9205e-10,0.06,0.82,0
0.002438,0.00089972,0.0040136,0.00093425,0.0014843,0.00052042,0,0,0.03288,-0.0071512,0,0.013531,0,0,0,0.0041003,0.00084756,0.0014843,9.2745,0.0021441,0.0029863,1.1656e-09,0.08,0.82,0
0.0031068,0.0013171,0.0040803,0.00081312,0.001468,0.00062417,0,0,0.03396,-0.0085138,0,0.016228,0,0,0,0.0041964,0.00069702,0.001468,10.406,0.0021205,0.0031851,1.3424e-09,0.1,0.82,0
0.0037963,0.0018127,0.004145,0.00070773,0.0014558,0.00072572,0,0,0.034959,-0.009725,0,0.018869,0,0,0,0.0042927,0.00056004,0.0014558,11.407,0.0021028,0.0033754,1.5213e-09,0.12,0.82,0
0.0045051,0.0023848,0.0042086,0.00061615,0.0014474,0.00082323,0,0,0.035895,-0.010806,0,0.021404,0,0,0,0.0043888,0.00043588,0.0014474,12.28,0.0020907,0.003557,1.702e-09,0.14,0.82,0
0.0052321,0.0030303,0.0042723,0.00053612,0.0014425,0.00091528,0,0,0.036787,-0.011783,0,0.023797,0,0,0,0.0044849,0.00032346,0.0014425,13.026,0.0020836,0.0037302,1.8848e-09,0.16,0.82,0
0.0059766,0.0037459,0.0043373,0.00046531,0.0014408,0.0010009,0,0,0.037654,-0.012681,0,0.026023,0,0,0,0.0045811,0.00022149,0.0014408,13.649,0.0020811,0.0038959,2.0702e-09,0.18,0.82,0
0.0067383,0.0045275,0.0044046,0.00040146,0.0014418,0.0010795,0,0,0.038516,-0.013525,0,0.028066,0,0,0,0.0046774,0.00012861,0.0014418,14.152,0.0020826,0.0040551,2.259e-09,0.2,0.82,0
0.0075173,0.0053707,0.0044751,0.00034251,0.0014453,0.0011505,0,0,0.039388,-0.014336,0,0.029913,0,0,0,0.0047741,4.3519e-05,0.0014453,14.54,0.0020876,0.0042086,2.4521e-09,0.22,0.82,0
0.0083138,0.0062708,0.0045496,0.00028667,0.0014509,0.0012137,0,0,0.040283,-0.015135,0,0.031557,0,0,0,0.0048712,-3.494e-05,0.0014509,14.817,0.0020957,0.0043576,2.6504e-09,0.24,0.82,0
0.0091286,0.0072227,0.0046285,0.00023244,0.0014583,0.0012688,0,0,0.041213,-0.015936,0,0.032989,0,0,0,0.0049687,-0.00010774,0.0014583,14.987,0.0021064,0.0045026,2.8545e-09,0.26,0.82,0
0.0099623,0.0082211,0.0047123,0.00017867,0.0014673,0.0013154,0,0,0.042185,-0.016752,0,0.0342,0,0,0,0.0050665,-0.00017562,0.0014673,15.054,0.0021194,0.0046441,3.0648e-09,0.28,0.82,0
0.010816,0.0092606,0.004801,0.00012456,0.0014777,0.0013531,0,0,0.043203,-0.01759,0,0.03518,0,0,0,0.0051646,-0.00023906,0.0014777,15.021,0.0021344,0.0047823,3.2815e-09,0.3,0.82,0
0.01169,0.010335,0.0048947,6.9682e-05,0.0014893,0.0013815,0,0,0.04427,-0.018455,0,0.035918,0,0,0,0.0052626,-0.00029824,0.0014893,14.891,0.0021512,0.0049172,3.5042e-09,0.32,0.82,0
0.012587,0.01144,0.0049932,1.4049e-05,0.0015022,0.0014,0,0,0.045383,-0.019346,0,0.036401,0,0,0,0.0053603,-0.00035308,0.0015022,14.669,0.0021698,0.0050483,3.7324e-09,0.34,0.82,0
0.013506,0.012567,0.005096,-4.1902e-05,0.0015162,0.0014084,0,0,0.046537,-0.020256,0,0.036619,0,0,0,0.0054573,-0.00040321,0.0015162,14.361,0.0021901,0.0051751,3.965e-09,0.36,0.82,0
0.014448,0.013712,0.0052026,-9.729e-05,0.0015316,0.0014063,0,0,0.047723,-0.021175,0,0.036565,0,0,0,0.0055533,-0.00044799,0.0015316,13.972,0.0022123,0.0052966,4.2006e-09,0.38,0.82,0
0.015415,0.014867,0.005312,-0.0001508,0.0015484,0.0013937,0,0,0.048928,-0.022089,0,0.036237,0,0,0,0.0056478,-0.00048657,0.0015484,13.511,0.0022365,0.0054119,4.4376e-09,0.4,0.82,0
0.016405,0.016028,0.0054234,-0.00020076,0.0015668,0.0013708,0,0,0.050136,-0.022978,0,0.03564,0,0,0,0.0057405,-0.00051788,0.0015668,12.988,0.0022632,0.0055197,4.6742e-09,0.42,0.82,0
0.01742,0.017188,0.0055357,-0.00024516,0.0015872,0.0013382,0,0,0.051331,-0.02382,0,0.034792,0,0,0,0.0058313,-0.00054077,0.0015872,12.416,0.0022926,0.0056189,4.9083e-09,0.44,0.82,0
0.018459,0.018342,0.0056477,-0.00028185,0.0016097,0.001297,0,0,0.052493,-0.024591,0,0.033721,0,0,0,0.0059199,-0.00055403,0.0016097,11.808,0.0023252,0.0057084,5.138e-09,0.46,0.82,0
0.01952,0.019486,0.0057582,-0.00030862,0.0016349,0.0012487,0,0,0.053604,-0.025266,0,0.032467,0,0,0,0.0060061,-0.00055651,0.0016349,11.182,0.0023615,0.005787,5.3613e-09,0.48,0.82,0
0.020603,0.020616,0.0058664,-0.00032341,0.0016629,0.0011955,0,0,0.054645,-0.025822,0,0.031084,0,0,0,0.0060902,-0.00054721,0.0016629,10.555,0.0024019,0.0058541,5.5765e-09,0.5,0.82,0
0.021706,0.021728,0.0059713,-0.00032444,0.001694,0.0011399,0,0,0.055604,-0.02624,0,0.029638,0,0,0,0.0061722,-0.00052534,0.001694,9.9476,0.002447,0.0059092,5.7823e-09,0.52,0.82,0
0.022827,0.022822,0.0060723,-0.00031035,0.0017286,0.0010847,0,0,0.056468,-0.026506,0,0.028203,0,0,0,0.0062524,-0.00049044,0.0017286,9.3808,0.0024968,0.0059521,5.9776e-09,0.54,0.82,0
0.023964,0.023897,0.0061692,-0.00028032,0.0017667,0.0010331,0,0,0.057233,-0.026611,0,0.026859,0,0,0,0.0063313,-0.00044245,0.0017667,8.876,0.0025519,0.0059834,6.1621e-09,0.56,0.82,0
0.025116,0.024954,0.0062621,-0.00023413,0.0018084,0.00098809,0,0,0.057898,-0.026553,0,0.02569,0,0,0,0.0064097,-0.0003817,0.0018084,8.4552,0.0026121,0.0060038,6.3362e-09,0.58,0.82,0
0.02628,0.025995,0.0063513,-0.00017213,0.0018537,0.00095297,0,0,0.058468,-0.026336,0,0.024777,0,0,0,0.0064882,-0.00030902,0.0018537,8.1394,0.0026776,0.0060149,6.5013e-09,0.6,0.82,0
0.027455,0.027024,0.0064374,-9.52e-05,0.0019027,0.00093061,0,0,0.058951,-0.025972,0,0.024196,0,0,0,0.0065678,-0.00022567,0.0019027,7.9486,0.0027483,0.0060186,6.6599e-09,0.62,0.82,0
0.028638,0.028045,0.0065213,-4.6729e-06,0.001955,0.00092357,0,0,0.059362,-0.025475,0,0.024013,0,0,0,0.0066499,-0.00013336,0.001955,7.9005,0.0028239,0.0060174,6.8159e-09,0.64,0.82,0
0.029829,0.029065,0.0066038,9.7845e-05,0.0020105,0.00093393,0,0,0.059713,-0.024865,0,0.024282,0,0,0,0.0067358,-3.4138e-05,0.0020105,8.0094,0.0029041,0.0060143,6.9747e-09,0.66,0.82,0
0.031027,0.030089,0.006686,0.00021066,0.002069,0.0009632,0,0,0.060021,-0.024158,0,0.025043,0,0,0,0.006827,6.9689e-05,0.002069,8.2856,0.0029886,0.0060124,7.1429e-09,0.68,0.82,0
0.03223,0.031123,0.0067685,0.0003322,0.0021302,0.0010123,0,0,0.060297,-0.023374,0,0.02632,0,0,0,0.0069249,0.00017577,0.0021302,8.7341,0.003077,0.006015,7.328e-09,0.7,0.82,0
0.033439,0.032175,0.0068516,0.00046128,0.0021939,0.0010814,0,0,0.06055,-0.022523,0,0.028117,0,0,0,0.0070309,0.00028195,0.0021939,9.3543,0.0031689,0.0060251,7.538e-09,0.72,0.82,0
0.034652,0.033251,0.0069352,0.00059727,0.0022597,0.0011702,0,0,0.060781,-0.021612,0,0.030426,0,0,0,0.007146,0.00038645,0.0022597,10.14,0.0032641,0.0060448,7.7798e-09,0.74,0.82,0
0.03587,0.034357,0.0070184,0.00074029,0.0023276,0.0012776,0,0,0.060981,-0.020635,0,0.033218,0,0,0,0.0072706,0.00048818,0.0023276,11.08,0.0033621,0.0060753,8.0588e-09,0.76,0.82,0
0.037091,0.035498,0.0070998,0.00089126,0.0023973,0.0014019,0,0,0.061133,-0.019579,0,0.03645,0,0,0,0.0074042,0.0005869,0.0023973,12.16,0.0034628,0.0061166,8.3769e-09,0.78,0.82,0
0.038315,0.036678,0.007177,0.0010519,0.0024687,0.0015407,0,0,0.061208,-0.018418,0,0.040059,0,0,0,0.0075456,0.00068333,0.0024687,13.362,0.0035658,0.0061667,8.7311e-09,0.8,0.82,0
0.03954,0.0379,0.0072467,0.0012246,0.0025414,0.0016907,0,0,0.061169,-0.017119,0,0.043958,0,0,0,0.007692,0.00077921,0.0025414,14.667,0.0036709,0.006222,9.1117e-09,0.82,0.82,0
0.040762,0.039165,0.0073053,0.0014118,0.0026151,0.0018473,0,0,0.060972,-0.015643,0,0.04803,0,0,0,0.0078398,0.00087725,0.0026151,16.054,0.0037774,0.0062769,9.501e-09,0.84,0.82,0
0.041979,0.04047,0.0073489,0.0016158,0.0026894,0.0020046,0,0,0.060573,-0.013957,0,0.05212,0,0,0,0.0079837,0.00098093,0.0026894,17.496,0.0038847,0.0063242,9.8718e-09,0.86,0.82,0
0.043185,0.041813,0.0073742,0.0018371,0.0027634,0.0021549,0,0,0.05994,-0.012041,0,0.056028,0,0,0,0.0081173,0.001094,0.0027634,18.964,0.0039916,0.0063554,1.0188e-08,0.88,0.82,0
0.044376,0.043183,0.0073793,0.0020738,0.0028359,0.002289,0,0,0.059064,-0.009908,0,0.059515,0,0,0,0.0082333,0.0012198,0.0028359,20.413,0.0040963,0.0063616,1.0409e-08,0.9,0.82,0
0.045548,0.044572,0.0073649,0.002319,0.0029052,0.0023968,0,0,0.057977,-0.0076203,0,0.062317,0,0,0,0.0083243,0.0013597,0.0029052,21.785,0.0041964,0.0063351,1.0492e-08,0.92,0.82,0
0.046695,0.045963,0.0073346,0.0025605,0.0029685,0.002469,0,0,0.056759,-0.0053046,0,0.064195,0,0,0,0.0083835,0.0015117,0.0029685,23.002,0.0042879,0.0062718,1.0411e-08,0.94,0.82,0
0.047818,0.04734,0.0072949,0.0027804,0.0030226,0.0024995,0,0,0.05554,-0.0031485,0,0.064987,0,0,0,0.0084064,0.0016689,0.0030226,23.973,0.004366,0.0061733,1.0159e-08,0.96,0.82,0
0.048917,0.048686,0.007264,0.0029622,0.0030679,0.0025019,0,0,0.05455,-0.0013742,0,0.065051,0,0,0,0.0084129,0.0018133,0.0030679,24.665,0.0044313,0.0060705,9.8626e-09,0.98,0.82,0
0.049461,0.049349,0.0072544,0.0030419,0.0030889,0.0025001,0,0,0.054152,-0.00061113,0,0.065003,0,0,0,0.0084173,0.0018789,0.0030889,24.947,0.0044617,0.0060253,9.7321e-09,1,0.82,0
0.00026896,3.059e-05,0.0036085,0.0014272,0.0015107,0.00012723,0,0,0.027272,-0.0010854,0,0.0033081,0,0,0,0.0036173,0.0014185,0.0015107,3.2636,0.0021822,0.0021553,5.1265e-10,0,0.84,0
0.00054543,8.1224e-05,0.0036227,0.0013198,0.0014827,0.00015724,0,0,0.027819,-0.0021185,0,0.0040882,0,0,0,0.0036351,0.0013074,0.0014827,3.7778,0.0021417,0.0022471,5.732e-10,0.02,0.84,0
0.0011128,0.00022314,0.003676,0.0011271,0.0014409,0.00023893,0,0,0.029056,-0.0040802,0,0.0062122,0,0,0,0.0037004,0.0011027,0.0014409,5.1764,0.0020813,0.0024475,7.0916e-10,0.04,0.84,0
0.0017077,0.00044715,0.0037524,0.00096714,0.0014159,0.00034409,0,0,0.030375,-0.0058335,0,0.0089463,0,0,0,0.003796,0.00092355,0.0014159,6.8399,0.0020451,0.0026616,8.6241e-10,0.06,0.84,0
0.0023278,0.0007543,0.0038251,0.00082803,0.0013959,0.00045132,0,0,0.031579,-0.0073826,0,0.011734,0,0,0,0.0038929,0.00076016,0.0013959,8.3051,0.0020163,0.0028689,1.0197e-09,0.08,0.84,0
0.0029708,0.0011444,0.0038947,0.00070876,0.001381,0.00055773,0,0,0.032678,-0.0087396,0,0.014501,0,0,0,0.0039906,0.00061284,0.001381,9.5901,0.0019948,0.0030671,1.1796e-09,0.1,0.84,0
0.0036349,0.001616,0.0039625,0.00060747,0.001371,0.00066073,0,0,0.03369,-0.0099258,0,0.017179,0,0,0,0.0040888,0.00048116,0.001371,10.704,0.0019803,0.0032556,1.3414e-09,0.12,0.84,0
0.0043184,0.0021667,0.0040298,0.00052161,0.0013654,0.00075831,0,0,0.034637,-0.01097,0,0.019716,0,0,0,0.0041874,0.00036403,0.0013654,11.654,0.0019723,0.0034342,1.5052e-09,0.14,0.84,0
0.0050204,0.0027931,0.0040981,0.00044836,0.0013639,0.00084909,0,0,0.035544,-0.011903,0,0.022076,0,0,0,0.0042865,0.00025995,0.0013639,12.448,0.0019701,0.0036039,1.6715e-09,0.16,0.84,0
0.0057402,0.0034911,0.0041686,0.00038494,0.0013661,0.00093226,0,0,0.036433,-0.012755,0,0.024239,0,0,0,0.0043863,0.00016728,0.0013661,13.093,0.0019732,0.0037657,1.8413e-09,0.18,0.84,0
0.0064777,0.0042563,0.0042426,0.00032881,0.0013714,0.0010074,0,0,0.037325,-0.013554,0,0.026192,0,0,0,0.004487,8.4375e-05,0.0013714,13.6,0.0019809,0.0039209,2.0157e-09,0.2,0.84,0
0.0072332,0.0050837,0.0043207,0.0002778,0.0013795,0.0010743,0,0,0.038235,-0.014323,0,0.027931,0,0,0,0.0045887,9.746e-06,0.0013795,13.978,0.0019927,0.0040708,2.1956e-09,0.22,0.84,0
0.0080071,0.0059682,0.0044035,0.00023007,0.0013901,0.0011328,0,0,0.039174,-0.01508,0,0.029453,0,0,0,0.0046915,-5.7903e-05,0.0013901,14.234,0.0020079,0.0042162,2.3821e-09,0.24,0.84,0
0.0088002,0.0069045,0.0044914,0.00018417,0.0014027,0.0011829,0,0,0.040153,-0.01584,0,0.030755,0,0,0,0.0047952,-0.00011963,0.0014027,14.376,0.0020261,0.0043579,2.5757e-09,0.26,0.84,0
0.0096132,0.007887,0.0045845,0.00013901,0.0014171,0.0012243,0,0,0.041177,-0.016614,0,0.031833,0,0,0,0.0048998,-0.00017625,0.0014171,14.412,0.0020469,0.0044963,2.777e-09,0.28,0.84,0
0.010447,0.0089102,0.0046827,9.3855e-05,0.001433,0.001257,0,0,0.042247,-0.017409,0,0.032681,0,0,0,0.0050049,-0.00022831,0.001433,14.347,0.0020698,0.0046317,2.9859e-09,0.3,0.84,0
0.011303,0.0099682,0.0047858,4.8322e-05,0.0014502,0.0012804,0,0,0.043363,-0.018225,0,0.033291,0,0,0,0.0051102,-0.0002761,0.0014502,14.187,0.0020948,0.0047639,3.2023e-09,0.32,0.84,0
0.012182,0.011055,0.0048934,2.4099e-06,0.0014687,0.0012945,0,0,0.044521,-0.019062,0,0.033658,0,0,0,0.0052155,-0.00031968,0.0014687,13.938,0.0021215,0.0048926,3.4256e-09,0.34,0.84,0
0.013084,0.012165,0.0050049,-4.3522e-05,0.0014884,0.001299,0,0,0.045715,-0.019915,0,0.033775,0,0,0,0.0053202,-0.00035884,0.0014884,13.607,0.0021499,0.0050174,3.6548e-09,0.36,0.84,0
0.01401,0.013292,0.0051196,-8.8748e-05,0.0015093,0.0012938,0,0,0.046935,-0.020774,0,0.033639,0,0,0,0.0054241,-0.00039319,0.0015093,13.201,0.0021801,0.0051374,3.8889e-09,0.38,0.84,0
0.014961,0.01443,0.0052367,-0.00013221,0.0015314,0.0012789,0,0,0.04817,-0.021626,0,0.033252,0,0,0,0.0055267,-0.00042215,0.0015314,12.729,0.002212,0.005252,4.1263e-09,0.4,0.84,0
0.015937,0.015574,0.0053552,-0.00017254,0.0015548,0.0012548,0,0,0.049406,-0.022456,0,0.032625,0,0,0,0.0056277,-0.00044497,0.0015548,12.202,0.0022458,0.0053603,4.3655e-09,0.42,0.84,0
0.016938,0.016717,0.0054741,-0.00020817,0.0015798,0.0012221,0,0,0.050626,-0.023243,0,0.031775,0,0,0,0.0057268,-0.00046084,0.0015798,11.63,0.0022819,0.0054612,4.6047e-09,0.44,0.84,0
0.017962,0.017857,0.0055924,-0.00023737,0.0016065,0.0011819,0,0,0.051816,-0.02397,0,0.030731,0,0,0,0.0058239,-0.0004689,0.0016065,11.029,0.0023205,0.005554,4.8423e-09,0.46,0.84,0
0.01901,0.018987,0.005709,-0.00025843,0.0016352,0.0011358,0,0,0.05296,-0.024617,0,0.029531,0,0,0,0.0059189,-0.00046832,0.0016352,10.413,0.0023619,0.0056379,5.0766e-09,0.48,0.84,0
0.020081,0.020106,0.0058232,-0.00026972,0.001666,0.0010856,0,0,0.054043,-0.025165,0,0.028225,0,0,0,0.0060118,-0.00045836,0.001666,9.7999,0.0024065,0.0057124,5.3062e-09,0.5,0.84,0
0.021172,0.02121,0.0059343,-0.00026985,0.0016993,0.0010336,0,0,0.055054,-0.025599,0,0.026874,0,0,0,0.0061029,-0.00043846,0.0016993,9.2075,0.0024546,0.0057772,5.5298e-09,0.52,0.84,0
0.022283,0.022298,0.0060418,-0.00025774,0.0017352,0.00098241,0,0,0.055985,-0.025908,0,0.025543,0,0,0,0.0061923,-0.00040826,0.0017352,8.6551,0.0025064,0.0058322,5.7468e-09,0.54,0.84,0
0.023411,0.02337,0.0061456,-0.00023274,0.0017739,0.00093479,0,0,0.056832,-0.026086,0,0.024305,0,0,0,0.0062805,-0.0003677,0.0017739,8.1626,0.0025622,0.0058778,5.9569e-09,0.56,0.84,0
0.024556,0.024427,0.0062459,-0.00019462,0.0018154,0.00089361,0,0,0.057596,-0.02613,0,0.023234,0,0,0,0.0063683,-0.00031702,0.0018154,7.7495,0.0026222,0.0059148,6.1608e-09,0.58,0.84,0
0.025715,0.025471,0.006343,-0.00014364,0.0018598,0.00086171,0,0,0.058282,-0.026045,0,0.022404,0,0,0,0.0064562,-0.0002568,0.0018598,7.4351,0.0026864,0.0059444,6.3598e-09,0.6,0.84,0
0.026887,0.026506,0.0064379,-8.0408e-05,0.0019072,0.00084174,0,0,0.058898,-0.025839,0,0.021885,0,0,0,0.0065454,-0.00018795,0.0019072,7.2374,0.0027549,0.0059683,6.5567e-09,0.62,0.84,0
0.028071,0.027535,0.0065312,-5.8801e-06,0.0019576,0.00083611,0,0,0.059457,-0.025525,0,0.021739,0,0,0,0.006637,-0.00011174,0.0019576,7.1723,0.0028276,0.0059886,6.7551e-09,0.64,0.84,0
0.029266,0.028565,0.006624,7.8813e-05,0.0020108,0.00084685,0,0,0.059971,-0.025116,0,0.022018,0,0,0,0.0067324,-2.966e-05,0.0020108,7.2532,0.0029045,0.0060077,6.9602e-09,0.66,0.84,0
0.03047,0.029601,0.0067172,0.00017252,0.0020669,0.00087555,0,0,0.060454,-0.024627,0,0.022764,0,0,0,0.0068332,5.6585e-05,0.0020669,7.4901,0.0029856,0.0060283,7.1784e-09,0.68,0.84,0
0.031684,0.030649,0.0068118,0.00027424,0.0021258,0.00092336,0,0,0.060918,-0.02407,0,0.024007,0,0,0,0.0069407,0.00014528,0.0021258,7.8888,0.0030706,0.0060533,7.4171e-09,0.7,0.84,0
0.032907,0.031715,0.0069081,0.00038335,0.0021874,0.00099092,0,0,0.061369,-0.023453,0,0.025764,0,0,0,0.0070566,0.00023482,0.0021874,8.4511,0.0031596,0.0060852,7.6842e-09,0.72,0.84,0
0.034138,0.032807,0.0070062,0.00049978,0.0022518,0.0010784,0,0,0.061808,-0.022776,0,0.028039,0,0,0,0.007182,0.00032396,0.0022518,9.1743,0.0032526,0.0061261,7.9872e-09,0.74,0.84,0
0.035379,0.03393,0.0071056,0.00062417,0.0023189,0.0011855,0,0,0.062226,-0.022032,0,0.030824,0,0,0,0.0073178,0.00041197,0.0023189,10.052,0.0033496,0.0061773,8.3327e-09,0.76,0.84,0
0.036628,0.03509,0.0072047,0.00075803,0.0023888,0.0013114,0,0,0.062606,-0.0212,0,0.034097,0,0,0,0.0074639,0.00049884,0.0023888,11.076,0.0034505,0.0062387,8.7241e-09,0.78,0.84,0
0.037883,0.036292,0.0073011,0.00090378,0.0024615,0.0014546,0,0,0.062915,-0.02025,0,0.03782,0,0,0,0.0076194,0.00058547,0.0024615,12.235,0.0035555,0.0063089,9.1606e-09,0.8,0.84,0
0.039144,0.037538,0.0073915,0.0010647,0.0025369,0.0016128,0,0,0.06311,-0.019138,0,0.041932,0,0,0,0.0077824,0.00067379,0.0025369,13.516,0.0036644,0.0063845,9.6344e-09,0.82,0.84,0
0.040408,0.038831,0.0074713,0.0012448,0.0026148,0.0017822,0,0,0.063134,-0.01781,0,0.046336,0,0,0,0.0079491,0.00076688,0.0026148,14.906,0.0037769,0.0064598,1.0128e-08,0.84,0.84,0
0.041669,0.04017,0.0075352,0.001448,0.002695,0.0019572,0,0,0.062923,-0.01621,0,0.050887,0,0,0,0.0081143,0.00086895,0.002695,16.386,0.0038927,0.006527,1.0611e-08,0.86,0.84,0
0.042924,0.041551,0.0075781,0.0016776,0.0027767,0.0021297,0,0,0.062418,-0.014288,0,0.055371,0,0,0,0.0082706,0.00098513,0.0027767,17.93,0.0040108,0.0065755,1.104e-08,0.88,0.84,0
0.044166,0.042966,0.007596,0.0019338,0.0028589,0.0022886,0,0,0.061581,-0.012026,0,0.059503,0,0,0,0.0084091,0.0011206,0.0028589,19.498,0.0041296,0.0065938,1.1357e-08,0.9,0.84,0
0.045388,0.044403,0.0075877,0.0022115,0.0029398,0.0024205,0,0,0.060423,-0.0094668,0,0.062932,0,0,0,0.0085201,0.0012791,0.0029398,21.026,0.0042463,0.0065703,1.1502e-08,0.92,0.84,0
0.046583,0.045844,0.0075563,0.0024974,0.0030161,0.0025116,0,0,0.059022,-0.006743,0,0.065301,0,0,0,0.0085938,0.00146,0.0030161,22.424,0.0043566,0.0064974,1.1422e-08,0.94,0.84,0
0.047749,0.047269,0.0075094,0.0027687,0.0030834,0.0025514,0,0,0.057538,-0.0040913,0,0.066335,0,0,0,0.0086229,0.0016552,0.0030834,23.575,0.0044539,0.0063751,1.1101e-08,0.96,0.84,0
0.048885,0.048655,0.0074716,0.0030021,0.0031421,0.0025554,0,0,0.056284,-0.0018202,0,0.06644,0,0,0,0.0086322,0.0018415,0.0031421,24.427,0.0045386,0.0062431,1.0703e-08,0.98,0.84,0
0.049446,0.049335,0.0074599,0.0031069,0.00317,0.0025533,0,0,0.055769,-0.00082117,0,0.066386,0,0,0,0.0086387,0.0019281,0.00317,24.782,0.004579,0.006184,1.0525e-08,1,0.84,0
0.00025346,8.3925e-06,0.0033992,0.0013323,0.0014195,4.2201e-05,0,0,0.025737,-0.001133,0,0.0010972,0,0,0,0.0034019,0.0013297,0.0014195,1.0857,0.0020503,0.0020301,4.2826e-10,0,0.86,0
0.00051474,3.7938e-05,0.0034139,0.0012204,0.0013903,7.359e-05,0,0,0.026306,-0.0022081,0,0.0019133,0,0,0,0.0034187,0.0012156,0.0013903,1.7741,0.0020082,0.0021233,4.8254e-10,0.02,0.86,0
0.0010523,0.00013989,0.0034692,0.0010208,0.001347,0.00015905,0,0,0.027589,-0.0042406,0,0.0041354,0,0,0,0.0034823,0.0010077,0.001347,3.5351,0.0019457,0.002325,6.0366e-10,0.04,0.86,0
0.0016183,0.0003284,0.0035484,0.0008575,0.0013218,0.00026878,0,0,0.028946,-0.0060354,0,0.0069884,0,0,0,0.0035771,0.00082872,0.0013218,5.5275,0.0019092,0.002539,7.3951e-10,0.06,0.86,0
0.0022101,0.00060441,0.0036233,0.00071843,0.0013025,0.00037989,0,0,0.03017,-0.0075933,0,0.0098771,0,0,0,0.0036739,0.00066788,0.0013025,7.2388,0.0018814,0.0027449,8.7878e-10,0.08,0.86,0
0.0028251,0.00096748,0.0036952,0.00060246,0.0012893,0.00048889,0,0,0.031277,-0.0089291,0,0.012711,0,0,0,0.003772,0.00052571,0.0012893,8.7045,0.0018623,0.0029402,1.0201e-09,0.1,0.86,0
0.0034612,0.0014157,0.0037656,0.00050693,0.0012818,0.00059278,0,0,0.03229,-0.010073,0,0.015412,0,0,0,0.0038711,0.00040145,0.0012818,9.9445,0.0018514,0.0031242,1.1631e-09,0.12,0.86,0
0.0041167,0.001946,0.0038364,0.00042841,0.0012794,0.00068948,0,0,0.03324,-0.011063,0,0.017926,0,0,0,0.0039713,0.00029345,0.0012794,10.975,0.0018481,0.0032976,1.3082e-09,0.14,0.86,0
0.0047908,0.0025542,0.0039092,0.0003633,0.0012817,0.00077779,0,0,0.034157,-0.01194,0,0.020222,0,0,0,0.0040729,0.00019961,0.0012817,11.811,0.0018514,0.0034616,1.4566e-09,0.16,0.86,0
0.005483,0.0032357,0.0039856,0.00030831,0.0012882,0.00085724,0,0,0.035067,-0.012738,0,0.022288,0,0,0,0.0041761,0.00011782,0.0012882,12.471,0.0018607,0.0036181,1.6096e-09,0.18,0.86,0
0.0061934,0.0039853,0.0040667,0.00026066,0.0012982,0.00092776,0,0,0.03599,-0.013488,0,0.024122,0,0,0,0.0042812,4.6144e-05,0.0012982,12.972,0.0018752,0.0037685,1.7685e-09,0.2,0.86,0
0.0069226,0.0047978,0.0041531,0.00021806,0.0013113,0.0009895,0,0,0.036943,-0.014213,0,0.025727,0,0,0,0.0043883,-1.7133e-05,0.0013113,13.329,0.0018942,0.0039141,1.9345e-09,0.22,0.86,0
0.0076711,0.0056676,0.0042451,0.0001787,0.0013272,0.0010426,0,0,0.037934,-0.01493,0,0.027108,0,0,0,0.0044973,-7.3424e-05,0.0013272,13.556,0.001917,0.004056,2.1088e-09,0.24,0.86,0
0.0084399,0.0065891,0.0043429,0.00014121,0.0013452,0.0010872,0,0,0.03897,-0.015652,0,0.028267,0,0,0,0.004608,-0.00012387,0.0013452,13.664,0.0019431,0.0041949,2.2918e-09,0.26,0.86,0
0.0092299,0.0075566,0.0044462,0.00010457,0.0013652,0.0011233,0,0,0.040053,-0.016389,0,0.029205,0,0,0,0.0047201,-0.00016932,0.0013652,13.664,0.001972,0.0043311,2.4841e-09,0.28,0.86,0
0.010042,0.0085643,0.0045548,6.8117e-05,0.0013869,0.0011508,0,0,0.041183,-0.017144,0,0.029921,0,0,0,0.0048333,-0.0002104,0.0013869,13.564,0.0020032,0.0044648,2.6856e-09,0.3,0.86,0
0.010877,0.0096064,0.0046681,3.1524e-05,0.0014099,0.0011696,0,0,0.042357,-0.017919,0,0.030411,0,0,0,0.0049471,-0.00024748,0.0014099,13.373,0.0020365,0.0045958,2.8962e-09,0.32,0.86,0
0.011736,0.010677,0.0047856,-5.2327e-06,0.0014341,0.0011797,0,0,0.043569,-0.018711,0,0.030671,0,0,0,0.005061,-0.0002807,0.0014341,13.097,0.0020715,0.0047238,3.1153e-09,0.34,0.86,0
0.01262,0.01177,0.0049065,-4.1866e-05,0.0014594,0.0011808,0,0,0.044812,-0.019516,0,0.0307,0,0,0,0.0051746,-0.00031002,0.0014594,12.744,0.002108,0.0048485,3.3421e-09,0.36,0.86,0
0.013529,0.012881,0.0050301,-7.78e-05,0.0014857,0.001173,0,0,0.046077,-0.020325,0,0.030498,0,0,0,0.0052875,-0.00033522,0.0014857,12.323,0.002146,0.0049691,3.5755e-09,0.38,0.86,0
0.014463,0.014002,0.0051554,-0.00011219,0.001513,0.0011565,0,0,0.047351,-0.021127,0,0.030069,0,0,0,0.0053991,-0.00035593,0.001513,11.843,0.0021854,0.0050851,3.8142e-09,0.4,0.86,0
0.015423,0.01513,0.0052815,-0.00014398,0.0015413,0.0011318,0,0,0.048623,-0.021908,0,0.029426,0,0,0,0.0055092,-0.00037167,0.0015413,11.313,0.0022263,0.0051956,4.0568e-09,0.42,0.86,0
0.016408,0.016258,0.0054075,-0.00017192,0.0015707,0.0010995,0,0,0.049878,-0.022654,0,0.028587,0,0,0,0.0056174,-0.00038188,0.0015707,10.746,0.0022687,0.0053001,4.3016e-09,0.44,0.86,0
0.017418,0.017384,0.0055323,-0.00019469,0.0016013,0.0010607,0,0,0.051103,-0.023348,0,0.027579,0,0,0,0.0057236,-0.00038597,0.0016013,10.154,0.002313,0.0053977,4.5471e-09,0.46,0.86,0
0.018452,0.018501,0.0056552,-0.00021096,0.0016333,0.0010169,0,0,0.052285,-0.023975,0,0.026438,0,0,0,0.0058276,-0.00038335,0.0016333,9.5521,0.0023592,0.005488,4.792e-09,0.48,0.86,0
0.019509,0.019609,0.0057755,-0.00021947,0.0016668,0.00096966,0,0,0.053413,-0.024522,0,0.025211,0,0,0,0.0059295,-0.00037351,0.0016668,8.9553,0.0024076,0.0055706,5.0348e-09,0.5,0.86,0
0.020589,0.020704,0.0058926,-0.00021915,0.001702,0.00092118,0,0,0.054477,-0.024975,0,0.023951,0,0,0,0.0060294,-0.00035602,0.001702,8.3804,0.0024585,0.0056452,5.2746e-09,0.52,0.86,0
0.021689,0.021785,0.0060062,-0.00020918,0.0017391,0.00087373,0,0,0.055472,-0.025328,0,0.022717,0,0,0,0.0061277,-0.00033064,0.0017391,7.845,0.002512,0.005712,5.5109e-09,0.54,0.86,0
0.022808,0.022853,0.0061163,-0.00018902,0.0017782,0.00082978,0,0,0.056396,-0.025574,0,0.021574,0,0,0,0.0062246,-0.00029729,0.0017782,7.3668,0.0025685,0.0057712,5.7437e-09,0.56,0.86,0
0.023944,0.023908,0.0062233,-0.0001585,0.0018194,0.0007919,0,0,0.05725,-0.025713,0,0.020589,0,0,0,0.0063209,-0.00025611,0.0018194,6.9635,0.0026281,0.0058236,5.9736e-09,0.58,0.86,0
0.025098,0.024953,0.0063277,-0.00011776,0.001863,0.00076263,0,0,0.058041,-0.025749,0,0.019828,0,0,0,0.0064174,-0.00020752,0.001863,6.6522,0.002691,0.0058703,6.2024e-09,0.6,0.86,0
0.026266,0.02599,0.0064302,-6.7233e-05,0.0019089,0.00074441,0,0,0.058777,-0.02569,0,0.019355,0,0,0,0.0065151,-0.00015214,0.0019089,6.4491,0.0027573,0.0059126,6.4327e-09,0.62,0.86,0
0.027449,0.027024,0.0065319,-7.5841e-06,0.0019573,0.00073945,0,0,0.05947,-0.025543,0,0.019226,0,0,0,0.0066152,-9.0878e-05,0.0019573,6.3686,0.0028272,0.0059525,6.6684e-09,0.64,0.86,0
0.028645,0.02806,0.0066339,6.0416e-05,0.0020083,0.00074972,0,0,0.060133,-0.025323,0,0.019493,0,0,0,0.0067192,-2.4796e-05,0.0020083,6.4229,0.0029009,0.005992,6.9147e-09,0.66,0.86,0
0.029854,0.029104,0.0067374,0.00013601,0.002062,0.00077688,0,0,0.06078,-0.025038,0,0.020199,0,0,0,0.0068286,4.4896e-05,0.002062,6.6215,0.0029785,0.0060336,7.1782e-09,0.68,0.86,0
0.031076,0.03016,0.0068435,0.00021863,0.0021186,0.00082224,0,0,0.061423,-0.0247,0,0.021378,0,0,0,0.0069451,0.00011697,0.0021186,6.9707,0.0030602,0.0060797,7.4666e-09,0.7,0.86,0
0.032311,0.031237,0.0069528,0.00030805,0.0021782,0.0008868,0,0,0.062069,-0.024313,0,0.023057,0,0,0,0.0070705,0.0001903,0.0021782,7.4739,0.0031464,0.0061329,7.7884e-09,0.72,0.86,0
0.033559,0.03234,0.0070658,0.00040457,0.0022411,0.00097125,0,0,0.062721,-0.023875,0,0.025253,0,0,0,0.0072063,0.00026403,0.0022411,8.1311,0.0032372,0.0061951,8.1525e-09,0.74,0.86,0
0.03482,0.033476,0.0071823,0.00050921,0.0023075,0.001076,0,0,0.063373,-0.023377,0,0.027976,0,0,0,0.0073538,0.00033773,0.0023075,8.9403,0.003333,0.0062679,8.5672e-09,0.76,0.86,0
0.036094,0.03465,0.0073014,0.00062387,0.0023776,0.0012011,0,0,0.064009,-0.022798,0,0.031229,0,0,0,0.0075136,0.00041162,0.0023776,9.8976,0.0034343,0.0063516,9.039e-09,0.78,0.86,0
0.03738,0.035868,0.0074208,0.00075155,0.0024517,0.0013462,0,0,0.064598,-0.022102,0,0.035002,0,0,0,0.0076856,0.00048672,0.0024517,10.998,0.0035414,0.0064452,9.5708e-09,0.8,0.86,0
0.038678,0.037135,0.0075372,0.00089638,0.0025301,0.0015103,0,0,0.065092,-0.021238,0,0.039268,0,0,0,0.0078684,0.00056511,0.0025301,12.237,0.0036545,0.006546,1.0158e-08,0.82,0.86,0
0.039984,0.038453,0.0076454,0.0010637,0.0026127,0.001691,0,0,0.065425,-0.020137,0,0.043967,0,0,0,0.0080589,0.00065021,0.0026127,13.61,0.003774,0.0066485,1.0788e-08,0.84,0.86,0
0.041295,0.039822,0.0077388,0.00126,0.0026996,0.0018841,0,0,0.065509,-0.018716,0,0.048986,0,0,0,0.0082518,0.000747,0.0026996,15.106,0.0038995,0.0067441,1.1428e-08,0.86,0.86,0
0.042604,0.041241,0.0078097,0.0014916,0.0027904,0.0020817,0,0,0.065251,-0.016884,0,0.054124,0,0,0,0.0084391,0.00086221,0.0027904,16.712,0.0040306,0.0068206,1.2026e-08,0.88,0.86,0
0.043905,0.042702,0.0078506,0.0017634,0.0028842,0.0022717,0,0,0.064563,-0.014571,0,0.059065,0,0,0,0.0086101,0.0010039,0.0028842,18.395,0.0041661,0.0068623,1.2508e-08,0.9,0.86,0
0.045187,0.044193,0.0078571,0.0020742,0.0029794,0.002437,0,0,0.06341,-0.011767,0,0.063362,0,0,0,0.0087517,0.0011797,0.0029794,20.095,0.0043036,0.0068521,1.2778e-08,0.92,0.86,0
0.046441,0.045693,0.0078303,0.0024121,0.0030727,0.0025572,0,0,0.061848,-0.0085881,0,0.066488,0,0,0,0.00885,0.0013923,0.0030727,21.709,0.0044383,0.0067762,1.2746e-08,0.94,0.86,0
0.047661,0.047177,0.0077784,0.0027489,0.0031582,0.0026145,0,0,0.060063,-0.0053208,0,0.067976,0,0,0,0.0088933,0.001634,0.0031582,23.089,0.0045618,0.0066305,1.2366e-08,0.96,0.86,0
0.048844,0.048613,0.0077342,0.0030505,0.0032354,0.0026246,0,0,0.058484,-0.0024035,0,0.068238,0,0,0,0.0089108,0.0018739,0.0032354,24.149,0.0046734,0.0064651,1.1849e-08,0.98,0.86,0
0.049426,0.049316,0.0077207,0.0031886,0.0032728,0.0026236,0,0,0.057822,-0.0010943,0,0.068214,0,0,0,0.0089218,0.0019875,0.0032728,24.599,0.0047273,0.0063895,1.1611e-08,1,0.86,0
0.00023697,-1.473e-05,0.0031767,0.001232,0.0013226,-4.6327e-05,0,0,0.024103,-0.0011779,0,-0.0012045,0,0,0,0.0031802,0.0012286,0.0013226,-1.4716,0.0019105,0.0019078,3.5478e-10,0,0.88,0
0.00048207,-7.0985e-06,0.0031917,0.0011158,0.0012923,-1.334e-05,0,0,0.024693,-0.0022941,0,-0.00034683,0,0,0,0.0031951,0.0011124,0.0012923,-0.55688,0.0018666,0.0020011,4.0208e-10,0.02,0.88,0
0.00098772,5.3513e-05,0.0032485,0.00090917,0.0012473,7.654e-05,0,0,0.026016,-0.0043958,0,0.00199,0,0,0,0.0032548,0.00090287,0.0012473,1.6655,0.0018017,0.0022015,5.0692e-10,0.04,0.88,0
0.0015227,0.00020573,0.0033295,0.00074283,0.0012217,0.00019168,0,0,0.027401,-0.0062253,0,0.0049837,0,0,0,0.0033464,0.00072589,0.0012217,4.0679,0.0017647,0.0024121,6.2383e-10,0.06,0.88,0
0.0020838,0.00045057,0.0034057,0.00060525,0.0012033,0.00030719,0,0,0.028632,-0.0077746,0,0.007987,0,0,0,0.0034411,0.00056987,0.0012033,6.0806,0.0017381,0.0026134,7.434e-10,0.08,0.88,0
0.002668,0.00078722,0.0034788,0.00049476,0.0011921,0.00041861,0,0,0.029728,-0.0090651,0,0.010884,0,0,0,0.0035379,0.00043562,0.0011921,7.7582,0.0017219,0.0028021,8.6433e-10,0.1,0.88,0
0.0032729,0.0012131,0.003551,0.00040731,0.0011875,0.00052247,0,0,0.030725,-0.010142,0,0.013584,0,0,0,0.0036366,0.00032164,0.0011875,9.1346,0.0017153,0.0029783,9.8673e-10,0.12,0.88,0
0.003897,0.0017242,0.0036247,0.00033806,0.0011888,0.00061681,0,0,0.031667,-0.01106,0,0.016037,0,0,0,0.0037375,0.0002253,0.0011888,10.241,0.0017172,0.0031434,1.1117e-09,0.14,0.88,0
0.0045396,0.0023155,0.0037023,0.0002825,0.0011955,0.00070097,0,0,0.032589,-0.011868,0,0.018225,0,0,0,0.0038411,0.00014377,0.0011955,11.108,0.0017268,0.0032997,1.2411e-09,0.16,0.88,0
0.0052006,0.0029816,0.0037853,0.00023686,0.0012067,0.00077507,0,0,0.033523,-0.012607,0,0.020152,0,0,0,0.0039477,7.4436e-05,0.0012067,11.767,0.0017429,0.0034496,1.3765e-09,0.18,0.88,0
0.0058805,0.0037168,0.0038746,0.00019818,0.0012218,0.00083959,0,0,0.034486,-0.013307,0,0.021829,0,0,0,0.0040577,1.5047e-05,0.0012218,12.246,0.0017649,0.0035946,1.5196e-09,0.2,0.88,0
0.00658,0.0045152,0.0039706,0.00016419,0.0012404,0.00089506,0,0,0.035492,-0.013991,0,0.023272,0,0,0,0.004171,-3.6251e-05,0.0012404,12.568,0.0017917,0.0037363,1.6718e-09,0.22,0.88,0
0.0073001,0.005371,0.0040732,0.00013318,0.0012619,0.00094194,0,0,0.036547,-0.014674,0,0.024491,0,0,0,0.0042873,-8.0951e-05,0.0012619,12.753,0.0018228,0.0038755,1.8339e-09,0.24,0.88,0
0.0080419,0.0062784,0.0041822,0.00010388,0.0012858,0.00098056,0,0,0.037653,-0.015365,0,0.025494,0,0,0,0.0044063,-0.00012022,0.0012858,12.818,0.0018573,0.0040127,2.0067e-09,0.26,0.88,0
0.0088062,0.0072315,0.0042971,7.5401e-05,0.0013117,0.0010111,0,0,0.038809,-0.016072,0,0.026288,0,0,0,0.0045274,-0.00015493,0.0013117,12.776,0.0018947,0.0041483,2.1905e-09,0.28,0.88,0
0.0095942,0.0082245,0.0044172,4.7177e-05,0.0013393,0.0010336,0,0,0.040013,-0.016798,0,0.026873,0,0,0,0.0046501,-0.00018573,0.0013393,12.638,0.0019346,0.0042821,2.3854e-09,0.3,0.88,0
0.010407,0.0092514,0.004542,1.8919e-05,0.0013683,0.0010481,0,0,0.041258,-0.017542,0,0.02725,0,0,0,0.0047739,-0.00021301,0.0013683,12.414,0.0019764,0.0044141,2.5912e-09,0.32,0.88,0
0.011245,0.010307,0.0046705,-9.4003e-06,0.0013983,0.0010545,0,0,0.042538,-0.0183,0,0.027416,0,0,0,0.0048981,-0.000237,0.0013983,12.112,0.0020198,0.0045438,2.8074e-09,0.34,0.88,0
0.012108,0.011384,0.0048019,-3.7562e-05,0.0014293,0.0010528,0,0,0.043844,-0.019069,0,0.027372,0,0,0,0.0050221,-0.00025774,0.0014293,11.741,0.0020645,0.0046707,3.033e-09,0.36,0.88,0
0.012998,0.012479,0.0049353,-6.5122e-05,0.0014611,0.0010431,0,0,0.045165,-0.01984,0,0.027121,0,0,0,0.0051453,-0.00027516,0.0014611,11.309,0.0021104,0.0047943,3.2671e-09,0.38,0.88,0
0.013915,0.013585,0.0050697,-9.1435e-05,0.0014935,0.0010257,0,0,0.046491,-0.020604,0,0.026669,0,0,0,0.0052674,-0.00028905,0.0014935,10.825,0.0021573,0.0049139,3.5084e-09,0.4,0.88,0
0.014858,0.014697,0.0052043,-0.00011569,0.0015266,0.0010011,0,0,0.04781,-0.021349,0,0.026028,0,0,0,0.0053877,-0.00029909,0.0015266,10.299,0.0022051,0.005029,3.7555e-09,0.42,0.88,0
0.015827,0.015811,0.0053379,-0.00013694,0.0015603,0.0009698,0,0,0.049109,-0.022064,0,0.025215,0,0,0,0.0055059,-0.00030495,0.0015603,9.7426,0.0022538,0.0051388,4.0068e-09,0.44,0.88,0
0.016822,0.016923,0.0054699,-0.00015419,0.0015947,0.00093293,0,0,0.050377,-0.022736,0,0.024256,0,0,0,0.0056219,-0.00030621,0.0015947,9.1667,0.0023035,0.0052428,4.2608e-09,0.46,0.88,0
0.017842,0.018028,0.0055993,-0.00016644,0.0016299,0.00089175,0,0,0.051603,-0.023352,0,0.023185,0,0,0,0.0057353,-0.00030249,0.0016299,8.5847,0.0023542,0.0053407,4.5162e-09,0.48,0.88,0
0.018886,0.019125,0.0057257,-0.00017275,0.0016659,0.00084782,0,0,0.052777,-0.023902,0,0.022043,0,0,0,0.0058463,-0.00029342,0.0016659,8.0107,0.0024063,0.005432,4.7716e-09,0.5,0.88,0
0.019953,0.020211,0.0058485,-0.0001723,0.0017029,0.00080296,0,0,0.053894,-0.024377,0,0.020877,0,0,0,0.0059549,-0.00027871,0.0017029,7.4596,0.0024597,0.0055166,5.0262e-09,0.52,0.88,0
0.021042,0.021285,0.0059678,-0.00016447,0.001741,0.00075922,0,0,0.054948,-0.024771,0,0.01974,0,0,0,0.0060615,-0.00025816,0.001741,6.9468,0.0025148,0.0055947,5.2795e-09,0.54,0.88,0
0.022151,0.022347,0.0060835,-0.00014888,0.0017804,0.00071879,0,0,0.055941,-0.02508,0,0.018689,0,0,0,0.0061663,-0.0002317,0.0017804,6.4882,0.0025717,0.0056666,5.5316e-09,0.56,0.88,0
0.02328,0.023398,0.0061962,-0.00012535,0.0018212,0.00068393,0,0,0.056874,-0.025306,0,0.017782,0,0,0,0.0062702,-0.00019942,0.0018212,6.0992,0.0026307,0.005733,5.7833e-09,0.58,0.88,0
0.024426,0.024441,0.0063064,-9.3985e-05,0.0018637,0.00065691,0,0,0.057755,-0.02545,0,0.01708,0,0,0,0.006374,-0.00016157,0.0018637,5.7952,0.0026921,0.0057948,6.0366e-09,0.6,0.88,0
0.02559,0.025478,0.0064152,-5.5076e-05,0.001908,0.00063991,0,0,0.058593,-0.025521,0,0.016638,0,0,0,0.0064787,-0.00011858,0.001908,5.5902,0.0027561,0.0058533,6.2942e-09,0.62,0.88,0
0.02677,0.026514,0.0065237,-9.0689e-06,0.0019544,0.00063496,0,0,0.059401,-0.025525,0,0.016509,0,0,0,0.0065857,-7.1043e-05,0.0019544,5.497,0.002823,0.0059103,6.5603e-09,0.64,0.88,0
0.027966,0.027552,0.0066333,4.3524e-05,0.002003,0.00064394,0,0,0.060193,-0.025474,0,0.016742,0,0,0,0.0066965,-1.97e-05,0.002003,5.5265,0.0028933,0.0059677,6.8403e-09,0.66,0.88,0
0.029178,0.028599,0.0067453,0.00010223,0.0020543,0.00066847,0,0,0.060983,-0.025376,0,0.01738,0,0,0,0.0068129,3.462e-05,0.0020543,5.6876,0.0029673,0.0060278,7.1414e-09,0.68,0.88,0
0.030405,0.02966,0.0068612,0.00016676,0.0021084,0.00070999,0,0,0.061786,-0.025241,0,0.01846,0,0,0,0.0069368,9.1072e-05,0.0021084,5.9867,0.0030454,0.006093,7.4718e-09,0.7,0.88,0
0.031649,0.030743,0.0069821,0.00023713,0.0021658,0.00076974,0,0,0.062612,-0.025072,0,0.020013,0,0,0,0.0070703,0.0001489,0.0021658,6.4281,0.0031283,0.0061656,7.8414e-09,0.72,0.88,0
0.03291,0.031852,0.0071091,0.00031386,0.0022269,0.00084883,0,0,0.063469,-0.024869,0,0.02207,0,0,0,0.0072154,0.00020754,0.0022269,7.0138,0.0032166,0.006248,8.2607e-09,0.74,0.88,0
0.034188,0.032995,0.0072426,0.00039813,0.0022922,0.00094828,0,0,0.064355,-0.024623,0,0.024655,0,0,0,0.0073739,0.00026682,0.0022922,7.7449,0.003311,0.0063419,8.7412e-09,0.76,0.88,0
0.035484,0.034178,0.0073824,0.00049203,0.0023623,0.001069,0,0,0.065261,-0.024314,0,0.027795,0,0,0,0.0075474,0.00032706,0.0023623,8.6214,0.0034123,0.0064484,9.2934e-09,0.78,0.88,0
0.036798,0.035408,0.0075273,0.0005988,0.0024378,0.0012119,0,0,0.066163,-0.023907,0,0.03151,0,0,0,0.0077367,0.00038935,0.0024378,9.6443,0.0035213,0.0065674,9.926e-09,0.8,0.88,0
0.038131,0.036689,0.0076742,0.00072314,0.0025192,0.0013775,0,0,0.067015,-0.023349,0,0.035815,0,0,0,0.0079415,0.00045579,0.0025192,10.816,0.0036388,0.006697,1.0642e-08,0.82,0.88,0
0.039479,0.038026,0.0078183,0.00087154,0.002607,0.0015655,0,0,0.067748,-0.02256,0,0.040703,0,0,0,0.0081599,0.00052992,0.002607,12.14,0.0037656,0.0068326,1.1436e-08,0.84,0.88,0
0.040841,0.039421,0.007952,0.0010525,0.0027013,0.001774,0,0,0.068258,-0.021435,0,0.046124,0,0,0,0.0083873,0.0006172,0.0027013,13.621,0.0039019,0.0069661,1.2281e-08,0.86,0.88,0
0.042209,0.040876,0.0080646,0.0012765,0.0028023,0.0019974,0,0,0.06841,-0.019836,0,0.051933,0,0,0,0.0086153,0.00072579,0.0028023,15.259,0.0040478,0.0070836,1.3124e-08,0.88,0.88,0
0.043577,0.042383,0.0081441,0.0015545,0.0029096,0.0022243,0,0,0.068049,-0.017616,0,0.057831,0,0,0,0.0088315,0.00086714,0.0029096,17.041,0.0042028,0.0071652,1.3869e-08,0.9,0.88,0
0.044931,0.043932,0.0081799,0.0018941,0.0030222,0.0024344,0,0,0.06705,-0.014665,0,0.063294,0,0,0,0.009019,0.001055,0.0030222,18.921,0.0043654,0.0071858,1.4376e-08,0.92,0.88,0
0.046259,0.045501,0.0081684,0.0022897,0.0031374,0.0025991,0,0,0.065402,-0.01102,0,0.067577,0,0,0,0.0091581,0.0013,0.0031374,20.791,0.0045318,0.0071202,1.4489e-08,0.94,0.88,0
0.047547,0.047056,0.0081172,0.0027104,0.0032483,0.0026879,0,0,0.063296,-0.0069925,0,0.069885,0,0,0,0.0092294,0.0015981,0.0032483,22.466,0.0046919,0.0069555,1.4089e-08,0.96,0.88,0
0.048791,0.048559,0.0080689,0.0031057,0.0033524,0.0027128,0,0,0.061314,-0.0032065,0,0.070533,0,0,0,0.0092657,0.0019089,0.0033524,23.805,0.0048423,0.0067525,1.344e-08,0.98,0.88,0
0.049401,0.049291,0.0080544,0.0032903,0.0034034,0.0027159,0,0,0.060463,-0.0014703,0,0.070614,0,0,0,0.0092855,0.0020592,0.0034034,24.385,0.004916,0.0066571,1.3129e-08,1,0.88,0
0.00021948,-3.8723e-05,0.0029406,0.001126,0.00122,-0.000138,0,0,0.022368,-0.0012217,0,-0.0035879,0,0,0,0.0029541,0.0011124,0.00122,-4.4574,0.0017622,0.001792,2.9255e-10,0,0.9,0
0.00044735,-5.3826e-05,0.0029555,0.001005,0.0011881,-0.00010297,0,0,0.022976,-0.0023812,0,-0.0026772,0,0,0,0.0029654,0.00099508,0.0011881,-3.2515,0.0017162,0.0018837,3.3228e-10,0.02,0.9,0
0.00091903,-3.5936e-05,0.0030126,0.00079065,0.001141,-7.4359e-06,0,0,0.024331,-0.0045541,0,-0.00019333,0,0,0,0.0030177,0.00078553,0.001141,-0.44296,0.0016481,0.0020788,4.1958e-10,0.04,0.9,0
0.0014206,7.9387e-05,0.0030936,0.00062187,0.0011146,0.0001146,0,0,0.025726,-0.006406,0,0.0029795,0,0,0,0.0031025,0.00061296,0.0011146,2.4732,0.00161,0.0022814,5.1602e-10,0.06,0.9,0
0.0019481,0.00029343,0.0031691,0.00048844,0.0010973,0.00023523,0,0,0.026934,-0.0079145,0,0.006116,0,0,0,0.0031921,0.00046544,0.0010973,4.8542,0.0015849,0.0024726,6.1402e-10,0.08,0.9,0
0.0024979,0.00060488,0.0032414,0.00038694,0.0010885,0.00034841,0,0,0.027988,-0.0091203,0,0.0090587,0,0,0,0.003285,0.0003433,0.0010885,6.7712,0.0015723,0.0026493,7.1267e-10,0.1,0.9,0
0.0030676,0.00101,0.0033141,0.00031062,0.0010874,0.00045041,0,0,0.028947,-0.010098,0,0.011711,0,0,0,0.0033814,0.00024334,0.0010874,8.2816,0.0015707,0.0028129,8.1296e-10,0.12,0.9,0
0.0036558,0.0015036,0.0033907,0.00025277,0.001093,0.00054004,0,0,0.029869,-0.010924,0,0.014041,0,0,0,0.0034819,0.00016157,0.001093,9.4441,0.0015788,0.0029665,9.1695e-10,0.14,0.9,0
0.0042624,0.0020795,0.0034738,0.000208,0.0011045,0.00061769,0,0,0.0308,-0.011655,0,0.01606,0,0,0,0.0035874,9.44e-05,0.0011045,10.316,0.0015954,0.0031134,1.0269e-09,0.16,0.9,0
0.0048878,0.0027314,0.0035647,0.00017229,0.0011211,0.0006844,0,0,0.031767,-0.012334,0,0.017794,0,0,0,0.0036981,3.8826e-05,0.0011211,10.947,0.0016194,0.0032561,1.1449e-09,0.18,0.9,0
0.005533,0.003453,0.0036639,0.00014271,0.001142,0.00074127,0,0,0.032785,-0.012991,0,0.019273,0,0,0,0.0038142,-7.5685e-06,0.001142,11.38,0.0016496,0.0033962,1.2725e-09,0.2,0.9,0
0.0061992,0.0042382,0.0037714,0.00011715,0.0011666,0.00078928,0,0,0.033863,-0.013642,0,0.020521,0,0,0,0.0039352,-4.6686e-05,0.0011666,11.647,0.001685,0.0035351,1.4112e-09,0.22,0.9,0
0.0068875,0.0050807,0.0038865,9.409e-05,0.0011942,0.00082914,0,0,0.035001,-0.014301,0,0.021558,0,0,0,0.0040606,-7.9999e-05,0.0011942,11.776,0.0017249,0.0036732,1.5618e-09,0.24,0.9,0
0.0075992,0.0059745,0.0040087,7.2455e-05,0.0012243,0.00086135,0,0,0.036196,-0.014975,0,0.022395,0,0,0,0.0041898,-0.00010863,0.0012243,11.787,0.0017685,0.003811,1.7251e-09,0.26,0.9,0
0.0083354,0.0069137,0.004137,5.1509e-05,0.0012565,0.0008862,0,0,0.037445,-0.015665,0,0.023041,0,0,0,0.0043219,-0.00013342,0.0012565,11.697,0.001815,0.0039483,1.9014e-09,0.28,0.9,0
0.0090971,0.0078924,0.0042705,3.0789e-05,0.0012904,0.00090384,0,0,0.038741,-0.016375,0,0.0235,0,0,0,0.0044562,-0.00015495,0.0012904,11.519,0.0018639,0.004085,2.0909e-09,0.3,0.9,0
0.0098851,0.0089047,0.0044083,1.0064e-05,0.0013255,0.00091432,0,0,0.040076,-0.017101,0,0.023772,0,0,0,0.004592,-0.00017365,0.0013255,11.263,0.0019146,0.0042207,2.2931e-09,0.32,0.9,0
0.0107,0.009945,0.0045493,-1.0691e-05,0.0013616,0.00091765,0,0,0.041441,-0.01784,0,0.023859,0,0,0,0.0047284,-0.00018975,0.0013616,10.938,0.0019667,0.0043549,2.5077e-09,0.34,0.9,0
0.011543,0.011008,0.0046926,-3.1318e-05,0.0013984,0.00091388,0,0,0.042825,-0.018586,0,0.023761,0,0,0,0.0048647,-0.00020336,0.0013984,10.555,0.0020199,0.004487,2.7339e-09,0.36,0.9,0
0.012413,0.012087,0.0048372,-5.1486e-05,0.0014357,0.00090313,0,0,0.044219,-0.019334,0,0.023481,0,0,0,0.0050002,-0.00021447,0.0014357,10.12,0.0020738,0.0046163,2.9704e-09,0.38,0.9,0
0.013311,0.013178,0.0049819,-7.0722e-05,0.0014734,0.00088564,0,0,0.045611,-0.020073,0,0.023027,0,0,0,0.0051342,-0.00022299,0.0014734,9.6424,0.0021282,0.0047423,3.216e-09,0.4,0.9,0
0.014238,0.014276,0.0051258,-8.8428e-05,0.0015112,0.00086185,0,0,0.04699,-0.020795,0,0.022408,0,0,0,0.0052661,-0.00022873,0.0015112,9.1311,0.0021829,0.0048642,3.4693e-09,0.42,0.9,0
0.015191,0.015376,0.005268,-0.00010392,0.0015492,0.0008324,0,0,0.048344,-0.021491,0,0.021642,0,0,0,0.0053956,-0.00023149,0.0015492,8.5959,0.0022378,0.0049814,3.7284e-09,0.44,0.9,0
0.016171,0.016474,0.0054076,-0.00011647,0.0015873,0.00079817,0,0,0.049663,-0.022149,0,0.020752,0,0,0,0.0055221,-0.000231,0.0015873,8.0474,0.0022928,0.0050935,3.992e-09,0.46,0.9,0
0.017178,0.017567,0.0055439,-0.00012536,0.0016256,0.0007603,0,0,0.050938,-0.022762,0,0.019768,0,0,0,0.0056455,-0.00022701,0.0016256,7.4969,0.002348,0.0052,4.2582e-09,0.48,0.9,0
0.018209,0.018653,0.0056764,-0.0001299,0.0016639,0.00072016,0,0,0.052161,-0.02332,0,0.018724,0,0,0,0.0057657,-0.00021927,0.0016639,6.9569,0.0024035,0.0053006,4.5259e-09,0.5,0.9,0
0.019264,0.019729,0.0058047,-0.0001295,0.0017026,0.00067934,0,0,0.053328,-0.023817,0,0.017663,0,0,0,0.0058828,-0.00020758,0.0017026,6.44,0.0024593,0.0053952,4.794e-09,0.52,0.9,0
0.020342,0.020795,0.005929,-0.00012373,0.0017416,0.0006396,0,0,0.054436,-0.024249,0,0.01663,0,0,0,0.005997,-0.00019178,0.0017416,5.9598,0.0025156,0.005484,5.062e-09,0.54,0.9,0
0.021441,0.02185,0.0060493,-0.00011227,0.0017811,0.00060285,0,0,0.055487,-0.024614,0,0.015674,0,0,0,0.0061089,-0.00017181,0.0017811,5.5297,0.0025727,0.0055674,5.3299e-09,0.56,0.9,0
0.022561,0.022896,0.0061663,-9.503e-05,0.0018214,0.00057104,0,0,0.056484,-0.024913,0,0.014847,0,0,0,0.006219,-0.0001477,0.0018214,5.1632,0.0026309,0.0056459,5.5988e-09,0.58,0.9,0
0.023701,0.023935,0.0062808,-7.2045e-05,0.0018626,0.00054616,0,0,0.057436,-0.025151,0,0.0142,0,0,0,0.0063284,-0.00011961,0.0018626,4.8732,0.0026905,0.0057205,5.8704e-09,0.6,0.9,0
0.024859,0.024969,0.0063939,-4.3514e-05,0.0019051,0.00053011,0,0,0.058354,-0.025332,0,0.013783,0,0,0,0.0064382,-8.7787e-05,0.0019051,4.672,0.0027518,0.0057926,6.148e-09,0.62,0.9,0
0.026035,0.026003,0.006507,-9.7324e-06,0.0019492,0.00052472,0,0,0.059251,-0.025466,0,0.013643,0,0,0,0.0065498,-5.2624e-05,0.0019492,4.5704,0.0028155,0.0058637,6.4358e-09,0.64,0.9,0
0.027229,0.027041,0.0066216,2.8971e-05,0.0019952,0.00053168,0,0,0.060143,-0.02556,0,0.013824,0,0,0,0.0066651,-1.4597e-05,0.0019952,4.5781,0.0028819,0.0059358,6.7399e-09,0.66,0.9,0
0.028441,0.028089,0.0067394,7.2314e-05,0.0020435,0.00055256,0,0,0.061047,-0.025626,0,0.014367,0,0,0,0.006786,2.575e-05,0.0020435,4.7029,0.0029518,0.006011,7.0678e-09,0.68,0.9,0
0.029671,0.029151,0.0068624,0.00012017,0.0020948,0.00058879,0,0,0.061979,-0.02567,0,0.015309,0,0,0,0.0069147,6.7865e-05,0.0020948,4.951,0.0030258,0.0060918,7.4287e-09,0.7,0.9,0
0.03092,0.030234,0.0069923,0.00017267,0.0021495,0.00064173,0,0,0.062957,-0.025699,0,0.016685,0,0,0,0.0070537,0.00011126,0.0021495,5.3269,0.0031048,0.0061808,7.8339e-09,0.72,0.9,0
0.032189,0.031345,0.0071308,0.00023039,0.0022084,0.00071276,0,0,0.063992,-0.025714,0,0.018532,0,0,0,0.0072056,0.00015561,0.0022084,5.834,0.0031898,0.0062805,8.2965e-09,0.74,0.9,0
0.03348,0.032491,0.0072793,0.00029449,0.0022721,0.00080332,0,0,0.065093,-0.025709,0,0.020886,0,0,0,0.0073729,0.00020088,0.0022721,6.4751,0.003282,0.0063932,8.8311e-09,0.76,0.9,0
0.034793,0.033677,0.0074387,0.00036697,0.0023417,0.00091507,0,0,0.066261,-0.025671,0,0.023792,0,0,0,0.0075582,0.00024745,0.0023417,7.2535,0.0033825,0.006521,9.454e-09,0.78,0.9,0
0.03613,0.034912,0.0076091,0.00045096,0.002418,0.0010499,0,0,0.067484,-0.025572,0,0.027298,0,0,0,0.0077637,0.00029636,0.002418,8.1741,0.0034927,0.0066648,1.0182e-08,0.8,0.9,0
0.037492,0.036201,0.0077891,0.00055119,0.0025021,0.00121,0,0,0.068731,-0.025362,0,0.031461,0,0,0,0.0079907,0.00034956,0.0025021,9.2453,0.0036141,0.0068245,1.1029e-08,0.82,0.9,0
0.038879,0.03755,0.0079752,0.00067456,0.0025949,0.0013977,0,0,0.069943,-0.024965,0,0.036339,0,0,0,0.0082394,0.00041037,0.0025949,10.48,0.0037482,0.0069974,1.2004e-08,0.84,0.9,0
0.04029,0.038965,0.0081602,0.00083093,0.0026973,0.0016142,0,0,0.071017,-0.024263,0,0.04197,0,0,0,0.008507,0.00048417,0.0026973,11.896,0.0038962,0.007177,1.3098e-08,0.86,0.9,0
0.04172,0.040448,0.0083321,0.0010341,0.0028098,0.0018588,0,0,0.071789,-0.023085,0,0.048328,0,0,0,0.0087864,0.00057967,0.0028098,13.515,0.0040586,0.0073502,1.427e-08,0.88,0.9,0
0.043161,0.041998,0.0084729,0.001302,0.0029325,0.002124,0,0,0.072025,-0.021196,0,0.055224,0,0,0,0.0090641,0.0007108,0.0029325,15.352,0.0042358,0.007494,1.5416e-08,0.9,0.9,0
0.044601,0.043606,0.0085624,0.0016556,0.0030654,0.0023907,0,0,0.071461,-0.018327,0,0.062158,0,0,0,0.0093189,0.00089906,0.0030654,17.395,0.0044278,0.0075733,1.6347e-08,0.92,0.9,0
0.04602,0.045252,0.0085867,0.0021068,0.003208,0.0026216,0,0,0.069922,-0.014316,0,0.068163,0,0,0,0.0095234,0.0011701,0.003208,19.555,0.0046338,0.0075445,1.6793e-08,0.94,0.9,0
0.047398,0.046897,0.0085489,0.0026324,0.0033544,0.0027663,0,0,0.067529,-0.0093856,0,0.071925,0,0,0,0.009647,0.0015344,0.0033544,21.613,0.0048452,0.0073743,1.6493e-08,0.96,0.9,0
0.048721,0.048485,0.0085037,0.0031618,0.0034997,0.002824,0,0,0.065053,-0.0043926,0,0.073425,0,0,0,0.0097232,0.0019423,0.0034997,23.348,0.0050551,0.0071322,1.5733e-08,0.98,0.9,0
0.049368,0.049258,0.0084913,0.0034158,0.0035721,0.0028377,0,0,0.063949,-0.002032,0,0.073781,0,0,0,0.0097617,0.0021454,0.0035721,24.117,0.0051597,0.0070132,1.5338e-08,1,0.9,0
0.00020111,-6.3598e-05,0.0026923,0.0010139,0.0011119,-0.00023223,0,0,0.020546,-0.0012738,0,-0.006038,0,0,0,0.0027279,0.00097829,0.0011119,-7.8858,0.001606,0.0016886,2.4201e-10,0,0.92,0
0.00041092,-0.00010235,0.0027062,0.00088637,0.0010778,-0.00019401,0,0,0.021169,-0.0024882,0,-0.0050443,0,0,0,0.0027327,0.00085981,0.0010778,-6.3031,0.0015568,0.0017766,2.7371e-10,0.02,0.92,0
0.00084678,-0.00012865,0.0027607,0.00066211,0.0010268,-9.0031e-05,0,0,0.02254,-0.0047415,0,-0.0023408,0,0,0,0.0027713,0.00065148,0.0010268,-2.7441,0.0014832,0.0019607,3.4229e-10,0.04,0.92,0
0.0013125,-5.0507e-05,0.002838,0.00049283,0.00099925,4.151e-05,0,0,0.023904,-0.0065834,0,0.0010793,0,0,0,0.0028433,0.00048756,0.00099925,0.81478,0.0014434,0.002147,4.1645e-10,0.06,0.92,0
0.0018029,0.00013398,0.0029088,0.00036917,0.00098339,0.00016762,0,0,0.02503,-0.0079848,0,0.0043583,0,0,0,0.0029227,0.00035525,0.00098339,3.6255,0.0014205,0.0023186,4.9074e-10,0.08,0.92,0
0.0023137,0.00042241,0.0029772,0.00028202,0.00097776,0.0002803,0,0,0.025992,-0.0090445,0,0.0072878,0,0,0,0.0030078,0.00025134,0.00097776,5.7791,0.0014123,0.0024749,5.6541e-10,0.1,0.92,0
0.0028426,0.00080917,0.003049,0.00022026,0.00098076,0.00037685,0,0,0.026886,-0.0098866,0,0.0097981,0,0,0,0.0030995,0.00016971,0.00098076,7.3852,0.0014167,0.0026203,6.4284e-10,0.12,0.92,0
0.0033892,0.0012872,0.0031288,0.00017559,0.00099133,0.0004581,0,0,0.027788,-0.010605,0,0.011911,0,0,0,0.0031991,0.00010528,0.00099133,8.5544,0.0014319,0.0027597,7.2594e-10,0.14,0.92,0
0.0039541,0.0018493,0.0032192,0.00014229,0.0010084,0.0005261,0,0,0.028739,-0.01126,0,0.013679,0,0,0,0.0033074,5.4067e-05,0.0010084,9.3822,0.0014566,0.0028966,8.1721e-10,0.16,0.92,0
0.0045388,0.0024882,0.0033205,0.0001165,0.0010311,0.00058297,0,0,0.029762,-0.01189,0,0.015157,0,0,0,0.003424,1.2967e-05,0.0010311,9.9442,0.0014893,0.003033,9.1865e-10,0.18,0.92,0
0.0051446,0.0031971,0.0034324,9.5605e-05,0.0010584,0.00063044,0,0,0.030862,-0.012516,0,0.016392,0,0,0,0.0035484,-2.0375e-05,0.0010584,10.298,0.0015288,0.0031702,1.0318e-09,0.2,0.92,0
0.0057732,0.0039695,0.003554,7.7827e-05,0.0010896,0.0006698,0,0,0.032038,-0.013152,0,0.017415,0,0,0,0.0036796,-4.7739e-05,0.0010896,10.488,0.0015738,0.0033087,1.158e-09,0.22,0.92,0
0.0064261,0.004799,0.0036843,6.1942e-05,0.0011239,0.00070195,0,0,0.033286,-0.013805,0,0.018251,0,0,0,0.0038167,-7.0457e-05,0.0011239,10.545,0.0016234,0.0034488,1.2981e-09,0.24,0.92,0
0.0071047,0.0056794,0.0038221,4.7112e-05,0.0011608,0.00072745,0,0,0.034597,-0.014477,0,0.018914,0,0,0,0.0039587,-8.9516e-05,0.0011608,10.494,0.0016766,0.0035902,1.4529e-09,0.26,0.92,0
0.00781,0.0066049,0.0039661,3.2782e-05,0.0011996,0.00074663,0,0,0.035963,-0.015169,0,0.019412,0,0,0,0.0041045,-0.00010564,0.0011996,10.353,0.0017328,0.0037328,1.6228e-09,0.28,0.92,0
0.0085432,0.0075695,0.0041151,1.8607e-05,0.0012401,0.00075968,0,0,0.037375,-0.01588,0,0.019752,0,0,0,0.004253,-0.00011934,0.0012401,10.136,0.0017913,0.0038758,1.8079e-09,0.3,0.92,0
0.009305,0.0085674,0.004268,4.4179e-06,0.0012817,0.00076665,0,0,0.038821,-0.016605,0,0.019933,0,0,0,0.0044034,-0.00013098,0.0012817,9.8552,0.0018514,0.0040188,2.0081e-09,0.32,0.92,0
0.010096,0.009593,0.0044235,-9.8053e-06,0.0013241,0.00076758,0,0,0.040292,-0.017341,0,0.019957,0,0,0,0.0045545,-0.00014078,0.0013241,9.5188,0.0019126,0.0041609,2.2228e-09,0.34,0.92,0
0.010917,0.010641,0.0045805,-2.3951e-05,0.001367,0.00076252,0,0,0.041776,-0.018082,0,0.019826,0,0,0,0.0047054,-0.00014884,0.001367,9.1352,0.0019745,0.0043015,2.4513e-09,0.36,0.92,0
0.011767,0.011706,0.0047378,-3.779e-05,0.00141,0.00075158,0,0,0.043261,-0.018821,0,0.019541,0,0,0,0.0048552,-0.00015522,0.00141,8.7119,0.0020367,0.0044398,2.6923e-09,0.38,0.92,0
0.012647,0.012782,0.0048942,-5.0991e-05,0.001453,0.00073498,0,0,0.044736,-0.019551,0,0.019109,0,0,0,0.0050031,-0.00015985,0.001453,8.2565,0.0020987,0.004575,2.9444e-09,0.4,0.92,0
0.013557,0.013865,0.0050488,-6.3144e-05,0.0014957,0.00071309,0,0,0.04619,-0.020265,0,0.01854,0,0,0,0.0051483,-0.00016266,0.0014957,7.7766,0.0021604,0.0047063,3.2059e-09,0.42,0.92,0
0.014495,0.014952,0.0052005,-7.3777e-05,0.001538,0.00068648,0,0,0.047612,-0.020953,0,0.017848,0,0,0,0.0052902,-0.00016352,0.001538,7.2805,0.0022216,0.0048331,3.4748e-09,0.44,0.92,0
0.015461,0.016037,0.0053484,-8.2391e-05,0.0015798,0.00065589,0,0,0.048992,-0.021609,0,0.017053,0,0,0,0.0054283,-0.00016225,0.0015798,6.777,0.0022819,0.0049548,3.7493e-09,0.46,0.92,0
0.016454,0.017118,0.005492,-8.8488e-05,0.001621,0.00062227,0,0,0.050322,-0.022224,0,0.016179,0,0,0,0.0055622,-0.00015871,0.001621,6.2755,0.0023415,0.005071,4.0274e-09,0.48,0.92,0
0.017474,0.018192,0.0056307,-9.1605e-05,0.0016617,0.0005868,0,0,0.051596,-0.022793,0,0.015257,0,0,0,0.0056918,-0.00015272,0.0016617,5.7862,0.0024003,0.0051813,4.3074e-09,0.5,0.92,0
0.018518,0.019258,0.0057642,-9.1342e-05,0.0017019,0.0005508,0,0,0.052811,-0.023312,0,0.014321,0,0,0,0.005817,-0.00014413,0.0017019,5.3196,0.0024582,0.0052857,4.588e-09,0.52,0.92,0
0.019586,0.020315,0.0058927,-8.739e-05,0.0017416,0.00051575,0,0,0.053965,-0.023777,0,0.013409,0,0,0,0.0059382,-0.00013285,0.0017416,4.8868,0.0025156,0.0053844,4.8684e-09,0.54,0.92,0
0.020677,0.021362,0.0060165,-7.955e-05,0.0017811,0.00048324,0,0,0.05506,-0.024188,0,0.012564,0,0,0,0.0060557,-0.00011881,0.0017811,4.4988,0.0025727,0.0054776,5.1486e-09,0.56,0.92,0
0.021789,0.022402,0.0061362,-6.7738e-05,0.0018205,0.00045492,0,0,0.056104,-0.024548,0,0.011828,0,0,0,0.0061705,-0.00010201,0.0018205,4.1667,0.0026297,0.0055661,5.4293e-09,0.58,0.92,0
0.022921,0.023435,0.0062528,-5.1984e-05,0.0018603,0.00043245,0,0,0.057103,-0.024859,0,0.011244,0,0,0,0.0062834,-8.2515e-05,0.0018603,3.9011,0.002687,0.0056508,5.7126e-09,0.6,0.92,0
0.024073,0.024465,0.0063677,-3.2414e-05,0.0019006,0.00041745,0,0,0.058072,-0.025129,0,0.010854,0,0,0,0.0063957,-6.0485e-05,0.0019006,3.712,0.0027453,0.005733,6.0016e-09,0.62,0.92,0
0.025244,0.025495,0.0064823,-9.2147e-06,0.0019419,0.00041148,0,0,0.059025,-0.025365,0,0.010698,0,0,0,0.0065093,-3.6142e-05,0.0019419,3.6086,0.002805,0.0058145,6.301e-09,0.64,0.92,0
0.026434,0.02653,0.0065987,1.7406e-05,0.0019848,0.00041601,0,0,0.05998,-0.025577,0,0.010816,0,0,0,0.0066259,-9.7763e-06,0.0019848,3.5988,0.002867,0.005897,6.617e-09,0.66,0.92,0
0.027643,0.027574,0.0067188,4.7286e-05,0.0020298,0.00043243,0,0,0.060957,-0.025773,0,0.011243,0,0,0,0.0067478,1.8281e-05,0.0020298,3.6893,0.002932,0.005983,6.958e-09,0.68,0.92,0
0.028872,0.028634,0.006845,8.0379e-05,0.0020776,0.00046207,0,0,0.061976,-0.025964,0,0.012014,0,0,0,0.0068777,4.7695e-05,0.0020776,3.8857,0.003001,0.006075,7.334e-09,0.7,0.92,0
0.030122,0.029715,0.0069797,0.00011685,0.002129,0.00050627,0,0,0.06306,-0.026158,0,0.013163,0,0,0,0.0070184,7.8176e-05,0.002129,4.1922,0.0030752,0.0061757,7.7578e-09,0.72,0.92,0
0.031395,0.030823,0.0071254,0.0001572,0.0021848,0.00056644,0,0,0.064228,-0.026359,0,0.014727,0,0,0,0.0071731,0.00010956,0.0021848,4.6125,0.0031558,0.0062882,8.2446e-09,0.74,0.92,0
0.032691,0.031967,0.0072846,0.0002024,0.0022461,0.00064422,0,0,0.065501,-0.026568,0,0.01675,0,0,0,0.0073451,0.00014188,0.0022461,5.1505,0.0032444,0.0064154,8.8129e-09,0.76,0.92,0
0.034015,0.033151,0.0074597,0.00025412,0.0023141,0.00074166,0,0,0.066892,-0.02678,0,0.019283,0,0,0,0.0075383,0.00017554,0.0023141,5.8109,0.0033426,0.0065603,9.4848e-09,0.78,0.92,0
0.035367,0.034385,0.0076525,0.00031504,0.0023903,0.00086137,0,0,0.06841,-0.026978,0,0.022396,0,0,0,0.0077562,0.00021141,0.0023903,6.6011,0.0034526,0.0067255,1.0286e-08,0.8,0.92,0
0.036751,0.035674,0.0078644,0.00038932,0.0024761,0.0010068,0,0,0.070047,-0.027128,0,0.026177,0,0,0,0.0080025,0.00025115,0.0024761,7.5335,0.0035766,0.0069129,1.1246e-08,0.82,0.92,0
0.038169,0.037027,0.0080945,0.00048335,0.0025734,0.0011824,0,0,0.071775,-0.02717,0,0.030741,0,0,0,0.0082803,0.00029759,0.0025734,8.6271,0.0037171,0.007123,1.2394e-08,0.84,0.92,0
0.039622,0.038451,0.0083391,0.00060692,0.0026838,0.0013934,0,0,0.073519,-0.027,0,0.036227,0,0,0,0.0085906,0.00035545,0.0026838,9.9115,0.0038766,0.007353,1.3756e-08,0.86,0.92,0
0.04111,0.039952,0.0085882,0.00077504,0.002809,0.001645,0,0,0.07513,-0.026441,0,0.042771,0,0,0,0.0089306,0.00043264,0.002809,11.429,0.0040574,0.0075941,1.5328e-08,0.88,0.92,0
0.042627,0.041535,0.0088213,0.0010105,0.0029495,0.0019394,0,0,0.076333,-0.025207,0,0.050425,0,0,0,0.0092889,0.00054296,0.0029495,13.231,0.0042605,0.0078255,1.7041e-08,0.9,0.92,0
0.044163,0.043199,0.009005,0.0013471,0.0031056,0.0022667,0,0,0.076692,-0.022861,0,0.058933,0,0,0,0.0096403,0.00071183,0.0031056,15.364,0.0044859,0.0080051,1.8683e-08,0.92,0.92,0
0.045695,0.044928,0.0091044,0.0018289,0.00328,0.0025897,0,0,0.075717,-0.018864,0,0.067332,0,0,0,0.0099472,0.00098612,0.00328,17.809,0.0047378,0.0080637,1.9836e-08,0.94,0.92,0
0.047192,0.046681,0.0091091,0.0024735,0.0034748,0.0028319,0,0,0.073246,-0.013016,0,0.073631,0,0,0,0.010165,0.0014172,0.0034748,20.355,0.0050191,0.0079244,1.9947e-08,0.96,0.92,0
0.048625,0.048383,0.0090874,0.0032011,0.0036865,0.0029605,0,0,0.070211,-0.0063109,0,0.076973,0,0,0,0.010326,0.0019624,0.0036865,22.673,0.005325,0.007651,1.922e-08,0.98,0.92,0
0.049322,0.04921,0.0090858,0.0035673,0.0037959,0.0030004,0,0,0.068768,-0.0029721,0,0.078009,0,0,0,0.010406,0.0022476,0.0037959,23.735,0.005483,0.0075056,1.8771e-08,1,0.92,0
0.00018265,-8.9675e-05,0.0024393,0.00089384,0.00099994,-0.00032843,0,0,0.018712,-0.0013793,0,-0.0085391,0,0,0,0.0025112,0.00082191,0.00099994,-11.659,0.0014444,0.0016099,2.0429e-10,0,0.94,0
0.00037423,-0.00015335,0.0024484,0.00075428,0.00096081,-0.00028306,0,0,0.019339,-0.0026849,0,-0.0073595,0,0,0,0.0025027,0.00069996,0.00096081,-9.5494,0.0013878,0.0016904,2.2713e-10,0.02,0.94,0
0.00077355,-0.0002256,0.0024932,0.00051679,0.00090298,-0.00016316,0,0,0.020672,-0.0050205,0,-0.0042422,0,0,0,0.0025153,0.00049466,0.00090298,-4.9899,0.0013043,0.001852,2.7499e-10,0.04,0.94,0
0.0012011,-0.00018395,0.0025591,0.00035612,0.00087456,-1.8751e-05,0,0,0.021899,-0.0067396,0,-0.00048753,0,0,0,0.0025645,0.0003507,0.00087456,-0.68064,0.0012632,0.0020046,3.2427e-10,0.06,0.94,0
0.0016495,-2.5965e-05,0.002617,0.000253,0.00086101,0.00010988,0,0,0.022828,-0.0079041,0,0.0028569,0,0,0,0.0026251,0.00024491,0.00086101,2.5247,0.0012437,0.0021401,3.7263e-10,0.08,0.94,0
0.0021143,0.0002431,0.0026764,0.00018597,0.0008587,0.00021577,0,0,0.02363,-0.0087455,0,0.00561,0,0,0,0.0026967,0.00016568,0.0008587,4.8135,0.0012404,0.0022656,4.2278e-10,0.1,0.94,0
0.0025947,0.00061456,0.0027469,0.0001412,0.00086642,0.00030048,0,0,0.024446,-0.0094279,0,0.0078124,0,0,0,0.0027822,0.00010586,0.00086642,6.4034,0.0012515,0.0023888,4.7847e-10,0.12,0.94,0
0.0030921,0.0010794,0.0028326,0.00011029,0.00088286,0.00036822,0,0,0.025346,-0.010043,0,0.0095737,0,0,0,0.0028824,6.0422e-05,0.00088286,7.4826,0.0012752,0.0025139,5.4255e-10,0.14,0.94,0
0.0036085,0.0016291,0.0029338,8.8085e-05,0.00090658,0.00042288,0,0,0.026354,-0.01064,0,0.010995,0,0,0,0.0029963,2.5595e-05,0.00090658,8.1914,0.0013095,0.0026428,6.1711e-10,0.16,0.94,0
0.0041463,0.0022558,0.0030495,7.1362e-05,0.00093627,0.0004674,0,0,0.027472,-0.011244,0,0.012152,0,0,0,0.0031223,-1.4094e-06,0.00093627,8.6301,0.0013524,0.0027763,7.0378e-10,0.18,0.94,0
0.0047074,0.0029524,0.003178,5.809e-05,0.00097082,0.00050385,0,0,0.028693,-0.011865,0,0.0131,0,0,0,0.0032587,-2.2625e-05,0.00097082,8.8695,0.0014023,0.0029145,8.0395e-10,0.2,0.94,0
0.005294,0.0037121,0.0033174,4.6947e-05,0.0010093,0.00053361,0,0,0.030005,-0.012511,0,0.013874,0,0,0,0.0034039,-3.9523e-05,0.0010093,8.9594,0.0014579,0.003057,9.1883e-10,0.22,0.94,0
0.0059076,0.0045284,0.0034661,3.7065e-05,0.0010509,0.00055755,0,0,0.031397,-0.01318,0,0.014496,0,0,0,0.0035563,-5.3167e-05,0.0010509,8.9351,0.001518,0.0032035,1.0495e-09,0.24,0.94,0
0.0065499,0.0053954,0.0036224,2.7865e-05,0.0010951,0.00057623,0,0,0.032855,-0.013874,0,0.014982,0,0,0,0.0037146,-6.4325e-05,0.0010951,8.8218,0.0015818,0.0033531,1.1967e-09,0.26,0.94,0
0.0072218,0.0063069,0.0037849,1.8973e-05,0.0011412,0.00058993,0,0,0.034368,-0.014588,0,0.015338,0,0,0,0.0038774,-7.3546e-05,0.0011412,8.6377,0.0016483,0.0035052,1.3612e-09,0.28,0.94,0
0.0079246,0.0072572,0.003952,1.0161e-05,0.0011887,0.0005988,0,0,0.035924,-0.01532,0,0.015569,0,0,0,0.0040434,-8.1217e-05,0.0011887,8.3962,0.0017169,0.0036589,1.5433e-09,0.3,0.94,0
0.0086588,0.0082405,0.0041224,1.3203e-06,0.0012371,0.0006029,0,0,0.037509,-0.016065,0,0.015675,0,0,0,0.0042113,-8.76e-05,0.0012371,8.1075,0.0017869,0.0038132,1.7428e-09,0.32,0.94,0
0.0094249,0.0092514,0.0042946,-7.5621e-06,0.0012861,0.00060223,0,0,0.039111,-0.016818,0,0.015658,0,0,0,0.0043799,-9.2864e-05,0.0012861,7.7795,0.0018577,0.0039673,1.9595e-09,0.34,0.94,0
0.010223,0.010284,0.0044674,-1.6413e-05,0.0013353,0.00059682,0,0,0.040718,-0.017572,0,0.015517,0,0,0,0.0045481,-9.71e-05,0.0013353,7.419,0.0019288,0.0041202,2.1924e-09,0.36,0.94,0
0.011054,0.011334,0.0046394,-2.5087e-05,0.0013843,0.00058677,0,0,0.042316,-0.018322,0,0.015256,0,0,0,0.0047147,-0.00010034,0.0013843,7.032,0.0019995,0.0042708,2.4403e-09,0.38,0.94,0
0.011916,0.012396,0.0048094,-3.3371e-05,0.0014328,0.00057223,0,0,0.043895,-0.01906,0,0.014878,0,0,0,0.0048786,-0.00010257,0.0014328,6.6243,0.0020696,0.0044183,2.7014e-09,0.4,0.94,0
0.012809,0.013465,0.0049761,-4.1006e-05,0.0014805,0.0005535,0,0,0.045442,-0.01978,0,0.014391,0,0,0,0.0050388,-0.00010374,0.0014805,6.2019,0.0021385,0.0045617,2.9737e-09,0.42,0.94,0
0.013734,0.014538,0.0051385,-4.7694e-05,0.0015273,0.00053103,0,0,0.046947,-0.020474,0,0.013807,0,0,0,0.0051946,-0.00010376,0.0015273,5.7709,0.002206,0.0047002,3.2549e-09,0.44,0.94,0
0.014687,0.01561,0.0052958,-5.3119e-05,0.0015728,0.00050539,0,0,0.048399,-0.021137,0,0.01314,0,0,0,0.0053453,-0.00010255,0.0015728,5.3379,0.0022718,0.0048331,3.5423e-09,0.46,0.94,0
0.01567,0.016678,0.0054472,-5.6969e-05,0.0016171,0.00047736,0,0,0.049792,-0.021762,0,0.012411,0,0,0,0.0054902,-9.9984e-05,0.0016171,4.9102,0.0023358,0.0049598,3.8336e-09,0.48,0.94,0
0.016679,0.017741,0.0055922,-5.8953e-05,0.00166,0.00044785,0,0,0.051119,-0.022346,0,0.011644,0,0,0,0.0056292,-9.5965e-05,0.00166,4.4952,0.0023977,0.0050801,4.1264e-09,0.5,0.94,0
0.017714,0.018796,0.0057305,-5.8819e-05,0.0017015,0.0004179,0,0,0.052377,-0.022884,0,0.010866,0,0,0,0.0057621,-9.0393e-05,0.0017015,4.1011,0.0024577,0.0051938,4.4188e-09,0.52,0.94,0
0.018774,0.019843,0.0058624,-5.6375e-05,0.0017418,0.00038871,0,0,0.053568,-0.023376,0,0.010106,0,0,0,0.0058892,-8.3188e-05,0.0017418,3.7361,0.002516,0.005301,4.7096e-09,0.54,0.94,0
0.019857,0.020882,0.0059882,-5.1495e-05,0.001781,0.00036151,0,0,0.054693,-0.023823,0,0.0093991,0,0,0,0.006011,-7.4299e-05,0.001781,3.4087,0.0025726,0.0054021,4.9982e-09,0.56,0.94,0
0.020962,0.021914,0.0061087,-4.4126e-05,0.0018194,0.00033761,0,0,0.055761,-0.024225,0,0.0087778,0,0,0,0.0061282,-6.3709e-05,0.0018194,3.1273,0.002628,0.0054979,5.2852e-09,0.58,0.94,0
0.022087,0.022941,0.0062249,-3.4285e-05,0.0018572,0.00031832,0,0,0.056781,-0.024589,0,0.0082764,0,0,0,0.0062421,-5.1447e-05,0.0018572,2.9002,0.0026826,0.0055892,5.5725e-09,0.6,0.94,0
0.023233,0.023964,0.0063385,-2.2049e-05,0.0018949,0.00030495,0,0,0.057766,-0.024921,0,0.0079287,0,0,0,0.006354,-3.7586e-05,0.0018949,2.7349,0.0027371,0.0056776,5.8633e-09,0.62,0.94,0
0.024398,0.024989,0.0064512,-7.5318e-06,0.0019331,0.00029872,0,0,0.058736,-0.025228,0,0.0077668,0,0,0,0.0064659,-2.2245e-05,0.0019331,2.6387,0.0027923,0.0057648,6.1624e-09,0.64,0.94,0
0.025582,0.026018,0.0065652,9.1436e-06,0.0019723,0.00030083,0,0,0.059708,-0.025521,0,0.0078215,0,0,0,0.00658,-5.5839e-06,0.0019723,2.6177,0.0028489,0.0058529,6.4763e-09,0.66,0.94,0
0.026786,0.027058,0.006683,2.7885e-05,0.0020133,0.0003124,0,0,0.060707,-0.02581,0,0.0081224,0,0,0,0.0066987,1.2216e-05,0.0020133,2.6772,0.0029081,0.0059442,6.8139e-09,0.68,0.94,0
0.028011,0.028112,0.0068073,4.8681e-05,0.0020568,0.00033455,0,0,0.061757,-0.026106,0,0.0086982,0,0,0,0.006825,3.0971e-05,0.0020568,2.8218,0.0029709,0.0060415,7.186e-09,0.7,0.94,0
0.029257,0.029188,0.0069412,7.1666e-05,0.0021039,0.00036841,0,0,0.062886,-0.026419,0,0.0095786,0,0,0,0.0069623,5.0535e-05,0.0021039,3.0551,0.0030389,0.0061479,7.6065e-09,0.72,0.94,0
0.030526,0.030291,0.007088,9.7199e-05,0.0021556,0.00041525,0,0,0.064122,-0.026759,0,0.010796,0,0,0,0.0071143,7.0844e-05,0.0021556,3.3805,0.0031136,0.0062668,8.0925e-09,0.74,0.94,0
0.031822,0.031428,0.0072512,0.00012598,0.0022132,0.0004766,0,0,0.065495,-0.027133,0,0.012392,0,0,0,0.0072852,9.1987e-05,0.0022132,3.8016,0.0031968,0.0064019,8.6654e-09,0.76,0.94,0
0.033146,0.032606,0.0074348,0.00015922,0.0022782,0.00055446,0,0,0.067036,-0.027547,0,0.014416,0,0,0,0.0074797,0.0001143,0.0022782,4.3234,0.0032907,0.006557,9.3522e-09,0.78,0.94,0
0.034503,0.033833,0.0076428,0.00019889,0.0023525,0.00065157,0,0,0.068773,-0.027997,0,0.016941,0,0,0,0.0077032,0.00013849,0.0023525,4.9538,0.003398,0.0067363,1.0187e-08,0.8,0.94,0
0.035897,0.035116,0.0078793,0.00024815,0.0024382,0.00077182,0,0,0.070734,-0.028471,0,0.020067,0,0,0,0.0079616,0.00016587,0.0024382,5.7056,0.0035219,0.0069442,1.1214e-08,0.82,0.94,0
0.037332,0.036463,0.0081482,0.00031205,0.0025381,0.00092078,0,0,0.072932,-0.028938,0,0.02394,0,0,0,0.0082616,0.00019866,0.0025381,6.6002,0.0036661,0.0071848,1.2489e-08,0.84,0.94,0
0.038814,0.037885,0.0084518,0.00039878,0.0026552,0.0011064,0,0,0.075356,-0.029333,0,0.028767,0,0,0,0.00861,0.00024063,0.0026552,7.6719,0.0038353,0.0074612,1.408e-08,0.86,0.94,0
0.040347,0.03939,0.0087883,0.00052186,0.0027931,0.0013398,0,0,0.077938,-0.029526,0,0.034834,0,0,0,0.009012,0.00029813,0.0027931,8.9753,0.0040344,0.0077729,1.6058e-08,0.88,0.94,0
0.041932,0.040989,0.0091452,0.00070401,0.0029548,0.0016343,0,0,0.080476,-0.02926,0,0.042491,0,0,0,0.0094668,0.00038241,0.0029548,10.594,0.004268,0.0081104,1.8467e-08,0.9,0.94,0
0.043566,0.042692,0.0094865,0.00098378,0.0031411,0.0020009,0,0,0.08249,-0.028045,0,0.052023,0,0,0,0.0099553,0.00051493,0.0031411,12.643,0.0045371,0.0084399,2.1204e-08,0.92,0.94,0
0.045231,0.044498,0.0097396,0.0014285,0.0033504,0.0024259,0,0,0.083059,-0.024985,0,0.063073,0,0,0,0.010422,0.00074573,0.0033504,15.238,0.0048395,0.0086737,2.3745e-08,0.94,0.94,0
0.046888,0.046376,0.0098487,0.0021508,0.0035998,0.0028264,0,0,0.081235,-0.018837,0,0.073486,0,0,0,0.010801,0.001198,0.0035998,18.323,0.0051998,0.0086588,2.5044e-08,0.96,0.94,0
0.048481,0.048233,0.0099054,0.0031638,0.0039207,0.0031141,0,0,0.0778,-0.0098407,0,0.080967,0,0,0,0.011143,0.0019262,0.0039207,21.534,0.0056633,0.0084035,2.4981e-08,0.98,0.94,0
0.049254,0.049139,0.0099459,0.0037287,0.0041024,0.0032241,0,0,0.075966,-0.0048577,0,0.083827,0,0,0,0.011324,0.0023509,0.0041024,23.105,0.0059257,0.0082404,2.4736e-08,1,0.94,0
0.00016625,-0.00011877,0.0022011,0.00074961,0.00088522,-0.00041509,0,0,0.017107,-0.0017629,0,-0.010792,0,0,0,0.0023184,0.00063238,0.00088522,-15.025,0.0012787,0.001578,1.8119e-10,0,0.96,0
0.00034213,-0.00020974,0.0021982,0.00059266,0.00083725,-0.00034993,0,0,0.017692,-0.0031798,0,-0.0090983,0,0,0,0.0022826,0.00050828,0.00083725,-12.065,0.0012094,0.001638,1.9253e-10,0.02,0.96,0
0.00070769,-0.00032947,0.0022157,0.00035436,0.00077103,-0.00020168,0,0,0.018781,-0.0054168,0,-0.0052437,0,0,0,0.0022468,0.00032328,0.00077103,-6.3078,0.0011137,0.0017444,2.1482e-10,0.04,0.96,0
0.0010934,-0.00032009,0.0022468,0.0002266,0.00074201,-5.0982e-05,0,0,0.019562,-0.0067003,0,-0.0013255,0,0,0,0.002253,0.00022037,0.00074201,-1.56,0.0010718,0.0018289,2.3566e-10,0.06,0.96,0
0.0014902,-0.00018218,0.0022747,0.00015243,0.00072814,6.6349e-05,0,0,0.020105,-0.0074843,0,0.0017251,0,0,0,0.0022792,0.00014793,0.00072814,1.6788,0.0010518,0.0019087,2.5789e-10,0.08,0.96,0
0.0018976,7.2589e-05,0.0023227,0.00010751,0.00072905,0.00015254,0,0,0.020717,-0.00808,0,0.0039661,0,0,0,0.0023345,9.564e-05,0.00072905,3.7959,0.0010531,0.001999,2.8676e-10,0.1,0.96,0
0.0023188,0.00043205,0.0023967,7.927e-05,0.00074278,0.0002164,0,0,0.0215,-0.0086256,0,0.0056263,0,0,0,0.0024179,5.8038e-05,0.00074278,5.1499,0.0010729,0.0021029,3.2485e-10,0.12,0.96,0
0.0027576,0.0008855,0.0024949,6.068e-05,0.00076666,0.00026494,0,0,0.022467,-0.0091778,0,0.0068885,0,0,0,0.0025247,3.0805e-05,0.00076666,5.9928,0.0011074,0.0022195,3.7363e-10,0.14,0.96,0
0.0032175,0.0014237,0.0026137,4.7801e-05,0.00079844,0.00030284,0,0,0.023598,-0.0097583,0,0.0078737,0,0,0,0.0026506,1.0826e-05,0.00079844,6.4917,0.0011533,0.0023473,4.3436e-10,0.16,0.96,0
0.0037015,0.0020385,0.0027496,3.8364e-05,0.00083637,0.00033303,0,0,0.024871,-0.010374,0,0.0086588,0,0,0,0.002792,-4.0665e-06,0.00083637,6.7565,0.0012081,0.0024848,5.0838e-10,0.18,0.96,0
0.0042124,0.0027225,0.0028995,3.1015e-05,0.00087916,0.00035738,0,0,0.026265,-0.011026,0,0.0092918,0,0,0,0.0029459,-1.5363e-05,0.00087916,6.8596,0.0012699,0.0026306,5.9702e-10,0.2,0.96,0
0.0047521,0.0034691,0.003061,2.4915e-05,0.00092578,0.00037702,0,0,0.027758,-0.011711,0,0.0098026,0,0,0,0.00311,-2.4092e-05,0.00092578,6.8488,0.0013372,0.0027835,7.0168e-10,0.22,0.96,0
0.0053227,0.0042717,0.0032319,1.9533e-05,0.00097543,0.00039266,0,0,0.029334,-0.012427,0,0.010209,0,0,0,0.0032824,-3.0964e-05,0.00097543,6.7563,0.001409,0.0029422,8.2368e-10,0.24,0.96,0
0.0059255,0.0051245,0.0034103,1.4525e-05,0.0010274,0.00040468,0,0,0.030977,-0.013168,0,0.010522,0,0,0,0.0034613,-3.6475e-05,0.0010274,6.6039,0.0014841,0.0031056,9.642e-10,0.26,0.96,0
0.0065617,0.0060213,0.0035943,9.6744e-06,0.0010812,0.00041329,0,0,0.032671,-0.01393,0,0.010745,0,0,0,0.003645,-4.097e-05,0.0010812,6.4065,0.0015617,0.0032725,1.1242e-09,0.28,0.96,0
0.0072323,0.0069567,0.0037825,4.8507e-06,0.0011362,0.00041857,0,0,0.034402,-0.014708,0,0.010883,0,0,0,0.003832,-4.4684e-05,0.0011362,6.1744,0.0016412,0.0034417,1.3043e-09,0.3,0.96,0
0.0079378,0.0079248,0.0039731,-7.1415e-09,0.0011919,0.00042054,0,0,0.036156,-0.015495,0,0.010934,0,0,0,0.0040209,-4.7775e-05,0.0011919,5.915,0.0017217,0.0036121,1.5048e-09,0.32,0.96,0
0.0086785,0.0089203,0.0041648,-4.9045e-06,0.001248,0.0004192,0,0,0.037918,-0.016287,0,0.010899,0,0,0,0.0042102,-5.0337e-05,0.001248,5.634,0.0018026,0.0037824,1.7253e-09,0.34,0.96,0
0.0094546,0.009938,0.0043558,-9.7992e-06,0.0013038,0.00041455,0,0,0.039676,-0.017077,0,0.010778,0,0,0,0.0043984,-5.2421e-05,0.0013038,5.3357,0.0018833,0.0039514,1.9651e-09,0.36,0.96,0
0.010266,0.010973,0.0045448,-1.4607e-05,0.0013591,0.00040662,0,0,0.041415,-0.017858,0,0.010572,0,0,0,0.0045843,-5.4038e-05,0.0013591,5.0241,0.0019631,0.0041178,2.2226e-09,0.38,0.96,0
0.011111,0.01202,0.0047304,-1.921e-05,0.0014134,0.00039553,0,0,0.043122,-0.018623,0,0.010284,0,0,0,0.0047664,-5.5174e-05,0.0014134,4.7027,0.0020415,0.0042806,2.4958e-09,0.4,0.96,0
0.01199,0.013074,0.0049112,-2.3459e-05,0.0014663,0.00038148,0,0,0.044783,-0.019367,0,0.0099185,0,0,0,0.0049435,-5.5791e-05,0.0014663,4.3752,0.002118,0.0044385,2.7821e-09,0.42,0.96,0
0.012902,0.014133,0.005086,-2.7188e-05,0.0015176,0.00036477,0,0,0.046388,-0.020083,0,0.0094839,0,0,0,0.0051146,-5.5832e-05,0.0015176,4.0455,0.0021921,0.0045906,3.0785e-09,0.44,0.96,0
0.013846,0.015191,0.0052537,-3.0222e-05,0.0015671,0.0003458,0,0,0.047927,-0.020765,0,0.0089908,0,0,0,0.0052788,-5.5234e-05,0.0015671,3.7177,0.0022635,0.004736,3.3817e-09,0.46,0.96,0
0.01482,0.016247,0.0054137,-3.2384e-05,0.0016144,0.00032512,0,0,0.049391,-0.021408,0,0.0084531,0,0,0,0.0054352,-5.3924e-05,0.0016144,3.3965,0.0023319,0.004874,3.6882e-09,0.48,0.96,0
0.015822,0.017298,0.0055652,-3.3513e-05,0.0016595,0.00030336,0,0,0.050774,-0.022009,0,0.0078874,0,0,0,0.0055835,-5.1831e-05,0.0016595,3.0868,0.002397,0.0050042,3.9947e-09,0.5,0.96,0
0.01685,0.018343,0.005708,-3.3468e-05,0.0017024,0.00028127,0,0,0.052073,-0.022566,0,0.007313,0,0,0,0.0057234,-4.8889e-05,0.0017024,2.7937,0.002459,0.0051262,4.2986e-09,0.52,0.96,0
0.017905,0.01938,0.0058423,-3.2142e-05,0.001743,0.00025967,0,0,0.05329,-0.023077,0,0.0067514,0,0,0,0.0058552,-4.5044e-05,0.001743,2.5228,0.0025177,0.0052402,4.5976e-09,0.54,0.96,0
0.018982,0.020409,0.0059685,-2.9465e-05,0.0017817,0.00023944,0,0,0.054428,-0.023545,0,0.0062256,0,0,0,0.0059793,-4.0256e-05,0.0017817,2.2797,0.0025736,0.0053467,4.8907e-09,0.56,0.96,0
0.020082,0.021433,0.0060875,-2.5408e-05,0.0018186,0.00022152,0,0,0.055495,-0.023972,0,0.0057594,0,0,0,0.0060966,-3.4509e-05,0.0018186,2.0701,0.0026269,0.0054463,5.1778e-09,0.58,0.96,0
0.021202,0.022451,0.0062005,-1.9981e-05,0.0018541,0.00020681,0,0,0.056502,-0.024364,0,0.005377,0,0,0,0.0062083,-2.7808e-05,0.0018541,1.8994,0.0026782,0.0055403,5.4607e-09,0.6,0.96,0
0.022342,0.023468,0.0063092,-1.3227e-05,0.0018888,0.00019623,0,0,0.057465,-0.024726,0,0.0051019,0,0,0,0.0063162,-2.0184e-05,0.0018888,1.7731,0.0027283,0.0056301,5.7423e-09,0.62,0.96,0
0.023501,0.024486,0.0064157,-5.2081e-06,0.0019232,0.00019065,0,0,0.058403,-0.025069,0,0.004957,0,0,0,0.0064222,-1.1696e-05,0.0019232,1.6959,0.0027779,0.0057175,6.0276e-09,0.64,0.96,0
0.024678,0.025509,0.0065225,4.0069e-06,0.001958,0.00019092,0,0,0.059339,-0.025401,0,0.0049639,0,0,0,0.0065289,-2.4182e-06,0.001958,1.6723,0.0028282,0.005805,6.3235e-09,0.66,0.96,0
0.025874,0.026542,0.0066324,1.4369e-05,0.001994,0.00019783,0,0,0.060299,-0.025736,0,0.0051435,0,0,0,0.0066392,7.5617e-06,0.001994,1.7059,0.0028803,0.005895,6.6389e-09,0.68,0.96,0
0.02709,0.027589,0.0067486,2.5876e-05,0.0020323,0.00021216,0,0,0.061311,-0.026084,0,0.0055163,0,0,0,0.0067563,1.8161e-05,0.0020323,1.8,0.0029356,0.0059906,6.9853e-09,0.7,0.96,0
0.028327,0.028658,0.0068746,3.861e-05,0.002074,0.00023475,0,0,0.062409,-0.02646,0,0.0061035,0,0,0,0.0068839,2.9326e-05,0.002074,1.9572,0.0029957,0.0060951,7.3771e-09,0.72,0.96,0
0.029586,0.029753,0.0070146,5.279e-05,0.0021202,0.00026651,0,0,0.063627,-0.026876,0,0.0069294,0,0,0,0.0070263,4.1058e-05,0.0021202,2.18,0.0030625,0.0062124,7.8323e-09,0.74,0.96,0
0.030872,0.030881,0.0071729,6.8838e-05,0.0021725,0.00030861,0,0,0.065005,-0.027348,0,0.0080238,0,0,0,0.0071883,5.3464e-05,0.0021725,2.4714,0.0031381,0.0063464,8.3737e-09,0.76,0.96,0
0.032186,0.03205,0.0073547,8.7492e-05,0.0022327,0.00036257,0,0,0.066587,-0.027887,0,0.0094269,0,0,0,0.0073754,6.682e-05,0.0022327,2.8351,0.003225,0.0065021,9.0311e-09,0.78,0.96,0
0.033535,0.033265,0.0075659,0.00010998,0.0023028,0.00043063,0,0,0.06842,-0.028506,0,0.011196,0,0,0,0.0075942,8.1672e-05,0.0023028,3.2774,0.0033262,0.0066847,9.844e-09,0.8,0.96,0
0.034923,0.034536,0.0078133,0.00013833,0.0023855,0.00051607,0,0,0.070562,-0.029213,0,0.013418,0,0,0,0.0078526,9.9003e-05,0.0023855,3.8088,0.0034457,0.0069006,1.0866e-08,0.82,0.96,0
0.036358,0.03587,0.0081053,0.0001759,0.0024844,0.00062395,0,0,0.073072,-0.03001,0,0.016223,0,0,0,0.0081607,0.00012052,0.0024844,4.4473,0.0035885,0.0071573,1.2173e-08,0.84,0.96,0
0.037846,0.037278,0.0084518,0.00022843,0.0026041,0.0007622,0,0,0.076021,-0.030883,0,0.019817,0,0,0,0.0085311,0.00014915,0.0026041,5.2233,0.0037614,0.0074637,1.3874e-08,0.86,0.96,0
0.039398,0.038771,0.0088639,0.00030603,0.002751,0.00094347,0,0,0.079468,-0.031784,0,0.02453,0,0,0,0.0089799,0.00019002,0.002751,6.1885,0.0039736,0.0078301,1.6128e-08,0.88,0.96,0
0.041025,0.040365,0.0093506,0.00042717,0.0029333,0.001188,0,0,0.083424,-0.03258,0,0.030887,0,0,0,0.0095254,0.00025229,0.0029333,7.4318,0.004237,0.0082655,1.9156e-08,0.9,0.96,0
0.042735,0.042077,0.0099073,0.00062673,0.0031602,0.0015264,0,0,0.087712,-0.032935,0,0.039686,0,0,0,0.010181,0.00035277,0.0031602,9.1054,0.0045647,0.0087687,2.3214e-08,0.92,0.96,0
0.044533,0.043928,0.010473,0.00097045,0.003433,0.0019938,0,0,0.091518,-0.032013,0,0.051838,0,0,0,0.010918,0.00052508,0.003433,11.459,0.0049588,0.0092875,2.8275e-08,0.94,0.96,0
0.046396,0.045927,0.010868,0.0016012,0.0037408,0.0025633,0,0,0.092657,-0.027815,0,0.066647,0,0,0,0.01159,0.00087986,0.0037408,14.733,0.0054034,0.0096067,3.2702e-08,0.96,0.96,0
0.04824,0.047989,0.011138,0.0028853,0.0042069,0.0031658,0,0,0.090099,-0.01718,0,0.08231,0,0,0,0.012283,0.0017398,0.0042069,19.113,0.0060766,0.0095611,3.5497e-08,0.98,0.96,0
0.049141,0.049016,0.011283,0.0037573,0.0045121,0.0034688,0,0,0.088022,-0.009812,0,0.09019,0,0,0,0.012686,0.0023547,0.0045121,21.604,0.0065175,0.0094478,3.6606e-08,1,0.96,0
0.00017044,-0.00016019,0.0021411,0.00063973,0.00083423,-0.00049656,0,0,0.016989,-0.0025285,0,-0.012911,0,0,0,0.0023048,0.00047603,0.00083423,-16.728,0.001205,0.0016825,2.1321e-10,0,0.98,0
0.00033977,-0.00028054,0.0020382,0.00043441,0.00074179,-0.00038383,0,0,0.016854,-0.003996,0,-0.0099795,0,0,0,0.0021444,0.00032825,0.00074179,-12.706,0.0010715,0.0016522,1.879e-10,0.02,0.98,0
0.00067415,-0.00044227,0.0018905,0.00017381,0.0006193,-0.00018591,0,0,0.016526,-0.0057914,0,-0.0048336,0,0,0,0.0019191,0.00014523,0.0006193,-5.9597,0.00089454,0.0015916,1.5404e-10,0.04,0.98,0
0.0010008,-0.00045196,0.0018277,8.7174e-05,0.00057445,-4.8458e-05,0,0,0.016292,-0.0063346,0,-0.0012599,0,0,0,0.0018324,8.242e-05,0.00057445,-1.5679,0.00082976,0.0015639,1.4451e-10,0.06,0.98,0
0.0013258,-0.00032534,0.0018249,4.1106e-05,0.0005598,3.6952e-05,0,0,0.016446,-0.0067431,0,0.00096075,0,0,0,0.001827,3.8984e-05,0.0005598,1.099,0.00080861,0.0015933,1.4885e-10,0.08,0.98,0
0.0016587,-8.0103e-05,0.0018789,1.8566e-05,0.00056923,9.2353e-05,0,0,0.017025,-0.0071586,0,0.0024012,0,0,0,0.0018843,1.3128e-05,0.00056923,2.6823,0.00082222,0.0016647,1.6487e-10,0.1,0.98,0
0.0020068,0.00026953,0.0019735,6.4863e-06,0.00059399,0.00013048,0,0,0.017933,-0.0076375,0,0.0033926,0,0,0,0.0019831,-3.1411e-06,0.00059399,3.595,0.00085798,0.0017654,1.9156e-10,0.12,0.98,0
0.002376,0.00071227,0.002098,-1.559e-07,0.00062935,0.00015825,0,0,0.019092,-0.0081836,0,0.0041145,0,0,0,0.0021113,-1.3407e-05,0.00062935,4.0983,0.00090907,0.0018874,2.292e-10,0.14,0.98,0
0.0027705,0.0012387,0.002245,-3.9095e-06,0.00067233,0.00017937,0,0,0.020445,-0.0087912,0,0.0046637,0,0,0,0.002261,-1.9933e-05,0.00067233,4.3481,0.00097115,0.0020257,2.7881e-10,0.16,0.98,0
0.0031938,0.0018408,0.0024095,-6.0552e-06,0.00072103,0.00019595,0,0,0.02195,-0.0094521,0,0.0050947,0,0,0,0.0024275,-2.4052e-05,0.00072103,4.4392,0.0010415,0.0021769,3.4183e-10,0.18,0.98,0
0.0036485,0.0025114,0.0025877,-7.2968e-06,0.00077413,0.00020919,0,0,0.023577,-0.010159,0,0.005439,0,0,0,0.002607,-2.6596e-05,0.00077413,4.4295,0.0011182,0.0023385,4.1998e-10,0.2,0.98,0
0.0041369,0.0032436,0.002777,-8.0394e-06,0.00083069,0.0002198,0,0,0.025302,-0.010903,0,0.0057148,0,0,0,0.002797,-2.8093e-05,0.00083069,4.3548,0.0011999,0.0025086,5.1507e-10,0.22,0.98,0
0.0046606,0.0040314,0.002975,-8.5284e-06,0.00088995,0.00022818,0,0,0.027106,-0.01168,0,0.0059327,0,0,0,0.0029954,-2.889e-05,0.00088995,4.2375,0.0012855,0.0026855,6.2895e-10,0.24,0.98,0
0.0052211,0.0048687,0.0031799,-8.9169e-06,0.0009513,0.00023455,0,0,0.028972,-0.012483,0,0.0060984,0,0,0,0.0032002,-2.9217e-05,0.0009513,4.0917,0.0013741,0.0028678,7.6333e-10,0.26,0.98,0
0.0058195,0.0057497,0.0033898,-9.3017e-06,0.0010141,0.00023902,0,0,0.030883,-0.013305,0,0.0062145,0,0,0,0.0034097,-2.9229e-05,0.0010141,3.9264,0.0014649,0.003054,9.1968e-10,0.28,0.98,0
0.0064564,0.0066689,0.003603,-9.7421e-06,0.001078,0.00024161,0,0,0.032825,-0.01414,0,0.0062818,0,0,0,0.0036223,-2.9033e-05,0.001078,3.7474,0.0015571,0.0032428,1.0991e-09,0.3,0.98,0
0.0071325,0.0076207,0.0038178,-1.027e-05,0.0011423,0.00024232,0,0,0.034782,-0.014983,0,0.0063002,0,0,0,0.0038363,-2.8698e-05,0.0011423,3.5585,0.0016499,0.0034327,1.3022e-09,0.32,0.98,0
0.0078477,0.0085999,0.0040326,-1.0895e-05,0.0012065,0.00024112,0,0,0.036739,-0.015826,0,0.0062691,0,0,0,0.0040499,-2.827e-05,0.0012065,3.3624,0.0017427,0.0036223,1.5289e-09,0.34,0.98,0
0.008602,0.0096013,0.0042455,-1.1609e-05,0.0012702,0.00023801,0,0,0.03868,-0.016663,0,0.0061883,0,0,0,0.0042617,-2.7775e-05,0.0012702,3.161,0.0018347,0.0038101,1.7783e-09,0.36,0.98,0
0.0093949,0.01062,0.0044551,-1.2387e-05,0.0013328,0.000233,0,0,0.040589,-0.017487,0,0.006058,0,0,0,0.0044699,-2.7224e-05,0.0013328,2.956,0.0019252,0.0039947,2.0489e-09,0.38,0.98,0
0.010226,0.011651,0.0046595,-1.319e-05,0.0013939,0.00022614,0,0,0.042453,-0.018292,0,0.0058796,0,0,0,0.0046729,-2.6617e-05,0.0013939,2.749,0.0020134,0.0041746,2.3381e-09,0.4,0.98,0
0.011093,0.012691,0.0048572,-1.3968e-05,0.001453,0.00021754,0,0,0.044255,-0.01907,0,0.0056561,0,0,0,0.0048692,-2.5941e-05,0.001453,2.5415,0.0020987,0.0043486,2.6425e-09,0.42,0.98,0
0.011996,0.013734,0.0050468,-1.4662e-05,0.0015096,0.00020737,0,0,0.045983,-0.019816,0,0.0053917,0,0,0,0.0050573,-2.518e-05,0.0015096,2.3354,0.0021806,0.0045152,2.9582e-09,0.44,0.98,0
0.012932,0.014779,0.005227,-1.5209e-05,0.0015635,0.00019587,0,0,0.047625,-0.020524,0,0.0050926,0,0,0,0.0052361,-2.4309e-05,0.0015635,2.1327,0.0022585,0.0046734,3.2807e-09,0.46,0.98,0
0.013901,0.015822,0.0053968,-1.5543e-05,0.0016144,0.00018334,0,0,0.049172,-0.021189,0,0.0047668,0,0,0,0.0054046,-2.33e-05,0.0016144,1.9357,0.0023319,0.0048223,3.6052e-09,0.48,0.98,0
0.014899,0.016861,0.0055555,-1.5603e-05,0.001662,0.00017015,0,0,0.050616,-0.021808,0,0.004424,0,0,0,0.005562,-2.2125e-05,0.001662,1.7468,0.0024006,0.0049613,3.9271e-09,0.5,0.98,0
0.015925,0.017894,0.0057027,-1.5334e-05,0.0017062,0.00015675,0,0,0.051954,-0.02238,0,0.0040755,0,0,0,0.0057081,-2.0753e-05,0.0017062,1.5687,0.0024645,0.0050901,4.2423e-09,0.52,0.98,0
0.016977,0.01892,0.0058384,-1.4694e-05,0.0017471,0.00014361,0,0,0.053187,-0.022903,0,0.0037337,0,0,0,0.0058429,-1.916e-05,0.0017471,1.4045,0.0025236,0.0052086,4.5474e-09,0.54,0.98,0
0.018053,0.019941,0.0059632,-1.365e-05,0.0017849,0.00013124,0,0,0.054318,-0.023381,0,0.0034122,0,0,0,0.0059668,-1.7322e-05,0.0017849,1.2571,0.0025781,0.0053173,4.8404e-09,0.56,0.98,0
0.01915,0.020955,0.0060779,-1.2188e-05,0.0018197,0.00012018,0,0,0.055356,-0.023815,0,0.0031247,0,0,0,0.0060809,-1.5226e-05,0.0018197,1.1296,0.0026285,0.005417,5.1206e-09,0.58,0.98,0
0.020267,0.021966,0.0061839,-1.0302e-05,0.0018521,0.00011098,0,0,0.056314,-0.024211,0,0.0028854,0,0,0,0.0061865,-1.2862e-05,0.0018521,1.0252,0.0026752,0.0055089,5.3892e-09,0.6,0.98,0
0.021403,0.022975,0.0062832,-8e-06,0.0018826,0.00010415,0,0,0.057209,-0.024577,0,0.002708,0,0,0,0.0062855,-1.0231e-05,0.0018826,0.94683,0.0027193,0.0055948,5.6491e-09,0.62,0.98,0
0.022556,0.023986,0.0063781,-5.2948e-06,0.0019119,0.00010022,0,0,0.058062,-0.024923,0,0.0026057,0,0,0,0.0063802,-7.3382e-06,0.0019119,0.89726,0.0027616,0.0056767,5.9054e-09,0.64,0.98,0
0.023725,0.025002,0.0064714,-2.1979e-06,0.0019408,9.9653e-05,0,0,0.058899,-0.025259,0,0.002591,0,0,0,0.0064734,-4.1965e-06,0.0019408,0.87903,0.0028033,0.0057571,6.165e-09,0.66,0.98,0
0.024911,0.026028,0.0065663,1.2894e-06,0.0019703,0.00010292,0,0,0.059748,-0.025597,0,0.0026759,0,0,0,0.0065684,-8.1675e-07,0.0019703,0.89434,0.0028459,0.0058388,6.4372e-09,0.68,0.98,0
0.026115,0.027069,0.0066663,5.1889e-06,0.0020014,0.00011047,0,0,0.060643,-0.025951,0,0.0028721,0,0,0,0.0066687,2.7964e-06,0.0020014,0.94509,0.002891,0.005925,6.7337e-09,0.7,0.98,0
0.027337,0.028129,0.0067756,9.5619e-06,0.0020355,0.00012276,0,0,0.06162,-0.026338,0,0.0031919,0,0,0,0.0067785,6.6562e-06,0.0020355,1.0329,0.0029402,0.0060195,7.0687e-09,0.72,0.98,0
0.02858,0.029216,0.0068985,1.4532e-05,0.0020739,0.00014034,0,0,0.06272,-0.026772,0,0.0036489,0,0,0,0.0069023,1.081e-05,0.0020739,1.1593,0.0029957,0.0061262,7.4603e-09,0.74,0.98,0
0.029846,0.030334,0.0070403,2.032e-05,0.0021182,0.00016387,0,0,0.063987,-0.027272,0,0.0042606,0,0,0,0.0070452,1.5363e-05,0.0021182,1.3259,0.0030596,0.0062497,7.931e-09,0.76,0.98,0
0.031139,0.031491,0.0072066,2.7297e-05,0.0021702,0.00019426,0,0,0.065474,-0.027857,0,0.0050507,0,0,0,0.0072134,2.0518e-05,0.0021702,1.535,0.0031347,0.006395,8.5099e-09,0.78,0.98,0
0.032465,0.032693,0.0074043,3.608e-05,0.0022321,0.00023285,0,0,0.067239,-0.028549,0,0.006054,0,0,0,0.0074138,2.6637e-05,0.0022321,1.7906,0.0032242,0.0065683,9.2363e-09,0.8,0.98,0
0.033829,0.033947,0.0076419,4.7702e-05,0.0023069,0.00028169,0,0,0.069355,-0.029369,0,0.0073238,0,0,0,0.0076552,3.4356e-05,0.0023069,2.0989,0.0033321,0.0067767,1.0165e-08,0.82,0.98,0
0.035239,0.035263,0.00793,6.3937e-05,0.0023982,0.00034406,0,0,0.071914,-0.030345,0,0.0089457,0,0,0,0.0079492,4.4798e-05,0.0023982,2.4714,0.0034641,0.0070297,1.1377e-08,0.84,0.98,0
0.036705,0.036649,0.0082836,8.7993e-05,0.0025115,0.00042544,0,0,0.075037,-0.031505,0,0.011062,0,0,0,0.0083115,6.0023e-05,0.0025115,2.9282,0.0036277,0.0073396,1.2997e-08,0.86,0.98,0
0.038241,0.038119,0.0087235,0.00012592,0.0026548,0.00053534,0,0,0.078893,-0.032876,0,0.013919,0,0,0,0.0087655,8.3882e-05,0.0026548,3.5052,0.0038347,0.0077241,1.5228e-08,0.88,0.98,0
0.039861,0.039686,0.0092816,0.0001905,0.0028416,0.00069118,0,0,0.083719,-0.034465,0,0.017971,0,0,0,0.0093475,0.00012456,0.0028416,4.2692,0.0041046,0.008209,1.8429e-08,0.9,0.98,0
0.041589,0.041374,0.010004,0.00030752,0.0030934,0.00092702,0,0,0.089836,-0.036217,0,0.024102,0,0,0,0.010114,0.00019724,0.0030934,5.3522,0.0044683,0.0088327,2.3259e-08,0.92,0.98,0
0.043455,0.043217,0.010961,0.00055352,0.0034544,0.0013092,0,0,0.097589,-0.037712,0,0.03404,0,0,0,0.011163,0.00035161,0.0034544,7.0205,0.0049898,0.0096425,3.1057e-08,0.94,0.98,0
0.045493,0.045264,0.012097,0.0010109,0.0039325,0.0019596,0,0,0.10614,-0.03798,0,0.050949,0,0,0,0.012502,0.00060631,0.0039325,9.8271,0.0056802,0.010631,4.3898e-08,0.96,0.98,0
0.0477,0.047546,0.013552,0.0027294,0.0048843,0.0031149,0,0,0.11268,-0.028014,0,0.080988,0,0,0,0.014537,0.0017439,0.0048843,15.244,0.0070552,0.011565,6.762e-08,0.98,0.98,0
0.04884,0.048746,0.014419,0.0041606,0.0055738,0.0038585,0,0,0.11498,-0.018371,0,0.10032,0,0,0,0.015845,0.0027344,0.0055738,18.878,0.008051,0.011969,8.3367e-08,1,0.98,0
0.00018195,-0.00018592,0.0021929,0.00061168,0.00084138,-0.00053991,0,0,0.01757,-0.0029861,0,-0.014038,0,0,0,0.0023798,0.0004248,0.00084138,-17.015,0.0012153,0.0017877,2.5288e-10,0,1,0
0.0003514,-0.00032122,0.0019984,0.00036722,0.00070969,-0.00039424,0,0,0.016753,-0.004452,0,-0.01025,0,0,0,0.0021129,0.00025268,0.00070969,-12.469,0.0010251,0.0016825,1.9769e-10,0.02,1,0
0.00067013,-0.00050091,0.0017051,7.7688e-05,0.00053485,-0.0001643,0,0,0.015214,-0.0059431,0,-0.0042717,0,0,0,0.0017292,5.3588e-05,0.00053485,-5.352,0.00077256,0.0014949,1.2219e-10,0.04,1,0
0.00095995,-0.00051531,0.001575,7.3415e-06,0.00047469,-3.9107e-05,0,0,0.014303,-0.0060755,0,-0.0010168,0,0,0,0.0015782,4.0596e-06,0.00047469,-1.3612,0.00068566,0.0014002,9.7478e-11,0.06,1,0
0.0012423,-0.00039207,0.0015623,-2.5856e-05,0.00046095,2.5478e-05,0,0,0.014318,-0.0063284,0,0.00066244,0,0,0,0.0015635,-2.7019e-05,0.00046095,0.86743,0.00066581,0.0014119,9.6569e-11,0.08,1,0
0.0015327,-0.00015064,0.0016277,-3.6766e-05,0.00047728,6.412e-05,0,0,0.014955,-0.0066826,0,0.0016671,0,0,0,0.0016305,-3.9604e-05,0.00047728,2.1127,0.0006894,0.0014814,1.0887e-10,0.1,1,0
0.0018405,0.00019438,0.001739,-4.035e-05,0.00050959,8.9448e-05,0,0,0.015982,-0.0071492,0,0.0023256,0,0,0,0.0017438,-4.5214e-05,0.00050959,2.7718,0.00073607,0.0015865,1.315e-10,0.12,1,0
0.002172,0.00063171,0.0018812,-4.0544e-05,0.0005522,0.00010743,0,0,0.017277,-0.0077057,0,0.0027931,0,0,0,0.0018877,-4.703e-05,0.0005522,3.0957,0.00079762,0.0017157,1.6454e-10,0.14,1,0
0.0025316,0.0011521,0.0020456,-3.9217e-05,0.00060192,0.00012091,0,0,0.018768,-0.0083348,0,0.0031437,0,0,0,0.0020533,-4.6845e-05,0.00060192,3.2246,0.00086945,0.0018626,2.0913e-10,0.16,1,0
0.0029227,0.0017476,0.0022269,-3.7157e-05,0.00065691,0.00013142,0,0,0.020409,-0.0090229,0,0.0034169,0,0,0,0.0022352,-4.5521e-05,0.00065691,3.2394,0.00094887,0.0020233,2.6697e-10,0.18,1,0
0.0033479,0.0024109,0.0024212,-3.4755e-05,0.00071595,0.00013978,0,0,0.022169,-0.0097592,0,0.0036342,0,0,0,0.00243,-4.3544e-05,0.00071595,3.187,0.0010341,0.0021948,3.4004e-10,0.2,1,0
0.0038094,0.0031357,0.0026261,-3.2216e-05,0.00077816,0.00014646,0,0,0.024023,-0.010535,0,0.0038078,0,0,0,0.0026351,-4.1189e-05,0.00077816,3.0948,0.001124,0.0023751,4.3046e-10,0.22,1,0
0.0043089,0.0039156,0.0028392,-2.9651e-05,0.00084286,0.00015171,0,0,0.025952,-0.011343,0,0.0039446,0,0,0,0.0028482,-3.8626e-05,0.00084286,2.9791,0.0012175,0.0025624,5.4037e-10,0.24,1,0
0.0048475,0.0047448,0.0030587,-2.7129e-05,0.00090946,0.00015569,0,0,0.02794,-0.012176,0,0.0040479,0,0,0,0.0030675,-3.5962e-05,0.00090946,2.8496,0.0013137,0.0027552,6.7181e-10,0.26,1,0
0.0054264,0.0056175,0.0032828,-2.4695e-05,0.00097742,0.00015843,0,0,0.029969,-0.013027,0,0.0041192,0,0,0,0.0032913,-3.3268e-05,0.00097742,2.7118,0.0014118,0.002952,8.2654e-10,0.28,1,0
0.0060463,0.0065283,0.0035097,-2.238e-05,0.0010462,0.00015996,0,0,0.032026,-0.013892,0,0.0041589,0,0,0,0.0035179,-3.0596e-05,0.0010462,2.5691,0.0015112,0.0031513,1.0059e-09,0.3,1,0
0.0067075,0.0074716,0.0037378,-2.0207e-05,0.0011153,0.00016025,0,0,0.034093,-0.014761,0,0.0041665,0,0,0,0.0037456,-2.7985e-05,0.0011153,2.4236,0.001611,0.0033516,1.2108e-09,0.32,1,0
0.00741,0.0084423,0.0039653,-1.8192e-05,0.0011841,0.00015929,0,0,0.036156,-0.01563,0,0.0041415,0,0,0,0.0039726,-2.5467e-05,0.0011841,2.2766,0.0017104,0.0035513,1.4412e-09,0.34,1,0
0.0081537,0.0094352,0.0041904,-1.6349e-05,0.0012522,0.00015706,0,0,0.038197,-0.016491,0,0.0040836,0,0,0,0.0041971,-2.3066e-05,0.0012522,2.1287,0.0018088,0.0037489,1.6963e-09,0.36,1,0
0.0089379,0.010446,0.0044113,-1.4685e-05,0.001319,0.00015357,0,0,0.0402,-0.017338,0,0.0039927,0,0,0,0.0044174,-2.0805e-05,0.001319,1.9809,0.0019052,0.0039429,1.9744e-09,0.38,1,0
0.0097617,0.011469,0.0046261,-1.3204e-05,0.0013839,0.00014884,0,0,0.042149,-0.018162,0,0.0038698,0,0,0,0.0046316,-1.8703e-05,0.0013839,1.8337,0.0019989,0.0041316,2.2727e-09,0.4,1,0
0.010624,0.0125,0.0048333,-1.1905e-05,0.0014464,0.00014294,0,0,0.044029,-0.018958,0,0.0037165,0,0,0,0.0048382,-1.6773e-05,0.0014464,1.6879,0.0020893,0.0043136,2.5873e-09,0.42,1,0
0.011523,0.013537,0.0050311,-1.0783e-05,0.0015061,0.00013599,0,0,0.045825,-0.019719,0,0.0035357,0,0,0,0.0050353,-1.5027e-05,0.0015061,1.5443,0.0021755,0.0044875,2.9139e-09,0.44,1,0
0.012457,0.014574,0.0052182,-9.829e-06,0.0015625,0.00012813,0,0,0.047524,-0.02044,0,0.0033314,0,0,0,0.0052218,-1.3472e-05,0.0015625,1.4042,0.002257,0.004652,3.2471e-09,0.46,1,0
0.013424,0.015611,0.0053934,-9.0325e-06,0.0016153,0.00011958,0,0,0.049115,-0.021116,0,0.003109,0,0,0,0.0053965,-1.211e-05,0.0016153,1.2688,0.0023332,0.0048062,3.5814e-09,0.48,1,0
0.014421,0.016643,0.0055559,-8.3798e-06,0.0016643,0.00011057,0,0,0.050591,-0.021744,0,0.0028749,0,0,0,0.0055585,-1.0941e-05,0.0016643,1.1395,0.0024039,0.0049492,3.9114e-09,0.5,1,0
0.015447,0.01767,0.0057053,-7.8561e-06,0.0017092,0.00010141,0,0,0.051949,-0.022322,0,0.0026366,0,0,0,0.0057074,-9.9596e-06,0.0017092,1.018,0.0024689,0.0050808,4.2322e-09,0.52,1,0
0.016499,0.018692,0.0058415,-7.4467e-06,0.0017502,9.2404e-05,0,0,0.053186,-0.022849,0,0.0024025,0,0,0,0.0058432,-9.1567e-06,0.0017502,0.90609,0.0025281,0.0052008,4.5398e-09,0.54,1,0
0.017575,0.019707,0.005965,-7.1369e-06,0.0017873,8.3903e-05,0,0,0.054309,-0.023328,0,0.0021815,0,0,0,0.0059663,-8.5206e-06,0.0017873,0.80566,0.0025817,0.0053098,4.8316e-09,0.56,1,0
0.018672,0.020717,0.0060767,-6.9123e-06,0.0018209,7.6265e-05,0,0,0.055325,-0.023762,0,0.0019829,0,0,0,0.0060779,-8.0366e-06,0.0018209,0.7187,0.0026303,0.0054085,5.1064e-09,0.58,1,0
0.019788,0.021724,0.0061783,-6.7587e-06,0.0018515,6.9848e-05,0,0,0.056249,-0.024157,0,0.0018161,0,0,0,0.0061792,-7.6876e-06,0.0018515,0.64719,0.0026743,0.0054983,5.3652e-09,0.6,1,0
0.020922,0.02273,0.0062716,-6.6612e-06,0.0018795,6.5006e-05,0,0,0.057097,-0.02452,0,0.0016902,0,0,0,0.0062724,-7.4545e-06,0.0018795,0.59308,0.0027148,0.005581,5.6109e-09,0.62,1,0
0.022072,0.023737,0.0063591,-6.6021e-06,0.0019057,6.2074e-05,0,0,0.057894,-0.024861,0,0.0016139,0,0,0,0.0063598,-7.3158e-06,0.0019057,0.5582,0.0027527,0.0056586,5.8485e-09,0.64,1,0
0.023237,0.02475,0.0064438,-6.5588e-06,0.0019312,6.1372e-05,0,0,0.058664,-0.02519,0,0.0015957,0,0,0,0.0064445,-7.2478e-06,0.0019312,0.54426,0.0027895,0.0057338,6.0851e-09,0.66,1,0
0.024418,0.025772,0.0065291,-6.5002e-06,0.0019568,6.3202e-05,0,0,0.05944,-0.025522,0,0.0016432,0,0,0,0.0065298,-7.222e-06,0.0019568,0.55274,0.0028264,0.0058096,6.3302e-09,0.68,1,0
0.025615,0.026809,0.0066187,-6.3816e-06,0.0019837,6.7856e-05,0,0,0.060255,-0.025871,0,0.0017643,0,0,0,0.0066195,-7.2034e-06,0.0019837,0.58493,0.0028653,0.0058893,6.5953e-09,0.7,1,0
0.026829,0.027866,0.006717,-6.1376e-06,0.0020132,7.5638e-05,0,0,0.061148,-0.026252,0,0.0019666,0,0,0,0.006718,-7.1448e-06,0.0020132,0.64194,0.002908,0.0059768,6.8948e-09,0.72,1,0
0.028061,0.028948,0.0068285,-5.6714e-06,0.0020469,8.6892e-05,0,0,0.062162,-0.026683,0,0.0022592,0,0,0,0.0068299,-6.9792e-06,0.0020469,0.72481,0.0029566,0.0060761,7.2462e-09,0.74,1,0
0.029315,0.030061,0.0069587,-4.8374e-06,0.0020862,0.00010205,0,0,0.063343,-0.027183,0,0.0026533,0,0,0,0.0069604,-6.6063e-06,0.0020862,0.83465,0.0030133,0.0061919,7.6715e-09,0.76,1,0
0.030595,0.031212,0.0071133,-3.4114e-06,0.002133,0.0001217,0,0,0.064745,-0.027773,0,0.0031643,0,0,0,0.0071158,-5.8692e-06,0.002133,0.97304,0.003081,0.0063294,8.1986e-09,0.78,1,0
0.031905,0.032407,0.0072996,-1.0368e-06,0.0021896,0.00014674,0,0,0.06643,-0.028478,0,0.0038152,0,0,0,0.0073031,-4.5128e-06,0.0021896,1.1425,0.0031627,0.0064947,8.8654e-09,0.8,1,0
0.033252,0.033653,0.0075261,2.8812e-06,0.0022587,0.00017853,0,0,0.068476,-0.029325,0,0.0046417,0,0,0,0.0075311,-2.102e-06,0.0022587,1.3474,0.0032626,0.0066955,9.7246e-09,0.82,1,0
0.034644,0.034959,0.0078042,9.3862e-06,0.0023441,0.00021932,0,0,0.070981,-0.030351,0,0.0057024,0,0,0,0.0078114,2.1398e-06,0.0023441,1.5955,0.0033859,0.0069413,1.0854e-08,0.84,1,0
0.036091,0.036333,0.0081497,2.0474e-05,0.002451,0.00027296,0,0,0.074082,-0.031597,0,0.0070971,0,0,0,0.0081604,9.7228e-06,0.002451,1.9009,0.0035404,0.0072454,1.2378e-08,0.86,1,0
0.037607,0.037787,0.0085866,4.01e-05,0.002588,0.00034647,0,0,0.077981,-0.033123,0,0.0090082,0,0,0,0.008603,2.3633e-05,0.002588,2.2899,0.0037382,0.0076277,1.4505e-08,0.88,1,0
0.03921,0.039338,0.0091551,7.8128e-05,0.00277,0.00045352,0,0,0.083007,-0.034994,0,0.011791,0,0,0,0.0091817,5.1531e-05,0.00277,2.813,0.0040011,0.0081199,1.7627e-08,0.9,1,0
0.040927,0.041006,0.0099254,0.00015459,0.003024,0.00062468,0,0,0.089718,-0.037302,0,0.016242,0,0,0,0.0099723,0.00010772,0.003024,3.5808,0.004368,0.0087778,2.256e-08,0.92,1,0
0.042799,0.04283,0.011066,0.00036179,0.0034282,0.00092854,0,0,0.099286,-0.039864,0,0.024142,0,0,0,0.011161,0.00026616,0.0034282,4.8199,0.0049519,0.0097086,3.1487e-08,0.94,1,0
0.044899,0.04487,0.012729,0.00075417,0.0040448,0.0015871,0,0,0.11289,-0.042779,0,0.041264,0,0,0,0.012975,0.00050795,0.0040448,7.2382,0.0058426,0.011129,5.0486e-08,0.96,1,0
0.047315,0.047255,0.015215,0.0028024,0.0054052,0.0030914,0,0,0.12753,-0.033837,0,0.080378,0,0,0,0.016124,0.0018936,0.0054052,13.067,0.0078075,0.012863,9.2863e-08,0.98,1,0
0.048611,0.048556,0.016732,0.0046143,0.0064038,0.0041341,0,0,0.13426,-0.023264,0,0.10749,0,0,0,0.018188,0.0031585,0.0064038,17.252,0.00925,0.013729,1.2211e-07,1,1,0
