"Displacements:0","Displacements:1","Stress/Strain:0","Stress/Strain:1","Stress/Strain:2","Stress/Strain:3","Stress/Strain:4","Stress/Strain:5","Stress/Strain:6","Stress/Strain:7","Stress/Strain:8","Stress/Strain:9","Stress/Strain:10","Stress/Strain:11","Stress/Strain:12","Principal Stress:0","Principal Stress:1","Principal Stress:2","Principal Stress:3","Principal Stress:4","Principal Stress:5","Principal Stress:6","nodes:0","nodes:1","nodes:2"
0.0008611,0.00089094,0.051894,0.014319,0.019864,0.012767,0,0,0.083278,-0.014417,0,0.06639,0,0,0,0.056367,0.0098452,0.019864,17.165,0.028692,0.042506,3.5945e-06,0,0,0
0.0016656,0.001678,0.047217,0.0086794,0.016769,0.0095209,0,0,0.079166,-0.021033,0,0.049509,0,0,0,0.050001,0.005896,0.016769,12.942,0.024222,0.039871,2.7421e-06,0.02,0,0
0.0031666,0.0030877,0.039619,0.0022724,0.012567,0.0047942,0,0,0.070335,-0.026767,0,0.02493,0,0,0,0.040347,0.0015443,0.012567,6.981,0.018153,0.034634,1.5116e-06,0.04,0,0
0.0044789,0.0042278,0.034692,0.0010074,0.01071,0.002679,0,0,0.062354,-0.025226,0,0.013931,0,0,0,0.034948,0.00075116,0.01071,4.4003,0.01547,0.030466,9.6794e-07,0.06,0,0
0.0056608,0.0051849,0.03147,0.00034726,0.0095452,0.0017037,0,0,0.057005,-0.023915,0,0.0088594,0,0,0,0.031581,0.00023632,0.0095452,3.0536,0.013788,0.027882,7.1902e-07,0.08,0,0
0.0067591,0.0060036,0.029424,0.0001047,0.0088587,0.0011653,0,0,0.053471,-0.02276,0,0.0060593,0,0,0,0.029479,4.9595e-05,0.0088587,2.2287,0.012796,0.026163,5.86e-07,0.1,0,0
0.0077996,0.006712,0.028004,-1.309e-05,0.0083971,0.00084039,0,0,0.050977,-0.021867,0,0.00437,0,0,0,0.028033,-4.3017e-05,0.0083971,1.6879,0.012129,0.024952,5.0439e-07,0.12,0,0
0.0087982,0.007328,0.026974,-7.1274e-05,0.0080708,0.00062777,0,0,0.049148,-0.021169,0,0.0032644,0,0,0,0.026991,-8.8563e-05,0.0080708,1.3092,0.011658,0.024061,4.5033e-07,0.14,0,0
0.0097655,0.0078639,0.026201,-0.00010173,0.0078299,0.00048047,0,0,0.047766,-0.020622,0,0.0024984,0,0,0,0.026212,-0.00011215,0.0078299,1.032,0.01131,0.023387,4.1246e-07,0.16,0,0
0.010709,0.0083285,0.02561,-0.00011723,0.0076477,0.00037326,0,0,0.046701,-0.020189,0,0.001941,0,0,0,0.025616,-0.00012366,0.0076477,0.82067,0.011047,0.022867,3.8492e-07,0.18,0,0
0.011634,0.0087283,0.025151,-0.00012405,0.007508,0.00029137,0,0,0.045871,-0.019843,0,0.0015151,0,0,0,0.025155,-0.00012806,0.007508,0.65263,0.010845,0.022461,3.6443e-07,0.2,0,0
0.012544,0.0090682,0.024796,-0.00012531,0.0074012,0.00022531,0,0,0.045227,-0.019569,0,0.0011716,0,0,0,0.024799,-0.00012775,0.0074012,0.51216,0.010691,0.022144,3.4905e-07,0.22,0,0
0.013443,0.0093523,0.024527,-0.0001226,0.0073214,0.00016862,0,0,0.044736,-0.019355,0,0.00087684,0,0,0,0.024529,-0.00012402,0.0073214,0.38767,0.010575,0.021901,3.3765e-07,0.24,0,0
0.014333,0.0095834,0.024335,-0.00011678,0.0072655,0.00011663,0,0,0.044381,-0.019194,0,0.0006065,0,0,0,0.024336,-0.00011749,0.0072655,0.27037,0.010495,0.021724,3.2958e-07,0.26,0,0
0.015218,0.0097641,0.024216,-0.00010828,0.0072322,6.596e-05,0,0,0.044157,-0.019085,0,0.00034299,0,0,0,0.024216,-0.00010856,0.0072322,0.15364,0.010447,0.021611,3.2454e-07,0.28,0,0
0.016099,0.0098966,0.024169,-9.7414e-05,0.0072215,1.4228e-05,0,0,0.044064,-0.019029,0,7.3983e-05,0,0,0,0.024169,-9.7493e-05,0.0072215,0.033,0.010431,0.02156,3.2243e-07,0.3,0,0
0.01698,0.009983,0.024198,-8.4452e-05,0.0072341,-3.9971e-05,0,0,0.044107,-0.019028,0,-0.00020785,0,0,0,0.024198,-8.4593e-05,0.0072341,-0.093819,0.010449,0.021576,3.2336e-07,0.32,0,0
0.017864,0.010026,0.024308,-6.9766e-05,0.0072713,-9.7035e-05,0,0,0.044294,-0.019087,0,-0.00050458,0,0,0,0.024308,-7.0267e-05,0.0072713,-0.22657,0.010503,0.021662,3.275e-07,0.34,0,0
0.018752,0.010028,0.024501,-5.3893e-05,0.0073341,-0.00015626,0,0,0.044634,-0.019209,0,-0.00081253,0,0,0,0.024502,-5.5074e-05,0.0073341,-0.36228,0.010594,0.021822,3.3511e-07,0.36,0,0
0.019649,0.0099927,0.02478,-3.7603e-05,0.0074228,-0.00021571,0,0,0.045129,-0.019397,0,-0.0011217,0,0,0,0.024782,-3.9765e-05,0.0074228,-0.49514,0.010722,0.022059,3.4645e-07,0.38,0,0
0.020557,0.0099255,0.025144,-2.1927e-05,0.0075365,-0.00027221,0,0,0.045779,-0.019652,0,-0.0014155,0,0,0,0.025147,-2.5278e-05,0.0075365,-0.61679,0.010886,0.022371,3.6169e-07,0.4,0,0
0.02148,0.0098321,0.025584,-8.0594e-06,0.0076727,-0.00032138,0,0,0.046569,-0.01997,0,-0.0016712,0,0,0,0.025588,-1.2622e-05,0.0076727,-0.71699,0.011083,0.022753,3.8082e-07,0.42,0,0
0.02242,0.0097201,0.026086,2.9557e-06,0.0078266,-0.00035809,0,0,0.047474,-0.020342,0,-0.001862,0,0,0,0.026091,-2.5868e-06,0.0078266,-0.78502,0.011305,0.023193,4.0354e-07,0.44,0,0
0.023379,0.009598,0.026628,1.0742e-05,0.0079916,-0.00037723,0,0,0.048455,-0.02075,0,-0.0019616,0,0,0,0.026634,4.7114e-06,0.0079916,-0.81175,0.011543,0.023669,4.2911e-07,0.46,0,0
0.024358,0.0094754,0.027182,1.6023e-05,0.0081594,-0.00037506,0,0,0.049459,-0.021173,0,-0.0019503,0,0,0,0.027188,1.016e-05,0.0081594,-0.79215,0.011786,0.024157,4.5634e-07,0.48,0,0
0.025357,0.0093622,0.027716,2.0491e-05,0.0083209,-0.00035037,0,0,0.050427,-0.021581,0,-0.0018219,0,0,0,0.027721,1.5434e-05,0.0083209,-0.72707,0.012019,0.024627,4.8364e-07,0.5,0,0
0.026375,0.0092682,0.028198,2.5883e-05,0.0084673,-0.00030514,0,0,0.051301,-0.021948,0,-0.0015867,0,0,0,0.028202,2.2062e-05,0.0084673,-0.62337,0.012231,0.025049,5.0917e-07,0.52,0,0
0.027409,0.0092017,0.028603,3.275e-05,0.0085907,-0.00024387,0,0,0.052032,-0.022251,0,-0.0012681,0,0,0,0.028606,3.0284e-05,0.0085907,-0.4918,0.012409,0.025401,5.3119e-07,0.54,0,0
0.028457,0.0091697,0.02891,3.9898e-05,0.0086848,-0.00017201,0,0,0.052584,-0.022477,0,-0.00089445,0,0,0,0.028911,3.8613e-05,0.0086848,-0.34356,0.012545,0.025666,5.4824e-07,0.56,0,0
0.029513,0.0091769,0.029105,4.511e-05,0.0087451,-9.4413e-05,0,0,0.052937,-0.02262,0,-0.00049095,0,0,0,0.029106,4.4634e-05,0.0087451,-0.18744,0.012632,0.025834,5.593e-07,0.58,0,0
0.030574,0.0092262,0.029184,4.6675e-05,0.0087692,-1.4683e-05,0,0,0.053079,-0.022679,0,-7.6351e-05,0,0,0,0.029184,4.6541e-05,0.0087692,-0.029112,0.012667,0.025902,5.638e-07,0.6,0,0
0.031636,0.0093183,0.029145,4.4602e-05,0.0087569,6.4173e-05,0,0,0.053009,-0.022652,0,0.0003337,0,0,0,0.029145,4.4325e-05,0.0087569,0.12714,0.012649,0.02587,5.6156e-07,0.62,0,0
0.032694,0.0094516,0.028993,4.0605e-05,0.0087099,0.00013856,0,0,0.052735,-0.02254,0,0.0007205,0,0,0,0.028993,3.9755e-05,0.0087099,0.27583,0.012581,0.025738,5.5288e-07,0.64,0,0
0.033745,0.0096226,0.028738,3.6886e-05,0.0086323,0.00020366,0,0,0.052274,-0.022348,0,0.0010591,0,0,0,0.028739,3.5179e-05,0.0086323,0.40866,0.012469,0.025516,5.3852e-07,0.66,0,0
0.034785,0.0098259,0.028398,3.4605e-05,0.0085299,0.00025409,0,0,0.051658,-0.022088,0,0.0013213,0,0,0,0.028401,3.1992e-05,0.0085299,0.51532,0.012321,0.025218,5.1973e-07,0.68,0,0
0.035812,0.010054,0.027999,3.3188e-05,0.0084098,0.00028545,0,0,0.050933,-0.021779,0,0.0014843,0,0,0,0.028003,2.9885e-05,0.0084098,0.58634,0.012147,0.024866,4.9817e-07,0.7,0,0
0.036823,0.0103,0.02757,3.0905e-05,0.0082803,0.00029589,0,0,0.050154,-0.021448,0,0.0015386,0,0,0,0.027574,2.7317e-05,0.0082803,0.61633,0.01196,0.024486,4.7562e-07,0.72,0,0
0.037818,0.010553,0.02714,2.6094e-05,0.0081498,0.00028672,0,0,0.049374,-0.021122,0,0.0014909,0,0,0,0.027143,2.2673e-05,0.0081498,0.60576,0.011772,0.024107,4.5374e-07,0.74,0,0
0.038798,0.010807,0.026734,1.8073e-05,0.0080257,0.00026179,0,0,0.048642,-0.02082,0,0.0013613,0,0,0,0.026737,1.5168e-05,0.0080257,0.56064,0.011593,0.023752,4.3379e-07,0.76,0,0
0.039764,0.011054,0.026373,7.2338e-06,0.0079141,0.00022625,0,0,0.047994,-0.020558,0,0.0011765,0,0,0,0.026375,5.0204e-06,0.0079141,0.49049,0.011432,0.023439,4.1658e-07,0.78,0,0
0.040717,0.011288,0.026068,-5.4032e-06,0.0078189,0.00018537,0,0,0.047448,-0.020343,0,0.00096393,0,0,0,0.02607,-6.9205e-06,0.0078189,0.40607,0.011294,0.023177,4.0246e-07,0.8,0,0
0.041662,0.011505,0.025824,-1.8702e-05,0.0077416,0.00014369,0,0,0.047014,-0.020177,0,0.0007472,0,0,0,0.025825,-1.9635e-05,0.0077416,0.31743,0.011182,0.02297,3.9145e-07,0.82,0,0
0.042598,0.011701,0.025639,-3.1714e-05,0.0076823,0.00010471,0,0,0.046688,-0.020056,0,0.00054451,0,0,0,0.02564,-3.2223e-05,0.0076823,0.2328,0.011097,0.022815,3.8331e-07,0.84,0,0
0.043529,0.011875,0.025508,-4.3765e-05,0.0076394,7.0826e-05,0,0,0.04646,-0.019976,0,0.00036829,0,0,0,0.025509,-4.4006e-05,0.0076394,0.15817,0.011035,0.022708,3.7765e-07,0.86,0,0
0.044456,0.012025,0.025423,-5.4421e-05,0.0076105,4.339e-05,0,0,0.046312,-0.019929,0,0.00022563,0,0,0,0.025423,-5.4517e-05,0.0076105,0.097185,0.010993,0.02264,3.7403e-07,0.88,0,0
0.045382,0.012151,0.025373,-6.3442e-05,0.0075927,2.2889e-05,0,0,0.046228,-0.019906,0,0.00011902,0,0,0,0.025373,-6.3471e-05,0.0075927,0.051354,0.010967,0.022602,3.7196e-07,0.9,0,0
0.046305,0.012254,0.025348,-7.0728e-05,0.0075831,9.0902e-06,0,0,0.046188,-0.0199,0,4.7269e-05,0,0,0,0.025348,-7.0735e-05,0.0075831,0.020411,0.010953,0.022586,3.7099e-07,0.92,0,0
0.047229,0.012333,0.025339,-7.6283e-05,0.0075789,1.2066e-06,0,0,0.046177,-0.019903,0,6.2744e-06,0,0,0,0.025339,-7.6284e-05,0.0075789,0.0027094,0.010947,0.022583,3.707e-07,0.94,0,0
0.048153,0.012389,0.025339,-8.0165e-05,0.0075777,-1.9446e-06,0,0,0.04618,-0.01991,0,-1.0112e-05,0,0,0,0.025339,-8.0166e-05,0.0075777,-0.0043678,0.010946,0.022586,3.7075e-07,0.96,0,0
0.049076,0.012422,0.025341,-8.2453e-05,0.0075777,2.4786e-05,0,0,0.046186,-0.019916,0,0.00012889,0,0,0,0.025342,-8.2565e-05,0.0075777,0.055872,0.010946,0.02259,3.7089e-07,0.98,0,0
0.049538,0.012433,0.025343,-8.3208e-05,0.0075778,5.2078e-05,0,0,0.046188,-0.019919,0,0.00027081,0,0,0,0.025343,-8.3431e-05,0.0075778,0.11737,0.010946,0.022592,3.7096e-07,1,0,0
0.00072844,0.00077236,0.045346,0.013127,0.017542,0.011888,0,0,0.072291,-0.011479,0,0.061819,0,0,0,0.049662,0.0088108,0.017542,18.539,0.025338,0.037331,2.4995e-06,0,0.02,0
0.0014458,0.0014959,0.042692,0.0086362,0.015398,0.0095538,0,0,0.070963,-0.017582,0,0.04968,0,0,0,0.045647,0.0056813,0.015398,14.855,0.022242,0.036158,2.0446e-06,0.02,0.02,0
0.0028385,0.0028391,0.038302,0.0032066,0.012453,0.005879,0,0,0.067209,-0.02404,0,0.030571,0,0,0,0.039455,0.0020542,0.012453,9.2819,0.017987,0.03344,1.3615e-06,0.04,0.02,0
0.0041342,0.0039803,0.034992,0.0017134,0.011012,0.0037654,0,0,0.062349,-0.024175,0,0.01958,0,0,0,0.035516,0.0011893,0.011012,6.2904,0.015906,0.030622,9.9506e-07,0.06,0.02,0
0.0053325,0.0049465,0.032296,0.00090857,0.0099613,0.0025337,0,0,0.05807,-0.023537,0,0.013175,0,0,0,0.032552,0.00065267,0.0099613,4.4981,0.014389,0.028414,7.7476e-07,0.08,0.02,0
0.0064569,0.0057749,0.030355,0.00052167,0.009263,0.0017891,0,0,0.054839,-0.022727,0,0.0093034,0,0,0,0.030491,0.00038606,0.009263,3.3493,0.01338,0.026793,6.4068e-07,0.1,0.02,0
0.0075261,0.0064915,0.028929,0.00030839,0.0087711,0.0013134,0,0,0.052409,-0.022003,0,0.0068297,0,0,0,0.029005,0.00023176,0.0087711,2.5679,0.012669,0.025596,5.5355e-07,0.12,0.02,0
0.0085533,0.0071142,0.027859,0.00018495,0.0084132,0.00099234,0,0,0.050559,-0.021394,0,0.0051602,0,0,0,0.027905,0.00013952,0.0084132,2.0095,0.012152,0.024691,4.9397e-07,0.14,0.02,0
0.0095484,0.0076554,0.02704,0.00010976,0.0081451,0.00076554,0,0,0.049128,-0.020892,0,0.0039808,0,0,0,0.027068,8.186e-05,0.0081451,1.595,0.011765,0.023994,4.5146e-07,0.16,0.02,0
0.010518,0.0081243,0.026404,6.2991e-05,0.0079401,0.00059846,0,0,0.048006,-0.02048,0,0.003112,0,0,0,0.026421,4.5484e-05,0.0079401,1.2761,0.011469,0.023448,4.2017e-07,0.18,0.02,0
0.011469,0.0085275,0.025905,3.4161e-05,0.0077816,0.00046994,0,0,0.04712,-0.020143,0,0.0024437,0,0,0,0.025916,2.3101e-05,0.0077816,1.0211,0.01124,0.023016,3.9664e-07,0.2,0.02,0
0.012403,0.0088703,0.025513,1.7464e-05,0.0076592,0.0003661,0,0,0.04642,-0.019869,0,0.0019037,0,0,0,0.02552,1.0579e-05,0.0076592,0.80764,0.011063,0.022674,3.7878e-07,0.22,0.02,0
0.013326,0.0091566,0.025211,9.4773e-06,0.0075662,0.00027732,0,0,0.045877,-0.019647,0,0.0014421,0,0,0,0.025215,5.3947e-06,0.0075662,0.61917,0.010929,0.022408,3.653e-07,0.24,0.02,0
0.014238,0.0093894,0.024987,8.0233e-06,0.0074985,0.00019662,0,0,0.04547,-0.019475,0,0.0010224,0,0,0,0.024989,5.8474e-06,0.0074985,0.44293,0.010831,0.022206,3.5543e-07,0.26,0.02,0
0.015144,0.0095713,0.024835,1.1528e-05,0.007454,0.00011893,0,0,0.045191,-0.01935,0,0.00061843,0,0,0,0.024836,1.0594e-05,0.007454,0.26933,0.010767,0.022067,3.4874e-07,0.28,0.02,0
0.016046,0.0097045,0.024754,1.8648e-05,0.0074317,4.0672e-05,0,0,0.045037,-0.019274,0,0.00021149,0,0,0,0.024754,1.8368e-05,0.0074317,0.091711,0.010735,0.021987,3.4504e-07,0.3,0.02,0
0.016946,0.009791,0.024743,2.8038e-05,0.0074313,-4.0283e-05,0,0,0.04501,-0.019249,0,-0.00020947,0,0,0,0.024743,2.7804e-05,0.0074313,-0.093424,0.010734,0.02197,3.4432e-07,0.32,0.02,0
0.017846,0.0098334,0.024805,3.8221e-05,0.007453,-0.00012459,0,0,0.045116,-0.019278,0,-0.00064787,0,0,0,0.024806,3.7365e-05,0.007453,-0.28609,0.010765,0.022018,3.4666e-07,0.34,0.02,0
0.01875,0.0098344,0.024942,4.7525e-05,0.0074968,-0.00021131,0,0,0.045357,-0.019368,0,-0.0010988,0,0,0,0.024944,4.5334e-05,0.0074968,-0.48247,0.010829,0.022135,3.5221e-07,0.36,0.02,0
0.019661,0.0097977,0.025153,5.4065e-05,0.0075622,-0.00029779,0,0,0.045737,-0.019521,0,-0.0015485,0,0,0,0.025157,4.9873e-05,0.0075622,-0.6748,0.010923,0.022321,3.6113e-07,0.38,0.02,0
0.02058,0.0097282,0.025437,5.5811e-05,0.0076478,-0.0003796,0,0,0.046251,-0.019739,0,-0.0019739,0,0,0,0.025443,4.9147e-05,0.0076478,-0.85167,0.011047,0.022575,3.7348e-07,0.4,0.02,0
0.021511,0.009632,0.025785,5.0837e-05,0.0077508,-0.00045067,0,0,0.04689,-0.02002,0,-0.0023435,0,0,0,0.025795,4.1612e-05,0.0077508,-0.99882,0.011196,0.022893,3.892e-07,0.42,0.02,0
0.022455,0.0095165,0.026186,3.7913e-05,0.0078673,-0.0005038,0,0,0.047629,-0.020356,0,-0.0026198,0,0,0,0.026198,2.6574e-05,0.0078673,-1.101,0.011364,0.023264,4.0793e-07,0.44,0.02,0
0.023416,0.0093906,0.026621,1.7432e-05,0.0079916,-0.0005318,0,0,0.048437,-0.020733,0,-0.0027654,0,0,0,0.026634,4.989e-06,0.0079916,-1.1447,0.011543,0.023668,4.29e-07,0.46,0.02,0
0.024393,0.009264,0.027067,-7.8123e-06,0.0081176,-0.00052928,0,0,0.049267,-0.021126,0,-0.0027523,0,0,0,0.027079,-1.9983e-05,0.0081176,-1.1219,0.011725,0.024084,4.5134e-07,0.48,0.02,0
0.025387,0.009147,0.027497,-3.2925e-05,0.0082391,-0.00049459,0,0,0.050069,-0.021507,0,-0.0025718,0,0,0,0.027507,-4.3464e-05,0.0082391,-1.0332,0.011901,0.024484,4.7359e-07,0.5,0.02,0
0.026396,0.0090495,0.027886,-5.2796e-05,0.0083499,-0.00043073,0,0,0.050793,-0.021847,0,-0.0022398,0,0,0,0.027894,-6.0782e-05,0.0083499,-0.88831,0.012061,0.024841,4.9426e-07,0.52,0.02,0
0.027418,0.0089802,0.028213,-6.4692e-05,0.0084445,-0.00034448,0,0,0.051398,-0.022124,0,-0.0017913,0,0,0,0.028218,-6.9865e-05,0.0084445,-0.70304,0.012198,0.025137,5.1198e-07,0.54,0.02,0
0.028452,0.0089461,0.028463,-6.9522e-05,0.0085179,-0.00024392,0,0,0.051856,-0.022327,0,-0.0012684,0,0,0,0.028465,-7.224e-05,0.0085179,-0.49398,0.012304,0.025358,5.2568e-07,0.56,0.02,0
0.029493,0.008952,0.028625,-7.0579e-05,0.0085663,-0.00013586,0,0,0.052152,-0.022456,0,-0.00070646,0,0,0,0.028626,-7.1606e-05,0.0085663,-0.27384,0.012373,0.0255,5.3467e-07,0.58,0.02,0
0.030538,0.0090008,0.028695,-7.065e-05,0.0085873,-2.4971e-05,0,0,0.05228,-0.022511,0,-0.00012985,0,0,0,0.028695,-7.0933e-05,0.0085873,-0.050378,0.012404,0.025562,5.3857e-07,0.6,0.02,0
0.031584,0.009093,0.028672,-6.973e-05,0.0085807,8.5081e-05,0,0,0.052238,-0.022491,0,0.00044242,0,0,0,0.028673,-7.0258e-05,0.0085807,0.1709,0.012394,0.025541,5.3724e-07,0.62,0.02,0
0.032627,0.0092273,0.028559,-6.5042e-05,0.0085483,0.00018963,0,0,0.052029,-0.022395,0,0.00098609,0,0,0,0.028561,-6.6709e-05,0.0085483,0.38246,0.012348,0.025439,5.3084e-07,0.64,0.02,0
0.033665,0.0094002,0.028364,-5.3342e-05,0.0084933,0.0002819,0,0,0.051665,-0.022221,0,0.0014659,0,0,0,0.028368,-5.6759e-05,0.0084933,0.57216,0.012268,0.025259,5.1984e-07,0.66,0.02,0
0.034694,0.0096059,0.028101,-3.38e-05,0.0084201,0.00035393,0,0,0.05117,-0.02198,0,0.0018404,0,0,0,0.028106,-3.9092e-05,0.0084201,0.72458,0.012162,0.025013,5.0514e-07,0.68,0.02,0
0.035712,0.0098372,0.027788,-9.2099e-06,0.0083337,0.0003991,0,0,0.050582,-0.021691,0,0.0020753,0,0,0,0.027795,-1.5942e-05,0.0083337,0.82559,0.012038,0.024717,4.8802e-07,0.7,0.02,0
0.036717,0.010086,0.027449,1.5315e-05,0.0082393,0.00041457,0,0,0.049946,-0.021382,0,0.0021558,0,0,0,0.027456,7.9876e-06,0.0082393,0.86744,0.011901,0.024397,4.699e-07,0.72,0.02,0
0.03771,0.010342,0.027108,3.4929e-05,0.0081428,0.0004022,0,0,0.049309,-0.02108,0,0.0020914,0,0,0,0.027115,2.7942e-05,0.0081428,0.85132,0.011762,0.024078,4.5217e-07,0.74,0.02,0
0.038689,0.010599,0.026785,4.6893e-05,0.0080495,0.00036749,0,0,0.048712,-0.020807,0,0.001911,0,0,0,0.026791,4.097e-05,0.0080495,0.78639,0.011627,0.023779,4.359e-07,0.76,0.02,0
0.039658,0.010848,0.026496,5.0811e-05,0.007964,0.00031779,0,0,0.048183,-0.020574,0,0.0016525,0,0,0,0.026501,4.6308e-05,0.007964,0.68664,0.011504,0.023517,4.2181e-07,0.78,0.02,0
0.040617,0.011084,0.026251,4.7827e-05,0.0078898,0.00026046,0,0,0.04774,-0.020389,0,0.0013544,0,0,0,0.026255,4.4746e-05,0.0078898,0.56735,0.011396,0.0233,4.1022e-07,0.8,0.02,0
0.041568,0.011303,0.026055,3.9693e-05,0.0078284,0.00020189,0,0,0.047389,-0.020251,0,0.0010498,0,0,0,0.026057,3.7805e-05,0.0078284,0.44258,0.011308,0.02313,4.0118e-07,0.82,0.02,0
0.042512,0.0115,0.025906,2.8207e-05,0.0077803,0.000147,0,0,0.047127,-0.020155,0,0.00076439,0,0,0,0.025907,2.7181e-05,0.0077803,0.32378,0.011238,0.023005,3.9451e-07,0.84,0.02,0
0.043453,0.011674,0.0258,1.4975e-05,0.0077446,9.9199e-05,0,0,0.046945,-0.020097,0,0.00051584,0,0,0,0.025801,1.4492e-05,0.0077446,0.2192,0.011187,0.022921,3.8992e-07,0.86,0.02,0
0.04439,0.011825,0.025731,1.3516e-06,0.0077197,6.0466e-05,0,0,0.04683,-0.020068,0,0.00031442,0,0,0,0.025731,1.1623e-06,0.0077197,0.13388,0.011151,0.02287,3.8702e-07,0.88,0.02,0
0.045326,0.011951,0.025691,-1.1575e-05,0.0077037,3.1531e-05,0,0,0.046766,-0.02006,0,0.00016396,0,0,0,0.025691,-1.1632e-05,0.0077037,0.069895,0.011128,0.022844,3.8542e-07,0.9,0.02,0
0.046261,0.012054,0.025671,-2.2982e-05,0.0076944,1.21e-05,0,0,0.046739,-0.020065,0,6.292e-05,0,0,0,0.025671,-2.2994e-05,0.0076944,0.026846,0.011114,0.022835,3.8472e-07,0.92,0.02,0
0.047195,0.012133,0.025664,-3.2297e-05,0.0076896,1.0797e-06,0,0,0.046734,-0.020077,0,5.6147e-06,0,0,0,0.025664,-3.2298e-05,0.0076896,0.0024175,0.011107,0.022837,3.8458e-07,0.94,0.02,0
0.04813,0.012189,0.025664,-3.915e-05,0.0076876,-3.2003e-06,0,0,0.04674,-0.02009,0,-1.6642e-05,0,0,0,0.025664,-3.9151e-05,0.0076876,-0.0070724,0.011104,0.022842,3.847e-07,0.96,0.02,0
0.049065,0.012222,0.025667,-4.3331e-05,0.007687,2.3728e-05,0,0,0.046747,-0.020099,0,0.00012339,0,0,0,0.025667,-4.3441e-05,0.007687,0.052935,0.011103,0.022848,3.8487e-07,0.98,0.02,0
0.049532,0.012233,0.025668,-4.4735e-05,0.0076868,5.135e-05,0,0,0.04675,-0.020102,0,0.00026702,0,0,0,0.025668,-4.4954e-05,0.0076868,0.11448,0.011103,0.02285,3.8495e-07,1,0.02,0
0.00055956,0.00060154,0.036784,0.01227,0.014716,0.01059,0,0,0.057377,-0.0063604,0,0.05507,0,0,0,0.04086,0.008194,0.014716,20.626,0.021257,0.029975,1.1799e-06,0,0.04,0
0.0011475,0.0012133,0.036372,0.0094416,0.013744,0.0095987,0,0,0.058832,-0.011186,0,0.049913,0,0,0,0.039648,0.0061649,0.013744,18.051,0.019852,0.030445,1.1575e-06,0.02,0.04,0
0.0023533,0.0024129,0.035664,0.0052544,0.012276,0.0075913,0,0,0.06081,-0.018255,0,0.039475,0,0,0,0.037616,0.0033019,0.012276,13.459,0.017731,0.030833,1.093e-06,0.04,0.04,0
0.0035799,0.0035178,0.034629,0.0031628,0.011338,0.0056883,0,0,0.060558,-0.021254,0,0.029579,0,0,0,0.035737,0.0020549,0.011338,9.9684,0.016376,0.030135,9.7473e-07,0.06,0.04,0
0.0047756,0.0044833,0.033092,0.0020055,0.010529,0.0041669,0,0,0.058664,-0.022162,0,0.021668,0,0,0,0.033709,0.001389,0.010529,7.4731,0.015209,0.028858,8.3323e-07,0.08,0.04,0
0.0059265,0.005321,0.031601,0.0013266,0.0098784,0.0030922,0,0,0.05648,-0.022235,0,0.016079,0,0,0,0.031954,0.0009736,0.0098784,5.728,0.014269,0.027627,7.186e-07,0.1,0.04,0
0.0070348,0.0060487,0.030337,0.00091316,0.009375,0.0023405,0,0,0.054501,-0.022001,0,0.012171,0,0,0,0.030547,0.0007034,0.009375,4.4763,0.013542,0.02659,6.331e-07,0.12,0.04,0
0.0081065,0.0066818,0.029305,0.00065134,0.0089868,0.0018049,0,0,0.052826,-0.021672,0,0.0093856,0,0,0,0.029433,0.00052255,0.0089868,3.5521,0.012981,0.025745,5.6972e-07,0.14,0.04,0
0.0091479,0.0072322,0.02847,0.00048044,0.0086852,0.001413,0,0,0.051441,-0.021332,0,0.0073477,0,0,0,0.028551,0.00039928,0.0086852,2.8506,0.012545,0.025059,5.2216e-07,0.16,0.04,0
0.010164,0.0077088,0.027796,0.00036697,0.0084489,0.0011176,0,0,0.050303,-0.021013,0,0.0058114,0,0,0,0.027848,0.00031493,0.0084489,2.3028,0.012204,0.024501,4.8588e-07,0.18,0.04,0
0.01116,0.0081186,0.027251,0.00029178,0.0082627,0.00088709,0,0,0.049368,-0.020724,0,0.0046129,0,0,0,0.027284,0.00025822,0.0082627,1.861,0.011935,0.024045,4.578e-07,0.2,0.04,0
0.012139,0.008467,0.02681,0.00024338,0.008116,0.00069977,0,0,0.048604,-0.020469,0,0.0036388,0,0,0,0.026831,0.00022199,0.008116,1.4903,0.011723,0.023671,4.3587e-07,0.22,0.04,0
0.013104,0.0087578,0.026457,0.00021453,0.0080013,0.00053999,0,0,0.047984,-0.020246,0,0.0028079,0,0,0,0.02647,0.00020141,0.0080013,1.1645,0.011558,0.023366,4.187e-07,0.24,0.04,0
0.014058,0.0089943,0.026179,0.00020023,0.0079137,0.00039623,0,0,0.047489,-0.020055,0,0.0020604,0,0,0,0.026186,0.00019284,0.0079137,0.86306,0.011431,0.023121,4.0541e-07,0.26,0.04,0
0.015004,0.009179,0.025969,0.00019662,0.0078496,0.00025996,0,0,0.04711,-0.019898,0,0.0013518,0,0,0,0.025972,0.00019308,0.0078496,0.57027,0.011338,0.022931,3.9541e-07,0.28,0.04,0
0.015943,0.0093141,0.025821,0.00020022,0.0078065,0.00012514,0,0,0.046839,-0.019776,0,0.00065071,0,0,0,0.025823,0.00019897,0.0078065,0.275,0.011276,0.022793,3.8838e-07,0.3,0.04,0
0.016877,0.0094017,0.025734,0.00020751,0.0077824,-1.1917e-05,0,0,0.046674,-0.019695,0,-6.1967e-05,0,0,0,0.025734,0.00020702,0.0077824,-0.029076,0.011241,0.022708,3.8415e-07,0.32,0.04,0
0.01781,0.009444,0.025705,0.00021473,0.0077759,-0.00015248,0,0,0.046615,-0.019659,0,-0.0007929,0,0,0,0.025706,0.00021337,0.0077759,-0.34284,0.011232,0.022678,3.8266e-07,0.34,0.04,0
0.018742,0.0094438,0.025733,0.00021784,0.0077853,-0.00029528,0,0,0.046664,-0.019675,0,-0.0015355,0,0,0,0.025737,0.00021392,0.0077853,-0.66128,0.011245,0.022705,3.8391e-07,0.36,0.04,0
0.019676,0.0094048,0.025817,0.00021258,0.0078088,-0.00043637,0,0,0.046821,-0.01975,0,-0.0022691,0,0,0,0.025825,0.0002045,0.0078088,-0.97326,0.011279,0.02279,3.879e-07,0.38,0.04,0
0.020615,0.0093317,0.025952,0.00019469,0.0078441,-0.00056913,0,0,0.047081,-0.019888,0,-0.0029595,0,0,0,0.025966,0.00018127,0.0078441,-1.2619,0.01133,0.022934,3.946e-07,0.4,0.04,0
0.021559,0.0092306,0.026134,0.00016033,0.0078884,-0.00068443,0,0,0.04744,-0.020093,0,-0.003559,0,0,0,0.026153,0.00014125,0.0078884,-1.5055,0.011394,0.023133,4.0386e-07,0.42,0.04,0
0.022512,0.0091091,0.026354,0.00010725,0.0079384,-0.0007712,0,0,0.047881,-0.020361,0,-0.0040103,0,0,0,0.026378,8.3354e-05,0.0079384,-1.6799,0.011467,0.023379,4.1532e-07,0.44,0.04,0
0.023475,0.0089763,0.026599,3.6669e-05,0.0079908,-0.00081804,0,0,0.048382,-0.020681,0,-0.0042538,0,0,0,0.026626,1.0106e-05,0.0079908,-1.7624,0.011542,0.023658,4.2841e-07,0.46,0.04,0
0.024448,0.0088424,0.026854,-4.4558e-05,0.0080429,-0.00081607,0,0,0.048909,-0.021027,0,-0.0042436,0,0,0,0.02688,-7.0741e-05,0.0080429,-1.7381,0.011617,0.023948,4.4225e-07,0.48,0.04,0
0.025431,0.0087183,0.027101,-0.00012413,0.0080932,-0.00076255,0,0,0.049421,-0.021365,0,-0.0039653,0,0,0,0.027124,-0.00014687,0.0080932,-1.6065,0.01169,0.024226,4.5578e-07,0.5,0.04,0
0.026424,0.0086146,0.027325,-0.00018871,0.008141,-0.00066309,0,0,0.049879,-0.021657,0,-0.0034481,0,0,0,0.027342,-0.00020592,0.008141,-1.3839,0.011759,0.024467,4.6799e-07,0.52,0.04,0
0.027426,0.0085402,0.027514,-0.00023072,0.0081849,-0.00053006,0,0,0.050255,-0.021881,0,-0.0027563,0,0,0,0.027525,-0.00024187,0.0081849,-1.0982,0.011823,0.024658,4.7814e-07,0.54,0.04,0
0.028435,0.0085025,0.02766,-0.00025198,0.0082224,-0.00037756,0,0,0.050538,-0.022033,0,-0.0019633,0,0,0,0.027666,-0.0002579,0.0082224,-0.77824,0.011877,0.024796,4.8589e-07,0.56,0.04,0
0.029448,0.0085062,0.027761,-0.00026052,0.0082501,-0.00021618,0,0,0.050728,-0.022128,0,-0.0011241,0,0,0,0.027763,-0.00026281,0.0082501,-0.44428,0.011917,0.024887,4.9116e-07,0.58,0.04,0
0.030464,0.0085539,0.027815,-0.00026316,0.0082657,-5.1384e-05,0,0,0.050829,-0.022175,0,-0.0002672,0,0,0,0.027816,-0.00026378,0.0082657,-0.1058,0.011939,0.024934,4.9399e-07,0.6,0.04,0
0.031481,0.0086464,0.027823,-0.00025989,0.0082688,0.00011369,0,0,0.05084,-0.022175,0,0.00059117,0,0,0,0.027824,-0.00026087,0.0082688,0.23244,0.011944,0.024939,4.943e-07,0.62,0.04,0
0.032497,0.0087823,0.027781,-0.00024391,0.0082613,0.00027356,0,0,0.050752,-0.022113,0,0.0014225,0,0,0,0.027785,-0.00024715,0.0082613,0.56104,0.011933,0.024893,4.9191e-07,0.64,0.04,0
0.033511,0.0089583,0.027693,-0.00020732,0.0082458,0.00041769,0,0,0.050563,-0.021978,0,0.002172,0,0,0,0.0277,-0.00021421,0.0082458,0.86029,0.011911,0.024792,4.8676e-07,0.66,0.04,0
0.03452,0.0091684,0.027563,-0.0001485,0.0082243,0.00053214,0,0,0.05028,-0.021769,0,0.0027671,0,0,0,0.027574,-0.00015943,0.0082243,1.1028,0.01188,0.024636,4.7906e-07,0.68,0.04,0
0.035522,0.0094051,0.0274,-7.5195e-05,0.0081975,0.00060482,0,0,0.049927,-0.021509,0,0.0031451,0,0,0,0.027414,-8.9268e-05,0.0081975,1.263,0.011841,0.024438,4.6948e-07,0.7,0.04,0
0.036517,0.0096593,0.027219,-7.6767e-07,0.0081655,0.00063048,0,0,0.049539,-0.021232,0,0.0032785,0,0,0,0.027235,-1.6142e-05,0.0081655,1.3278,0.011795,0.024219,4.5895e-07,0.72,0.04,0
0.037504,0.0099215,0.027034,6.2591e-05,0.0081291,0.00061218,0,0,0.049154,-0.020973,0,0.0031834,0,0,0,0.027049,4.7955e-05,0.0081291,1.3,0.011742,0.024003,4.4846e-07,0.74,0.04,0
0.038483,0.010183,0.026859,0.00010814,0.0080901,0.00055907,0,0,0.048799,-0.020753,0,0.0029072,0,0,0,0.026871,9.5793e-05,0.0080901,1.1962,0.011686,0.023807,4.3881e-07,0.76,0.04,0
0.039456,0.010436,0.026703,0.00013462,0.0080512,0.00048279,0,0,0.048494,-0.020583,0,0.0025105,0,0,0,0.026712,0.00012529,0.0080512,1.0396,0.011629,0.023642,4.3053e-07,0.78,0.04,0
0.040423,0.010676,0.026571,0.00014406,0.0080146,0.00039477,0,0,0.048247,-0.020463,0,0.0020528,0,0,0,0.026578,0.00013772,0.0080146,0.85427,0.011577,0.023513,4.2387e-07,0.8,0.04,0
0.041386,0.010896,0.026467,0.00013982,0.0079821,0.00030473,0,0,0.048061,-0.02039,0,0.0015846,0,0,0,0.026471,0.00013598,0.0079821,0.66176,0.01153,0.023419,4.1886e-07,0.82,0.04,0
0.042345,0.011095,0.02639,0.00012558,0.0079548,0.00022025,0,0,0.047933,-0.020356,0,0.0011453,0,0,0,0.026393,0.00012353,0.0079548,0.47939,0.01149,0.02336,4.1539e-07,0.84,0.04,0
0.043303,0.01127,0.026338,0.00010491,0.007933,0.00014667,0,0,0.047854,-0.020353,0,0.00076269,0,0,0,0.026339,0.00010397,0.007933,0.31964,0.011459,0.023328,4.1326e-07,0.86,0.04,0
0.044259,0.011421,0.026307,8.106e-05,0.0079164,8.717e-05,0,0,0.047816,-0.020372,0,0.00045329,0,0,0,0.026307,8.0706e-05,0.0079164,0.19008,0.011435,0.023318,4.1219e-07,0.88,0.04,0
0.045216,0.011547,0.026292,5.6834e-05,0.0079046,4.2988e-05,0,0,0.047807,-0.020404,0,0.00022354,0,0,0,0.026292,5.6734e-05,0.0079046,0.093799,0.011418,0.023324,4.1191e-07,0.9,0.04,0
0.046172,0.011649,0.026288,3.4471e-05,0.0078967,1.3723e-05,0,0,0.047817,-0.020442,0,7.1357e-05,0,0,0,0.026288,3.4452e-05,0.0078967,0.030039,0.011406,0.023338,4.1213e-07,0.92,0.04,0
0.047128,0.011728,0.026291,1.5639e-05,0.0078918,-2.309e-06,0,0,0.047837,-0.020478,0,-1.2007e-05,0,0,0,0.026291,1.5636e-05,0.0078918,-0.0048678,0.011399,0.023355,4.1258e-07,0.94,0.04,0
0.048085,0.011783,0.026295,1.4886e-06,0.0078891,-7.7209e-06,0,0,0.047856,-0.020508,0,-4.0149e-05,0,0,0,0.026295,1.4853e-06,0.0078891,-0.016664,0.011395,0.023371,4.1306e-07,0.96,0.04,0
0.049042,0.011816,0.0263,-7.2586e-06,0.0078877,2.0554e-05,0,0,0.047871,-0.020527,0,0.00010688,0,0,0,0.0263,-7.366e-06,0.0078877,0.044869,0.011393,0.023382,4.1342e-07,0.98,0.04,0
0.049521,0.011827,0.026301,-1.0215e-05,0.0078873,4.9255e-05,0,0,0.047876,-0.020534,0,0.00025612,0,0,0,0.026301,-1.0426e-05,0.0078873,0.10734,0.011393,0.023386,4.1355e-07,1,0.04,0
0.00050468,0.00051795,0.033653,0.012532,0.013856,0.0096797,0,0,0.051474,-0.0034405,0,0.050334,0,0,0,0.037442,0.008744,0.013856,21.301,0.020014,0.026526,8.454e-07,0,0.06,0
0.0010295,0.0010485,0.033562,0.010588,0.013245,0.0092765,0,0,0.052825,-0.0069093,0,0.048238,0,0,0,0.036901,0.0072493,0.013245,19.6,0.019132,0.027174,8.6518e-07,0.02,0.06,0
0.002113,0.0021089,0.033515,0.0071322,0.012194,0.0082243,0,0,0.055435,-0.013161,0,0.042766,0,0,0,0.035945,0.0047027,0.012194,16.112,0.017614,0.028263,8.9133e-07,0.04,0.06,0
0.0032469,0.0031301,0.033368,0.0046848,0.011416,0.0068246,0,0,0.057075,-0.0175,0,0.035488,0,0,0,0.034976,0.0030764,0.011416,12.792,0.016489,0.02866,8.7374e-07,0.06,0.06,0
0.004396,0.0040601,0.032781,0.0031599,0.010782,0.0054176,0,0,0.057197,-0.019818,0,0.028171,0,0,0,0.03379,0.0021507,0.010782,10.062,0.015574,0.02833,8.1358e-07,0.08,0.06,0
0.0055347,0.0048855,0.031929,0.0021928,0.010237,0.0042449,0,0,0.056401,-0.020914,0,0.022074,0,0,0,0.032557,0.001565,0.010237,7.9581,0.014786,0.027695,7.4211e-07,0.1,0.06,0
0.0066521,0.0056115,0.031035,0.0015631,0.0097794,0.0033349,0,0,0.055264,-0.021362,0,0.017341,0,0,0,0.03143,0.001168,0.0097794,6.357,0.014126,0.027007,6.7671e-07,0.12,0.06,0
0.0077453,0.0062473,0.030206,0.0011439,0.009405,0.0026405,0,0,0.054083,-0.021479,0,0.013731,0,0,0,0.030459,0.00089094,0.009405,5.128,0.013585,0.026363,6.2184e-07,0.14,0.06,0
0.0088154,0.0068021,0.029477,0.00085974,0.0091012,0.0021084,0,0,0.052978,-0.021428,0,0.010964,0,0,0,0.029642,0.00069505,0.0091012,4.1701,0.013146,0.025793,5.7711e-07,0.16,0.06,0
0.0098644,0.0072837,0.028852,0.00066542,0.0088553,0.0016944,0,0,0.051992,-0.021294,0,0.0088106,0,0,0,0.028961,0.00055692,0.0088553,3.4085,0.012791,0.025297,5.4088e-07,0.18,0.06,0
0.010895,0.0076985,0.028322,0.00053338,0.0086567,0.0013645,0,0,0.05113,-0.021121,0,0.0070955,0,0,0,0.028394,0.00046161,0.0086567,2.7876,0.012504,0.024869,5.1147e-07,0.2,0.06,0
0.01191,0.0080516,0.027875,0.00044621,0.0084965,0.0010935,0,0,0.050385,-0.020931,0,0.005686,0,0,0,0.027922,0.00039915,0.0084965,2.2648,0.012273,0.0245,4.8748e-07,0.22,0.06,0
0.01291,0.0083468,0.027501,0.00039244,0.0083681,0.00086181,0,0,0.049746,-0.020737,0,0.0044814,0,0,0,0.027531,0.00036247,0.0083681,1.8068,0.012087,0.024181,4.6782e-07,0.24,0.06,0
0.013899,0.0085872,0.02719,0.00036392,0.0082662,0.00065468,0,0,0.049202,-0.020546,0,0.0034044,0,0,0,0.027208,0.000346,0.0082662,1.387,0.01194,0.023907,4.5172e-07,0.26,0.06,0
0.014879,0.0087754,0.026935,0.00035415,0.0081869,0.0004608,0,0,0.048746,-0.020365,0,0.0023961,0,0,0,0.026945,0.00034464,0.0081869,0.98469,0.011825,0.023674,4.3863e-07,0.28,0.06,0
0.015849,0.0089134,0.026731,0.00035719,0.0081266,0.00027194,0,0,0.048373,-0.0202,0,0.0014141,0,0,0,0.026735,0.00035316,0.0081266,0.58442,0.011738,0.023481,4.2819e-07,0.3,0.06,0
0.016813,0.0090032,0.026575,0.00036697,0.0080825,8.2954e-05,0,0,0.04808,-0.02006,0,0.00043136,0,0,0,0.026576,0.00036568,0.0080825,0.17688,0.011675,0.02333,4.2021e-07,0.32,0.06,0
0.017773,0.009047,0.026462,0.00037697,0.0080518,-0.00010818,0,0,0.047867,-0.019954,0,-0.00056254,0,0,0,0.026464,0.00037562,0.0080518,-0.2404,0.01163,0.023222,4.1459e-07,0.34,0.06,0
0.018728,0.0090473,0.026392,0.00038022,0.0080316,-0.00030013,0,0,0.047736,-0.019894,0,-0.0015607,0,0,0,0.026396,0.00037595,0.0080316,-0.66227,0.011601,0.023161,4.113e-07,0.36,0.06,0
0.019682,0.0090077,0.026361,0.00036957,0.0080192,-0.00048821,0,0,0.047689,-0.019889,0,-0.0025387,0,0,0,0.026371,0.0003597,0.0080192,-1.0758,0.011583,0.023152,4.1031e-07,0.38,0.06,0
0.020636,0.0089327,0.026367,0.0003381,0.0080116,-0.00066448,0,0,0.047724,-0.019951,0,-0.0034553,0,0,0,0.026385,0.00032056,0.0080116,-1.4606,0.011572,0.023196,4.1156e-07,0.4,0.06,0
0.021591,0.0088283,0.026407,0.00027953,0.0080059,-0.00081802,0,0,0.047842,-0.020089,0,-0.0042537,0,0,0,0.026433,0.00025348,0.0080059,-1.7905,0.011564,0.023292,4.1495e-07,0.42,0.06,0
0.022549,0.0087021,0.026475,0.00018936,0.0079993,-0.00093522,0,0,0.048037,-0.020306,0,-0.0048632,0,0,0,0.026509,0.00015578,0.0079993,-2.0343,0.011555,0.023437,4.2021e-07,0.44,0.06,0
0.023512,0.0085633,0.026564,6.8132e-05,0.0079897,-0.001001,0,0,0.048293,-0.020596,0,-0.0052052,0,0,0,0.026602,3.0081e-05,0.0079897,-2.1605,0.011541,0.02362,4.2686e-07,0.46,0.06,0
0.024481,0.0084229,0.026663,-7.3424e-05,0.0079769,-0.0010024,0,0,0.048584,-0.020931,0,-0.0052127,0,0,0,0.026701,-0.00011129,0.0079769,-2.1452,0.011522,0.023821,4.341e-07,0.48,0.06,0
0.025456,0.0082924,0.02676,-0.00021225,0.0079643,-0.00093514,0,0,0.048868,-0.021259,0,-0.0048627,0,0,0,0.026793,-0.00024511,0.0079643,-1.985,0.011504,0.02401,4.4094e-07,0.5,0.06,0
0.026436,0.0081832,0.026845,-0.0003212,0.0079571,-0.00080833,0,0,0.049108,-0.021523,0,-0.0042033,0,0,0,0.026869,-0.00034587,0.0079571,-1.7047,0.011494,0.024159,4.4653e-07,0.52,0.06,0
0.02742,0.008105,0.026913,-0.00038538,0.0079584,-0.00064277,0,0,0.049283,-0.021694,0,-0.0033424,0,0,0,0.026929,-0.00040122,0.0079584,-1.3496,0.011495,0.024256,4.5054e-07,0.54,0.06,0
0.028407,0.0080647,0.026968,-0.00041124,0.0079669,-0.00046068,0,0,0.049402,-0.021783,0,-0.0023955,0,0,0,0.026976,-0.00041969,0.0079669,-0.96499,0.011508,0.024313,4.5329e-07,0.56,0.06,0
0.029396,0.0080669,0.027013,-0.00041866,0.0079783,-0.00027543,0,0,0.04949,-0.021832,0,-0.0014322,0,0,0,0.027017,-0.0004221,0.0079783,-0.57645,0.011524,0.024351,4.5543e-07,0.58,0.06,0
0.030387,0.0081138,0.027054,-0.00042367,0.0079892,-8.8889e-05,0,0,0.049569,-0.021873,0,-0.00046222,0,0,0,0.027055,-0.00042464,0.0079892,-0.18662,0.01154,0.024387,4.5744e-07,0.6,0.06,0
0.031379,0.008206,0.02709,-0.00042623,0.0079992,0.00010204,0,0,0.049637,-0.021906,0,0.00053062,0,0,0,0.027091,-0.00042732,0.0079992,0.21146,0.011554,0.024421,4.5927e-07,0.62,0.06,0
0.032372,0.0083428,0.027114,-0.00041028,0.0080112,0.00029543,0,0,0.049668,-0.021896,0,0.0015362,0,0,0,0.027118,-0.00041416,0.0080112,0.61459,0.011572,0.024435,4.6032e-07,0.64,0.06,0
0.033366,0.008521,0.027119,-0.0003562,0.0080289,0.00047792,0,0,0.049635,-0.021801,0,0.0024852,0,0,0,0.027128,-0.0003651,0.0080289,0.99683,0.011597,0.024404,4.5988e-07,0.66,0.06,0
0.034358,0.0087351,0.027101,-0.00025794,0.0080529,0.00062745,0,0,0.049525,-0.021608,0,0.0032628,0,0,0,0.027116,-0.0002727,0.0080529,1.3143,0.011632,0.024319,4.5757e-07,0.68,0.06,0
0.035347,0.0089768,0.027062,-0.0001308,0.0080793,0.00072372,0,0,0.049355,-0.021346,0,0.0037634,0,0,0,0.027081,-0.00015025,0.0080793,1.5245,0.01167,0.024191,4.5363e-07,0.7,0.06,0
0.036332,0.0092363,0.02701,-1.9779e-06,0.0081023,0.00075807,0,0,0.049159,-0.021071,0,0.003942,0,0,0,0.027031,-2.3363e-05,0.0081023,1.6069,0.011703,0.024044,4.4882e-07,0.72,0.06,0
0.037313,0.0095034,0.026954,0.00010573,0.0081178,0.00073542,0,0,0.048973,-0.020831,0,0.0038242,0,0,0,0.026974,8.545e-05,0.0081178,1.5679,0.011726,0.023907,4.4403e-07,0.74,0.06,0
0.038291,0.0097688,0.026903,0.00018185,0.0081254,0.00066904,0,0,0.048821,-0.020653,0,0.003479,0,0,0,0.02692,0.0001649,0.0081254,1.4331,0.011737,0.023795,4.3993e-07,0.76,0.06,0
0.039266,0.010025,0.026862,0.00022577,0.0081263,0.00057435,0,0,0.048712,-0.020541,0,0.0029866,0,0,0,0.026874,0.00021314,0.0081263,1.2343,0.011738,0.023716,4.3686e-07,0.78,0.06,0
0.040239,0.010266,0.026833,0.00024147,0.0081223,0.00046548,0,0,0.048648,-0.02049,0,0.0024205,0,0,0,0.026841,0.00023305,0.0081223,1.0023,0.011732,0.023671,4.3491e-07,0.8,0.06,0
0.041212,0.010487,0.026817,0.00023436,0.0081153,0.00035427,0,0,0.048624,-0.020491,0,0.0018422,0,0,0,0.026822,0.0002294,0.0081153,0.76337,0.011722,0.023657,4.3406e-07,0.82,0.06,0
0.042184,0.010686,0.026813,0.00021029,0.0081069,0.00025012,0,0,0.048635,-0.020531,0,0.0013006,0,0,0,0.026815,0.00020774,0.0081069,0.53882,0.01171,0.023668,4.3417e-07,0.84,0.06,0
0.043157,0.01086,0.026819,0.00017512,0.0080981,0.00015982,0,0,0.048673,-0.0206,0,0.00083107,0,0,0,0.02682,0.00017402,0.0080981,0.34405,0.011697,0.023699,4.3505e-07,0.86,0.06,0
0.044131,0.01101,0.026833,0.00013443,0.0080901,8.7536e-05,0,0,0.04873,-0.020685,0,0.00045519,0,0,0,0.026833,0.00013405,0.0080901,0.18837,0.011686,0.023743,4.3644e-07,0.88,0.06,0
0.045106,0.011135,0.026851,9.3036e-05,0.0080833,3.4909e-05,0,0,0.048797,-0.020775,0,0.00018153,0,0,0,0.026851,9.2944e-05,0.0080833,0.075309,0.011676,0.023792,4.3811e-07,0.9,0.06,0
0.046083,0.011236,0.026872,5.483e-05,0.0080779,1.4364e-06,0,0,0.048864,-0.02086,0,7.4693e-06,0,0,0,0.026872,5.4808e-05,0.0080779,0.0036045,0.011668,0.02384,4.3982e-07,0.92,0.06,0
0.047061,0.011314,0.026891,2.2675e-05,0.0080741,-1.5058e-05,0,0,0.048924,-0.020934,0,-7.8302e-05,0,0,0,0.026891,2.2657e-05,0.0080741,-0.03166,0.011663,0.023883,4.4136e-07,0.94,0.06,0
0.04804,0.011368,0.026906,-1.4715e-06,0.0080715,-1.7947e-05,0,0,0.048971,-0.02099,0,-9.3324e-05,0,0,0,0.026906,-1.4878e-06,0.0080715,-0.037892,0.011659,0.023916,4.4257e-07,0.96,0.06,0
0.04902,0.011401,0.026917,-1.6391e-05,0.00807,1.4482e-05,0,0,0.049001,-0.021025,0,7.5305e-05,0,0,0,0.026917,-1.6498e-05,0.00807,0.030978,0.011657,0.023937,4.4335e-07,0.98,0.06,0
0.04951,0.011412,0.02692,-2.1431e-05,0.0080696,4.5436e-05,0,0,0.049011,-0.021037,0,0.00023627,0,0,0,0.02692,-2.1634e-05,0.0080696,0.096754,0.011656,0.023944,4.4362e-07,1,0.06,0
0.00047602,0.00046392,0.031896,0.012366,0.013279,0.0087947,0,0,0.048406,-0.002374,0,0.045732,0,0,0,0.035284,0.008978,0.013279,21.017,0.01918,0.024448,6.7479e-07,0,0.08,0
0.00096813,0.00093691,0.031937,0.010985,0.012877,0.0086082,0,0,0.049557,-0.0049182,0,0.044762,0,0,0,0.035047,0.0078746,0.012877,19.78,0.018599,0.025061,7.0153e-07,0.02,0.08,0
0.0019823,0.0018864,0.032141,0.0083229,0.012139,0.0080486,0,0,0.052005,-0.0099224,0,0.041853,0,0,0,0.034644,0.0058202,0.012139,17.12,0.017534,0.026251,7.5081e-07,0.04,0.08,0
0.0030483,0.0028178,0.032326,0.0060435,0.011511,0.0071371,0,0,0.05412,-0.014215,0,0.037113,0,0,0,0.034179,0.0041905,0.011511,14.317,0.016627,0.027086,7.7467e-07,0.06,0.08,0
0.0041471,0.0036906,0.032214,0.0043442,0.010968,0.0060405,0,0,0.055242,-0.017221,0,0.031411,0,0,0,0.033501,0.0030575,0.010968,11.75,0.015842,0.027363,7.6311e-07,0.08,0.08,0
0.005258,0.0044844,0.031841,0.0031553,0.010499,0.004985,0,0,0.05549,-0.019093,0,0.025922,0,0,0,0.032708,0.002288,0.010499,9.5932,0.015165,0.02726,7.3096e-07,0.1,0.08,0
0.0063666,0.0051942,0.031315,0.0023277,0.010093,0.0040731,0,0,0.055178,-0.02019,0,0.02118,0,0,0,0.031895,0.0017476,0.010093,7.8462,0.014579,0.026963,6.9126e-07,0.12,0.08,0
0.0074651,0.0058227,0.03074,0.0017481,0.0097464,0.0033227,0,0,0.054583,-0.020796,0,0.017278,0,0,0,0.031129,0.0013589,0.0097464,6.4465,0.014078,0.026589,6.5173e-07,0.14,0.08,0
0.00855,0.0063751,0.030176,0.0013397,0.0094548,0.0027158,0,0,0.053876,-0.021099,0,0.014122,0,0,0,0.030439,0.0010767,0.0094548,5.3221,0.013657,0.026199,6.1563e-07,0.16,0.08,0
0.0096202,0.0068571,0.029654,0.0010518,0.0092117,0.0022249,0,0,0.053149,-0.021216,0,0.01157,0,0,0,0.029833,0.00087287,0.0092117,4.4094,0.013306,0.025821,5.8387e-07,0.18,0.08,0
0.010676,0.0072738,0.029183,0.00085085,0.0090101,0.0018235,0,0,0.052449,-0.021214,0,0.0094824,0,0,0,0.029305,0.00072892,0.0090101,3.6556,0.013015,0.025466,5.5633e-07,0.2,0.08,0
0.011718,0.0076297,0.028765,0.00071472,0.0088438,0.0014884,0,0,0.051794,-0.021136,0,0.0077395,0,0,0,0.028847,0.00063215,0.0088438,3.0176,0.012774,0.025136,5.3254e-07,0.22,0.08,0
0.012748,0.0079283,0.028396,0.00062799,0.0087072,0.0012001,0,0,0.051191,-0.021006,0,0.0062405,0,0,0,0.028451,0.00057324,0.0087072,2.4598,0.012577,0.024831,5.1194e-07,0.24,0.08,0
0.013766,0.0081725,0.028073,0.00057932,0.0085956,0.00094296,0,0,0.05064,-0.020842,0,0.0049034,0,0,0,0.028107,0.0005446,0.0085956,1.9528,0.012416,0.024548,4.9404e-07,0.26,0.08,0
0.014773,0.0083644,0.027789,0.00055939,0.0085046,0.00070433,0,0,0.05014,-0.020658,0,0.0036625,0,0,0,0.02781,0.00053913,0.0085046,1.4725,0.012284,0.024288,4.7846e-07,0.28,0.08,0
0.015771,0.0085061,0.027542,0.00055942,0.0084304,0.00047469,0,0,0.04969,-0.020465,0,0.0024684,0,0,0,0.027552,0.00054926,0.0084304,1.0005,0.012177,0.024051,4.6494e-07,0.3,0.08,0
0.016761,0.0085992,0.027327,0.00057026,0.0083692,0.00024775,0,0,0.049291,-0.020277,0,0.0012883,0,0,0,0.027331,0.00056632,0.0083692,0.5246,0.012089,0.023841,4.5336e-07,0.32,0.08,0
0.017743,0.0086458,0.027142,0.0005819,0.0083172,2.0829e-05,0,0,0.048945,-0.020112,0,0.00010831,0,0,0,0.027144,0.00058037,0.0083172,0.040337,0.012014,0.023663,4.4368e-07,0.34,0.08,0
0.018719,0.0086481,0.026984,0.00058364,0.0082704,-0.00020485,0,0,0.048656,-0.019986,0,-0.0010652,0,0,0,0.026987,0.00058067,0.0082704,-0.44781,0.011946,0.023524,4.359e-07,0.36,0.08,0
0.019689,0.0086092,0.026851,0.00056479,0.0082248,-0.00042418,0,0,0.048429,-0.019916,0,-0.0022057,0,0,0,0.026859,0.00055675,0.0082248,-0.92624,0.01188,0.02343,4.3004e-07,0.38,0.08,0
0.020656,0.0085337,0.026741,0.00051556,0.0081769,-0.00062872,0,0,0.048266,-0.019919,0,-0.0032694,0,0,0,0.026757,0.00049954,0.0081769,-1.3734,0.011811,0.023384,4.2605e-07,0.4,0.08,0
0.02162,0.0084271,0.02665,0.00042764,0.0081234,-0.00080731,0,0,0.04817,-0.020009,0,-0.004198,0,0,0,0.026676,0.00040213,0.0081234,-1.7617,0.011734,0.023389,4.2387e-07,0.42,0.08,0
0.022583,0.0082969,0.026578,0.00029406,0.0080618,-0.00094611,0,0,0.048143,-0.020196,0,-0.0049197,0,0,0,0.026613,0.00025968,0.0080618,-2.0583,0.011645,0.023447,4.2335e-07,0.44,0.08,0
0.023546,0.0081524,0.026522,0.00011204,0.0079902,-0.0010279,0,0,0.048182,-0.020483,0,-0.0053453,0,0,0,0.026562,7.195e-05,0.0079902,-2.2252,0.011541,0.023551,4.2418e-07,0.46,0.08,0
0.02451,0.0080052,0.026473,-0.00010627,0.0079101,-0.0010351,0,0,0.048264,-0.020843,0,-0.0053823,0,0,0,0.026514,-0.00014665,0.0079101,-2.2267,0.011426,0.023683,4.2562e-07,0.48,0.08,0
0.025476,0.007868,0.026424,-0.00032248,0.0078304,-0.00095938,0,0,0.048343,-0.021198,0,-0.0049888,0,0,0,0.026459,-0.00035722,0.0078304,-2.0519,0.011311,0.023803,4.2655e-07,0.5,0.08,0
0.026444,0.0077536,0.026369,-0.00048354,0.0077657,-0.00081502,0,0,0.048369,-0.021448,0,-0.0042381,0,0,0,0.026395,-0.00050892,0.0077657,-1.7364,0.011217,0.023867,4.2606e-07,0.52,0.08,0
0.027411,0.0076725,0.026314,-0.00056104,0.0077258,-0.00063674,0,0,0.048329,-0.021546,0,-0.0033111,0,0,0,0.02633,-0.00057685,0.0077258,-1.3552,0.01116,0.023864,4.2416e-07,0.54,0.08,0
0.028377,0.0076312,0.02627,-0.00057432,0.0077088,-0.00045928,0,0,0.04826,-0.021536,0,-0.0023883,0,0,0,0.026279,-0.00058277,0.0077088,-0.97872,0.011135,0.023824,4.2195e-07,0.56,0.08,0
0.029341,0.0076329,0.026257,-0.00056849,0.0077066,-0.00029676,0,0,0.048231,-0.021515,0,-0.0015431,0,0,0,0.026261,-0.00057226,0.0077066,-0.63395,0.011132,0.023799,4.21e-07,0.58,0.08,0
0.030306,0.007679,0.026287,-0.0005769,0.007713,-0.00013985,0,0,0.048292,-0.021554,0,-0.00072724,0,0,0,0.026288,-0.00057821,0.007713,-0.30034,0.011141,0.023829,4.2242e-07,0.6,0.08,0
0.031273,0.0077702,0.026359,-0.00059945,0.0077279,3.0447e-05,0,0,0.048441,-0.021651,0,0.00015833,0,0,0,0.02636,-0.00060033,0.0077279,0.061471,0.011163,0.02391,4.2616e-07,0.62,0.08,0
0.032244,0.0079065,0.026458,-0.00060265,0.0077567,0.00022331,0,0,0.048624,-0.021734,0,0.0011612,0,0,0,0.026461,-0.00060555,0.0077567,0.46976,0.011204,0.024004,4.3102e-07,0.64,0.08,0
0.033218,0.0080862,0.026565,-0.00054169,0.0078069,0.00042447,0,0,0.04877,-0.021706,0,0.0022072,0,0,0,0.026572,-0.00054931,0.0078069,0.89524,0.011277,0.024058,4.3538e-07,0.66,0.08,0
0.034195,0.0083041,0.026663,-0.00039806,0.0078795,0.0005993,0,0,0.048837,-0.021522,0,0.0031164,0,0,0,0.026677,-0.00041195,0.0078795,1.2675,0.011382,0.024041,4.3812e-07,0.68,0.08,0
0.035172,0.0085513,0.026748,-0.00020109,0.007964,0.00071366,0,0,0.048838,-0.021229,0,0.003711,0,0,0,0.026767,-0.00022024,0.007964,1.5156,0.011504,0.023967,4.3922e-07,0.7,0.08,0
0.036148,0.0088164,0.026821,-3.9044e-06,0.008045,0.00075433,0,0,0.048816,-0.020927,0,0.0039225,0,0,0,0.026842,-2.5227e-05,0.008045,1.6091,0.011621,0.023878,4.3948e-07,0.72,0.08,0
0.037124,0.0090883,0.026888,0.00015574,0.0081131,0.00073011,0,0,0.048815,-0.020689,0,0.0037966,0,0,0,0.026908,0.00013565,0.0081131,1.5629,0.011719,0.023808,4.3988e-07,0.74,0.08,0
0.038101,0.009357,0.026955,0.00026626,0.0081665,0.00065915,0,0,0.048851,-0.020541,0,0.0034276,0,0,0,0.026972,0.00024973,0.0081665,1.4138,0.011796,0.023774,4.4097e-07,0.76,0.08,0
0.039078,0.0096148,0.027023,0.00033028,0.008206,0.0005589,0,0,0.048925,-0.020477,0,0.0029063,0,0,0,0.027035,0.00031824,0.008206,1.1992,0.011853,0.023776,4.4286e-07,0.78,0.08,0
0.040058,0.009856,0.027091,0.00035379,0.0082334,0.00044375,0,0,0.04903,-0.020487,0,0.0023075,0,0,0,0.027099,0.00034605,0.0082334,0.95125,0.011893,0.02381,4.4553e-07,0.8,0.08,0
0.041039,0.010076,0.027158,0.0003436,0.0082505,0.00032607,0,0,0.04916,-0.020558,0,0.0016955,0,0,0,0.027162,0.00033928,0.0082505,0.69762,0.011917,0.023872,4.4886e-07,0.82,0.08,0
0.042024,0.010274,0.027224,0.00030769,0.0082596,0.00021626,0,0,0.049308,-0.020675,0,0.0011246,0,0,0,0.027226,0.00030566,0.0082596,0.46159,0.01193,0.023955,4.5271e-07,0.84,0.08,0
0.043012,0.010446,0.027288,0.00025478,0.008263,0.0001222,0,0,0.049466,-0.020821,0,0.00063543,0,0,0,0.027289,0.000254,0.008263,0.26037,0.011935,0.024052,4.5687e-07,0.86,0.08,0
0.044003,0.010593,0.027349,0.00019338,0.0082627,4.8718e-05,0,0,0.049625,-0.02098,0,0.00025333,0,0,0,0.027349,0.00019315,0.0082627,0.10414,0.011935,0.024154,4.6109e-07,0.88,0.08,0
0.044997,0.010716,0.027404,0.00013096,0.0082606,-2.3287e-06,0,0,0.049774,-0.021137,0,-1.2109e-05,0,0,0,0.027405,0.00013087,0.0082606,-0.0036762,0.011932,0.024253,4.6509e-07,0.9,0.08,0
0.045994,0.010815,0.027452,7.3445e-05,0.0082578,-3.1631e-05,0,0,0.049906,-0.021279,0,-0.00016448,0,0,0,0.027453,7.3364e-05,0.0082578,-0.065183,0.011928,0.024342,4.6864e-07,0.92,0.08,0
0.046993,0.01089,0.027491,2.5138e-05,0.008255,-4.1782e-05,0,0,0.050015,-0.021398,0,-0.00021727,0,0,0,0.027492,2.5051e-05,0.008255,-0.086389,0.011924,0.024415,4.7156e-07,0.94,0.08,0
0.047994,0.010944,0.02752,-1.1075e-05,0.0082527,-3.6677e-05,0,0,0.050095,-0.021486,0,-0.00019072,0,0,0,0.02752,-1.1138e-05,0.0082527,-0.075814,0.011921,0.024469,4.7372e-07,0.96,0.08,0
0.048997,0.010975,0.027538,-3.3423e-05,0.0082513,4.1179e-06,0,0,0.050145,-0.02154,0,2.1413e-05,0,0,0,0.027538,-3.3542e-05,0.0082513,0.008812,0.011919,0.024503,4.7506e-07,0.98,0.08,0
0.049498,0.010986,0.027544,-4.0969e-05,0.0082508,3.9097e-05,0,0,0.050161,-0.021559,0,0.0002033,0,0,0,0.027544,-4.1163e-05,0.0082508,0.081388,0.011918,0.024514,4.7551e-07,1,0.08,0
0.00046015,0.00042299,0.030877,0.012205,0.012925,0.0080688,0,0,0.046677,-0.0018717,0,0.041958,0,0,0,0.033888,0.0091938,0.012925,20.421,0.018669,0.023061,5.7543e-07,0,0.1,0
0.00093355,0.00085173,0.030955,0.011129,0.012625,0.0079668,0,0,0.047656,-0.0038889,0,0.041428,0,0,0,0.033776,0.0083081,0.012625,19.441,0.018236,0.023616,6.0104e-07,0.02,0.1,0
0.0019062,0.001712,0.031243,0.0090029,0.012074,0.0076358,0,0,0.049841,-0.0079846,0,0.039706,0,0,0,0.033635,0.006611,0.012074,17.302,0.01744,0.024757,6.5327e-07,0.04,0.1,0
0.0029272,0.0025615,0.031575,0.007024,0.01158,0.0070344,0,0,0.051988,-0.011845,0,0.036579,0,0,0,0.033473,0.0051263,0.01158,14.96,0.016726,0.025739,6.9337e-07,0.06,0.1,0
0.0039858,0.0033712,0.031704,0.0053613,0.01112,0.0062265,0,0,0.05352,-0.014972,0,0.032378,0,0,0,0.033125,0.0039407,0.01112,12.686,0.016062,0.026342,7.0856e-07,0.08,0.1,0
0.005068,0.0041218,0.031625,0.0040727,0.010709,0.0053601,0,0,0.054381,-0.017255,0,0.027872,0,0,0,0.03265,0.0030477,0.010709,10.649,0.015469,0.026614,7.0406e-07,0.1,0.1,0
0.006161,0.0048039,0.031382,0.0031093,0.010347,0.0045396,0,0,0.05469,-0.018819,0,0.023606,0,0,0,0.032108,0.0023835,0.010347,8.9093,0.014946,0.026652,6.873e-07,0.12,0.1,0
0.0072556,0.0054155,0.031039,0.0023977,0.010031,0.0038138,0,0,0.054621,-0.019847,0,0.019832,0,0,0,0.03155,0.0018875,0.010031,7.4567,0.014489,0.026545,6.6455e-07,0.14,0.1,0
0.0083459,0.0059581,0.030651,0.0018754,0.0097579,0.0031938,0,0,0.054322,-0.020495,0,0.016608,0,0,0,0.03101,0.0015169,0.0097579,6.2538,0.014095,0.026357,6.3988e-07,0.16,0.1,0
0.0094285,0.0064351,0.030254,0.0014948,0.0095246,0.0026716,0,0,0.053896,-0.020877,0,0.013892,0,0,0,0.030506,0.0012424,0.0095246,5.2561,0.013758,0.026127,6.1549e-07,0.18,0.1,0
0.010502,0.00685,0.029868,0.0012216,0.0093268,0.0022319,0,0,0.053407,-0.021074,0,0.011606,0,0,0,0.030046,0.001044,0.0093268,4.4209,0.013472,0.025875,5.9239e-07,0.2,0.1,0
0.011565,0.0072061,0.029503,0.0010314,0.0091604,0.0018579,0,0,0.052891,-0.021135,0,0.0096609,0,0,0,0.029628,0.00090693,0.0091604,3.7096,0.013232,0.025612,5.7089e-07,0.22,0.1,0
0.012617,0.0075065,0.029163,0.00090638,0.0090208,0.0015332,0,0,0.05237,-0.021097,0,0.0079725,0,0,0,0.029249,0.00082036,0.0090208,3.0885,0.01303,0.025344,5.5098e-07,0.24,0.1,0
0.01366,0.0077535,0.028847,0.00083274,0.0089039,0.0012433,0,0,0.051852,-0.020985,0,0.0064651,0,0,0,0.028904,0.00077503,0.0089039,2.5281,0.012861,0.025074,5.3253e-07,0.26,0.1,0
0.014691,0.0079491,0.028553,0.00079874,0.0088054,0.00097569,0,0,0.051343,-0.020817,0,0.0050736,0,0,0,0.028589,0.00076211,0.0088054,2.0031,0.012719,0.024804,5.1538e-07,0.28,0.1,0
0.015713,0.0080949,0.028278,0.00079294,0.0087212,0.00072033,0,0,0.050847,-0.020614,0,0.0037457,0,0,0,0.028299,0.00077185,0.0087212,1.4929,0.012597,0.024538,4.9946e-07,0.3,0.1,0
0.016725,0.0081922,0.02802,0.00080293,0.0086469,0.00047017,0,0,0.05037,-0.020394,0,0.0024449,0,0,0,0.02803,0.00079266,0.0086469,0.98261,0.01249,0.024283,4.8475e-07,0.32,0.1,0
0.017728,0.0082425,0.027777,0.00081469,0.0085776,0.00022197,0,0,0.049919,-0.020184,0,0.0011542,0,0,0,0.027781,0.00081076,0.0085776,0.4657,0.01239,0.024047,4.7138e-07,0.34,0.1,0
0.018722,0.0082479,0.027547,0.00081289,0.0085081,-2.2997e-05,0,0,0.049502,-0.020008,0,-0.00011959,0,0,0,0.027549,0.00081084,0.0085081,-0.054163,0.012289,0.023841,4.5948e-07,0.36,0.1,0
0.019708,0.0082111,0.027327,0.00078237,0.0084329,-0.00025881,0,0,0.049126,-0.019892,0,-0.0013458,0,0,0,0.027332,0.00077797,0.0084329,-0.56219,0.012181,0.023674,4.4912e-07,0.38,0.1,0
0.020687,0.0081359,0.027114,0.00071036,0.0083472,-0.0004759,0,0,0.048793,-0.019856,0,-0.0024747,0,0,0,0.027124,0.00070011,0.0083472,-1.0346,0.012057,0.023551,4.4024e-07,0.4,0.1,0
0.02166,0.0080279,0.026902,0.00058773,0.0082469,-0.00066316,0,0,0.048503,-0.019914,0,-0.0034484,0,0,0,0.02692,0.00056959,0.0082469,-1.4438,0.011912,0.023473,4.3265e-07,0.42,0.1,0
0.022627,0.0078942,0.026693,0.0004085,0.0081303,-0.0008089,0,0,0.048262,-0.020077,0,-0.0042063,0,0,0,0.026719,0.00038244,0.0081303,-1.761,0.011744,0.023443,4.2626e-07,0.44,0.1,0
0.02359,0.007744,0.026486,0.00016492,0.0079953,-0.00089842,0,0,0.048076,-0.020359,0,-0.0046718,0,0,0,0.026518,0.00013334,0.0079953,-1.9516,0.011549,0.023463,4.21e-07,0.46,0.1,0
0.02455,0.0075892,0.026278,-0.00014079,0.0078413,-0.00090941,0,0,0.047936,-0.020753,0,-0.0047289,0,0,0,0.026311,-0.00017297,0.0078413,-1.9677,0.011326,0.023524,4.1636e-07,0.48,0.1,0
0.025508,0.0074445,0.026063,-0.0004526,0.0076832,-0.00082539,0,0,0.047788,-0.021153,0,-0.0042921,0,0,0,0.02609,-0.00047956,0.0076832,-1.7791,0.011098,0.023573,4.1105e-07,0.5,0.1,0
0.026462,0.0073253,0.025845,-0.00066624,0.0075538,-0.00066701,0,0,0.047558,-0.021372,0,-0.0034684,0,0,0,0.025864,-0.00068467,0.0075538,-1.4358,0.010911,0.023537,4.0386e-07,0.52,0.1,0
0.02741,0.0072431,0.025642,-0.00072754,0.0074744,-0.00049384,0,0,0.047236,-0.021325,0,-0.002568,0,0,0,0.025653,-0.00073818,0.0074744,-1.066,0.010796,0.023392,3.9516e-07,0.54,0.1,0
0.028351,0.0072033,0.025481,-0.0006905,0.0074371,-0.00036078,0,0,0.046914,-0.021132,0,-0.001876,0,0,0,0.025487,-0.00069618,0.0074371,-0.78427,0.010743,0.023211,3.8717e-07,0.56,0.1,0
0.029287,0.0072063,0.025397,-0.00065064,0.0074238,-0.00027724,0,0,0.046729,-0.020993,0,-0.0014416,0,0,0,0.0254,-0.00065384,0.0074238,-0.60846,0.010723,0.0231,3.8275e-07,0.58,0.1,0
0.03022,0.0072516,0.025417,-0.0006635,0.0074262,-0.0002113,0,0,0.046777,-0.021033,0,-0.0010988,0,0,0,0.025419,-0.00066562,0.0074262,-0.46792,0.010727,0.023127,3.8382e-07,0.6,0.1,0
0.031158,0.00734,0.025542,-0.00072896,0.007444,-0.00011782,0,0,0.047056,-0.02125,0,-0.00061268,0,0,0,0.025544,-0.00073062,0.007444,-0.26451,0.010752,0.023289,3.903e-07,0.62,0.1,0
0.032103,0.0074734,0.025741,-0.00079111,0.0074849,3.4929e-05,0,0,0.047465,-0.021518,0,0.00018163,0,0,0,0.025743,-0.00079313,0.0074849,0.067277,0.010812,0.023516,4.0015e-07,0.64,0.1,0
0.033056,0.0076528,0.025976,-0.00075445,0.0075665,0.00023709,0,0,0.047865,-0.021635,0,0.0012329,0,0,0,0.025981,-0.00075877,0.0075665,0.50258,0.010929,0.0237,4.1048e-07,0.66,0.1,0
0.034017,0.0078743,0.026219,-0.00056649,0.0076959,0.0004336,0,0,0.048161,-0.021482,0,0.0022547,0,0,0,0.026228,-0.00057522,0.0076959,0.92444,0.011116,0.023773,4.1914e-07,0.68,0.1,0
0.034983,0.0081277,0.026451,-0.00028351,0.0078504,0.00056568,0,0,0.048363,-0.021148,0,0.0029415,0,0,0,0.026464,-0.0002966,0.0078504,1.21,0.011339,0.02376,4.258e-07,0.7,0.1,0
0.035952,0.0083992,0.026665,-9.9252e-06,0.0079967,0.00061416,0,0,0.048539,-0.020817,0,0.0031936,0,0,0,0.02668,-2.4949e-05,0.0079967,1.3171,0.011551,0.023734,4.3159e-07,0.72,0.1,0
0.036924,0.0086758,0.026865,0.00019991,0.0081195,0.00059648,0,0,0.048739,-0.020591,0,0.0031017,0,0,0,0.026879,0.00018575,0.0081195,1.2805,0.011728,0.023743,4.3758e-07,0.74,0.1,0
0.037901,0.0089472,0.027053,0.00034492,0.0082195,0.00053508,0,0,0.048968,-0.020474,0,0.0027824,0,0,0,0.027065,0.00033343,0.0082195,1.1478,0.011873,0.02379,4.4406e-07,0.76,0.1,0
0.038883,0.0092059,0.027227,0.00043237,0.0082977,0.00044463,0,0,0.049215,-0.02045,0,0.0023121,0,0,0,0.027235,0.00042427,0.0082977,0.95168,0.011986,0.023868,4.5085e-07,0.78,0.1,0
0.03987,0.0094463,0.027383,0.00046654,0.008355,0.00033733,0,0,0.049474,-0.02051,0,0.0017541,0,0,0,0.027388,0.00046164,0.008355,0.71971,0.012068,0.023975,4.579e-07,0.8,0.1,0
0.040862,0.0096646,0.027526,0.00045416,0.008394,0.00022575,0,0,0.049743,-0.020644,0,0.0011739,0,0,0,0.027528,0.00045169,0.008394,0.47994,0.012125,0.024108,4.6524e-07,0.82,0.1,0
0.04186,0.0098587,0.027656,0.00040532,0.0084183,0.00012183,0,0,0.050017,-0.020834,0,0.00063354,0,0,0,0.027657,0.0004043,0.0084183,0.25855,0.01216,0.024259,4.7277e-07,0.84,0.1,0
0.042863,0.010027,0.027773,0.00033237,0.0084317,3.486e-05,0,0,0.050288,-0.021058,0,0.00018127,0,0,0,0.027774,0.00033198,0.0084317,0.075143,0.012179,0.024421,4.8027e-07,0.86,0.1,0
0.043871,0.010171,0.027878,0.00024764,0.0084377,-2.9673e-05,0,0,0.050545,-0.021294,0,-0.0001543,0,0,0,0.027878,0.00024739,0.0084377,-0.059391,0.012188,0.024581,4.8741e-07,0.88,0.1,0
0.044885,0.01029,0.027968,0.00016181,0.008439,-6.9939e-05,0,0,0.050776,-0.021521,0,-0.00036368,0,0,0,0.027968,0.00016149,0.008439,-0.1423,0.01219,0.02473,4.9387e-07,0.9,0.1,0
0.045902,0.010385,0.028043,8.3062e-05,0.0084377,-8.7011e-05,0,0,0.050973,-0.021722,0,-0.00045246,0,0,0,0.028043,8.2711e-05,0.0084377,-0.17687,0.012188,0.024859,4.994e-07,0.92,0.1,0
0.046923,0.010458,0.028101,1.7189e-05,0.0084355,-8.3948e-05,0,0,0.051131,-0.021888,0,-0.00043653,0,0,0,0.028101,1.6891e-05,0.0084355,-0.17022,0.012185,0.024964,5.0382e-07,0.94,0.1,0
0.047947,0.010509,0.028143,-3.2039e-05,0.0084333,-6.5038e-05,0,0,0.051245,-0.02201,0,-0.0003382,0,0,0,0.028143,-3.2221e-05,0.0084333,-0.13158,0.012181,0.02504,5.0703e-07,0.96,0.1,0
0.048973,0.010539,0.028168,-6.2355e-05,0.0084317,-1.1181e-05,0,0,0.051314,-0.022084,0,-5.814e-05,0,0,0,0.028168,-6.2509e-05,0.0084317,-0.022364,0.012179,0.025086,5.0897e-07,0.98,0.1,0
0.049487,0.010549,0.028176,-7.2582e-05,0.0084311,2.9854e-05,0,0,0.051337,-0.02211,0,0.00015524,0,0,0,0.028176,-7.2772e-05,0.0084311,0.060782,0.012178,0.025102,5.0963e-07,1,0.1,0
0.00045087,0.00038905,0.030273,0.012098,0.012711,0.0074426,0,0,0.04566,-0.0015941,0,0.038701,0,0,0,0.032938,0.0094334,0.012711,19.659,0.018361,0.022053,5.1024e-07,0,0.12,0
0.00091321,0.00078136,0.03036,0.011201,0.012468,0.0073788,0,0,0.046518,-0.0032949,0,0.03837,0,0,0,0.032885,0.0086766,0.012468,18.836,0.01801,0.022559,5.3385e-07,0.02,0.12,0
0.0018607,0.001567,0.030673,0.0094196,0.012028,0.0071631,0,0,0.048477,-0.006781,0,0.037248,0,0,0,0.032877,0.007215,0.012028,17.039,0.017373,0.023633,5.8431e-07,0.04,0.12,0
0.0028523,0.002344,0.031065,0.0077035,0.01163,0.0067491,0,0,0.050529,-0.01021,0,0.035095,0,0,0,0.032892,0.0058766,0.01163,15.052,0.0168,0.024652,6.3012e-07,0.06,0.12,0
0.0038819,0.0030917,0.031319,0.0061579,0.011243,0.006156,0,0,0.052198,-0.013222,0,0.032011,0,0,0,0.032761,0.0047161,0.011243,13.069,0.01624,0.025421,6.5948e-07,0.08,0.12,0
0.0049402,0.0037942,0.031416,0.0048665,0.010885,0.0054713,0,0,0.053382,-0.015648,0,0.028451,0,0,0,0.032514,0.0037691,0.010885,11.221,0.015723,0.025932,6.7295e-07,0.1,0.12,0
0.0060172,0.0044415,0.031369,0.0038362,0.010562,0.004775,0,0,0.054099,-0.017486,0,0.02483,0,0,0,0.032185,0.00302,0.010562,9.5775,0.015256,0.026222,6.7388e-07,0.12,0.12,0
0.0071042,0.0050288,0.031211,0.0030352,0.010274,0.0041199,0,0,0.054437,-0.018821,0,0.021423,0,0,0,0.03181,0.0024361,0.010274,8.1564,0.01484,0.026346,6.6624e-07,0.14,0.12,0
0.0081947,0.0055553,0.030981,0.0024225,0.010021,0.0035313,0,0,0.054496,-0.019756,0,0.018363,0,0,0,0.031418,0.0019854,0.010021,6.9466,0.014475,0.026351,6.5342e-07,0.16,0.12,0
0.009284,0.006022,0.03071,0.0019608,0.0098012,0.0030158,0,0,0.054363,-0.020385,0,0.015682,0,0,0,0.031028,0.0016424,0.0098012,5.9226,0.014157,0.026275,6.3777e-07,0.18,0.12,0
0.010369,0.0064309,0.030419,0.0016196,0.0096117,0.0025691,0,0,0.0541,-0.020779,0,0.013359,0,0,0,0.030651,0.001388,0.0096117,5.0539,0.013884,0.02614,6.2077e-07,0.2,0.12,0
0.011448,0.0067843,0.030123,0.0013754,0.0094496,0.0021816,0,0,0.053752,-0.020993,0,0.011344,0,0,0,0.030291,0.0012074,0.0094496,4.3098,0.013649,0.025964,6.0324e-07,0.22,0.12,0
0.012519,0.0070844,0.029828,0.0012099,0.0093115,0.0018418,0,0,0.053344,-0.021064,0,0.0095772,0,0,0,0.029949,0.0010889,0.0093115,3.6611,0.01345,0.025753,5.8557e-07,0.24,0.12,0
0.013582,0.0073331,0.029537,0.0011081,0.0091936,0.0015377,0,0,0.052893,-0.021022,0,0.007996,0,0,0,0.029623,0.0010226,0.0091936,3.0804,0.01328,0.025515,5.6792e-07,0.26,0.12,0
0.014635,0.0075317,0.02925,0.001057,0.009092,0.001258,0,0,0.05241,-0.020891,0,0.0065416,0,0,0,0.029308,0.00099854,0.009092,2.5428,0.013133,0.025255,5.5035e-07,0.28,0.12,0
0.015678,0.0076815,0.028965,0.0010429,0.0090023,0.00099274,0,0,0.051903,-0.020694,0,0.0051623,0,0,0,0.029002,0.0010053,0.0090023,2.0263,0.013003,0.024978,5.3294e-07,0.3,0.12,0
0.016711,0.0077835,0.028682,0.0010506,0.0089197,0.0007343,0,0,0.051381,-0.02046,0,0.0038183,0,0,0,0.028704,0.0010287,0.0089197,1.5139,0.012884,0.024694,5.159e-07,0.32,0.12,0
0.017733,0.0078384,0.0284,0.0010616,0.0088383,0.00047878,0,0,0.050859,-0.020219,0,0.0024897,0,0,0,0.02841,0.0010507,0.0088383,0.996,0.012766,0.024416,4.9953e-07,0.34,0.12,0
0.018745,0.0078478,0.028117,0.0010548,0.0087515,0.0002277,0,0,0.05035,-0.020011,0,0.001184,0,0,0,0.028121,0.0010503,0.0087515,0.4757,0.012641,0.024159,4.8418e-07,0.36,0.12,0
0.019747,0.0078136,0.027831,0.0010085,0.0086518,-1.1041e-05,0,0,0.049865,-0.019872,0,-5.7416e-05,0,0,0,0.027833,0.0010061,0.0086518,-0.028975,0.012497,0.023938,4.7007e-07,0.38,0.12,0
0.02074,0.0077394,0.027534,0.00090563,0.0085319,-0.00022435,0,0,0.049405,-0.019828,0,-0.0011666,0,0,0,0.027538,0.00090132,0.0085319,-0.4871,0.012324,0.023759,4.5709e-07,0.4,0.12,0
0.021724,0.0076305,0.027216,0.00073751,0.0083861,-0.0003979,0,0,0.048958,-0.019886,0,-0.0020691,0,0,0,0.027224,0.00072906,0.0083861,-0.86424,0.012113,0.023617,4.4468e-07,0.42,0.12,0
0.022698,0.0074938,0.026866,0.00050298,0.0082107,-0.00052203,0,0,0.048504,-0.02004,0,-0.0027146,0,0,0,0.026879,0.00048986,0.0082107,-1.1362,0.01186,0.0235,4.3215e-07,0.44,0.12,0
0.023664,0.0073381,0.026488,0.00020329,0.0080074,-0.00059009,0,0,0.04805,-0.020291,0,-0.0030684,0,0,0,0.026505,0.00018673,0.0080074,-1.2851,0.011566,0.023409,4.195e-07,0.46,0.12,0
0.02462,0.007175,0.026084,-0.00018203,0.0077707,-0.00058727,0,0,0.047616,-0.020677,0,-0.0030538,0,0,0,0.026101,-0.00019896,0.0077707,-1.277,0.011224,0.023359,4.0698e-07,0.48,0.12,0
0.025568,0.0070218,0.025646,-0.00060733,0.0075117,-0.00048762,0,0,0.04715,-0.021109,0,-0.0025356,0,0,0,0.02566,-0.00062099,0.0075117,-1.0571,0.01085,0.023305,3.9342e-07,0.5,0.12,0
0.026506,0.0068987,0.025206,-0.00085995,0.0073038,-0.00031587,0,0,0.046546,-0.021226,0,-0.0016425,0,0,0,0.025215,-0.00086883,0.0073038,-0.68074,0.01055,0.023108,3.7742e-07,0.52,0.12,0
0.02743,0.0068195,0.024812,-0.0008325,0.007194,-0.00017892,0,0,0.045808,-0.020869,0,-0.00093039,0,0,0,0.024817,-0.00083744,0.007194,-0.38248,0.010391,0.022729,3.5999e-07,0.54,0.12,0
0.028339,0.0067859,0.024499,-0.00069134,0.0071424,-0.00015241,0,0,0.045128,-0.020368,0,-0.00079254,0,0,0,0.024502,-0.00069401,0.0071424,-0.33379,0.010317,0.022334,3.4495e-07,0.56,0.12,0
0.029235,0.0067931,0.024326,-0.00060586,0.0071159,-0.00021621,0,0,0.044745,-0.020077,0,-0.0011243,0,0,0,0.024328,-0.00060841,0.0071159,-0.49321,0.010279,0.022111,3.3673e-07,0.58,0.12,0
0.030128,0.0068376,0.024339,-0.000624,0.0071146,-0.00030791,0,0,0.044784,-0.02012,0,-0.0016011,0,0,0,0.024344,-0.00062866,0.0071146,-0.7133,0.010277,0.022141,3.3766e-07,0.6,0.12,0
0.031027,0.0069202,0.02454,-0.00074606,0.0071381,-0.00035981,0,0,0.045244,-0.020499,0,-0.001871,0,0,0,0.024547,-0.00075344,0.0071381,-0.83067,0.010311,0.022422,3.4766e-07,0.62,0.12,0
0.031938,0.0070458,0.024876,-0.00092361,0.0071856,-0.00030931,0,0,0.045994,-0.021084,0,-0.0016084,0,0,0,0.024884,-0.00093176,0.0071856,-0.7059,0.010379,0.022864,3.6418e-07,0.64,0.12,0
0.032867,0.0072208,0.025287,-0.00098555,0.0072905,-0.00013692,0,0,0.046791,-0.021518,0,-0.000712,0,0,0,0.025294,-0.00099209,0.0072905,-0.31275,0.010531,0.023277,3.827e-07,0.66,0.12,0
0.03381,0.0074448,0.025739,-0.00076765,0.0074913,8.0631e-05,0,0,0.047443,-0.021473,0,0.00041928,0,0,0,0.025744,-0.00077302,0.0074913,0.16775,0.010821,0.023502,3.9961e-07,0.68,0.12,0
0.034764,0.0077054,0.026179,-0.0003828,0.007739,0.00023739,0,0,0.047945,-0.021117,0,0.0012344,0,0,0,0.026185,-0.00038886,0.007739,0.50915,0.011179,0.023586,4.1404e-07,0.7,0.12,0
0.035728,0.0079837,0.026575,-4.3524e-05,0.0079595,0.0003111,0,0,0.048401,-0.020808,0,0.0016177,0,0,0,0.026582,-5.0247e-05,0.0079595,0.66928,0.011497,0.023667,4.273e-07,0.72,0.12,0
0.0367,0.0082646,0.026933,0.0002089,0.0081426,0.00032876,0,0,0.048855,-0.020628,0,0.0017095,0,0,0,0.026939,0.00020264,0.0081426,0.70657,0.011762,0.023783,4.4029e-07,0.74,0.12,0
0.037682,0.008538,0.027249,0.00039658,0.0082937,0.00030455,0,0,0.049284,-0.020533,0,0.0015837,0,0,0,0.027254,0.00039154,0.0082937,0.65242,0.01198,0.023912,4.5248e-07,0.76,0.12,0
0.038672,0.0087968,0.027518,0.00051691,0.0084104,0.00024458,0,0,0.049679,-0.020523,0,0.0012718,0,0,0,0.027521,0.00051349,0.0084104,0.52197,0.012148,0.024052,4.6369e-07,0.78,0.12,0
0.039669,0.0090356,0.027749,0.00056837,0.0084952,0.00015892,0,0,0.050059,-0.02061,0,0.00082641,0,0,0,0.027751,0.00056643,0.0084952,0.3383,0.012271,0.024214,4.7448e-07,0.8,0.12,0
0.040674,0.0092507,0.027952,0.00055598,0.0085525,6.3592e-05,0,0,0.05044,-0.020791,0,0.00033068,0,0,0,0.027953,0.00055499,0.0085525,0.13651,0.012354,0.024403,4.853e-07,0.82,0.12,0
0.041687,0.0094402,0.028134,0.00049331,0.0085883,-2.5486e-05,0,0,0.05082,-0.021047,0,-0.00013253,0,0,0,0.028135,0.00049263,0.0085883,-0.049314,0.012405,0.024614,4.9618e-07,0.84,0.12,0
0.042707,0.0096037,0.028296,0.00039819,0.0086083,-9.657e-05,0,0,0.051189,-0.021346,0,-0.00050216,0,0,0,0.028297,0.00039738,0.0086083,-0.19507,0.012434,0.024834,5.0681e-07,0.86,0.12,0
0.043734,0.0097417,0.028437,0.00028813,0.0086177,-0.00014351,0,0,0.051531,-0.021657,0,-0.00074623,0,0,0,0.028438,0.00028708,0.0086177,-0.28928,0.012448,0.025048,5.1674e-07,0.88,0.12,0
0.044768,0.0098553,0.028557,0.00017751,0.0086203,-0.00016489,0,0,0.051835,-0.021951,0,-0.00085744,0,0,0,0.028558,0.00017635,0.0086203,-0.33062,0.012452,0.025242,5.2557e-07,0.9,0.12,0
0.045808,0.0099459,0.028654,7.6829e-05,0.0086192,-0.00016254,0,0,0.05209,-0.02221,0,-0.00084519,0,0,0,0.028655,7.578e-05,0.0086192,-0.32414,0.01245,0.025408,5.33e-07,0.92,0.12,0
0.046852,0.010015,0.028728,-6.8533e-06,0.0086164,-0.00014008,0,0,0.05229,-0.02242,0,-0.00072844,0,0,0,0.028729,-7.6196e-06,0.0086164,-0.27809,0.012446,0.025541,5.3884e-07,0.94,0.12,0
0.047899,0.010063,0.02878,-6.91e-05,0.0086134,-0.00010213,0,0,0.052434,-0.022575,0,-0.00053108,0,0,0,0.028781,-6.9526e-05,0.0086134,-0.20205,0.012442,0.025637,5.4303e-07,0.96,0.12,0
0.048949,0.010092,0.028812,-0.00010732,0.0086113,-3.0985e-05,0,0,0.052521,-0.022668,0,-0.00016112,0,0,0,0.028812,-0.00010755,0.0086113,-0.061017,0.012438,0.025694,5.4555e-07,0.98,0.12,0
0.049474,0.010101,0.028822,-0.0001202,0.0086105,1.7919e-05,0,0,0.05255,-0.0227,0,9.3181e-05,0,0,0,0.028822,-0.00012039,0.0086105,0.035746,0.012437,0.025714,5.464e-07,1,0.12,0
0.0004455,0.00035922,0.02992,0.012039,0.012588,0.0068825,0,0,0.045064,-0.0014269,0,0.035789,0,0,0,0.032268,0.0096911,0.012588,18.794,0.018182,0.02128,4.6415e-07,0,0.14,0
0.00090128,0.00071993,0.030008,0.011252,0.012378,0.0068375,0,0,0.045839,-0.0029285,0,0.035555,0,0,0,0.032246,0.0090137,0.012378,18.073,0.017879,0.021752,4.8609e-07,0.02,0.14,0
0.0018335,0.0014408,0.030323,0.0096964,0.012006,0.0066843,0,0,0.047625,-0.0060047,0,0.034758,0,0,0,0.032312,0.0077075,0.012006,16.511,0.017342,0.022767,5.3407e-07,0.04,0.14,0
0.0028063,0.0021531,0.030738,0.0081827,0.011676,0.0063857,0,0,0.049561,-0.0090834,0,0.033206,0,0,0,0.032433,0.0064874,0.011676,14.795,0.016866,0.023784,5.815e-07,0.06,0.14,0
0.003816,0.0028424,0.031058,0.0067645,0.011347,0.005944,0,0,0.05125,-0.011914,0,0.030909,0,0,0,0.032447,0.0053759,0.011347,13.066,0.01639,0.024638,6.183e-07,0.08,0.14,0
0.0048563,0.0034959,0.031261,0.0055183,0.011034,0.0054087,0,0,0.052591,-0.014341,0,0.028125,0,0,0,0.032362,0.0044172,0.011034,11.418,0.015938,0.025297,6.4314e-07,0.1,0.14,0
0.0059196,0.0041045,0.031346,0.0044724,0.010745,0.0048351,0,0,0.053561,-0.01631,0,0.025143,0,0,0,0.032198,0.0036199,0.010745,9.9103,0.015521,0.025767,6.5693e-07,0.12,0.14,0
0.0069987,0.0046627,0.031327,0.0036221,0.010485,0.0042681,0,0,0.05419,-0.017843,0,0.022194,0,0,0,0.031977,0.0029722,0.010485,8.5714,0.015145,0.026074,6.6174e-07,0.14,0.14,0
0.0080872,0.0051679,0.031228,0.0029466,0.010252,0.0037363,0,0,0.054537,-0.018995,0,0.019429,0,0,0,0.031719,0.0024555,0.010252,7.4049,0.014809,0.026249,6.5982e-07,0.16,0.14,0
0.0091802,0.0056197,0.031072,0.0024206,0.010048,0.003254,0,0,0.054663,-0.019831,0,0.016921,0,0,0,0.031441,0.0020512,0.010048,6.3999,0.014513,0.02632,6.5313e-07,0.18,0.14,0
0.010274,0.0060188,0.030877,0.0020205,0.0098693,0.0028247,0,0,0.05462,-0.020407,0,0.014688,0,0,0,0.031154,0.0017431,0.0098693,5.5374,0.014256,0.026307,6.4314e-07,0.2,0.14,0
0.011365,0.0063664,0.030657,0.0017261,0.0097149,0.0024455,0,0,0.054449,-0.020771,0,0.012717,0,0,0,0.030865,0.001518,0.0097149,4.795,0.014033,0.026228,6.3081e-07,0.22,0.14,0
0.012452,0.006664,0.030419,0.0015205,0.0095819,0.0021098,0,0,0.054177,-0.02096,0,0.010971,0,0,0,0.030575,0.0013648,0.0095819,4.1495,0.013841,0.026091,6.1673e-07,0.24,0.14,0
0.013532,0.0069126,0.030168,0.0013892,0.0094672,0.001809,0,0,0.053822,-0.021003,0,0.0094067,0,0,0,0.030284,0.0012737,0.0094672,3.5775,0.013675,0.025904,6.0124e-07,0.26,0.14,0
0.014605,0.0071135,0.029905,0.0013186,0.009367,0.0015334,0,0,0.053398,-0.020926,0,0.0079738,0,0,0,0.029989,0.0012344,0.009367,3.0556,0.01353,0.025673,5.8454e-07,0.28,0.14,0
0.015668,0.0072671,0.029628,0.0012944,0.0092768,0.0012737,0,0,0.052914,-0.020754,0,0.0066232,0,0,0,0.029688,0.0012351,0.0092768,2.5617,0.0134,0.025405,5.6686e-07,0.3,0.14,0
0.016721,0.0073738,0.029339,0.0012992,0.0091916,0.0010214,0,0,0.052385,-0.02052,0,0.0053114,0,0,0,0.029379,0.0012596,0.0091916,2.0758,0.013277,0.025111,5.4853e-07,0.32,0.14,0
0.017763,0.0074337,0.029039,0.0013102,0.0091047,0.00077152,0,0,0.051828,-0.020266,0,0.0040119,0,0,0,0.029063,0.0012862,0.0091047,1.5847,0.013151,0.024809,5.3011e-07,0.34,0.14,0
0.018794,0.0074474,0.028727,0.0012989,0.0090078,0.00052523,0,0,0.05127,-0.020043,0,0.0027312,0,0,0,0.02874,0.0012861,0.0090078,1.089,0.013011,0.024522,5.123e-07,0.36,0.14,0
0.019814,0.0074162,0.028403,0.0012334,0.0088908,0.00029335,0,0,0.050731,-0.019909,0,0.0015254,0,0,0,0.028409,0.0012275,0.0088908,0.6114,0.012842,0.024274,4.957e-07,0.38,0.14,0
0.020824,0.0073428,0.028056,0.001088,0.0087434,9.673e-05,0,0,0.050214,-0.019904,0,0.00050299,0,0,0,0.02806,0.0010849,0.0087434,0.19859,0.012629,0.024077,4.8027e-07,0.4,0.14,0
0.021823,0.0072325,0.027667,0.00085229,0.0085558,-3.9869e-05,0,0,0.049689,-0.020029,0,-0.00020732,0,0,0,0.02767,0.00084908,0.0085558,-0.092851,0.012358,0.023918,4.6494e-07,0.42,0.14,0
0.022811,0.0070926,0.027202,0.00053609,0.0083216,-9.8005e-05,0,0,0.04909,-0.020242,0,-0.00050963,0,0,0,0.027207,0.0005311,0.0083216,-0.21973,0.01202,0.023759,4.4774e-07,0.44,0.14,0
0.023786,0.0069324,0.026619,0.0001482,0.0080302,-7.8357e-05,0,0,0.048331,-0.020493,0,-0.00040746,0,0,0,0.026627,0.00014042,0.0080302,-0.17813,0.011599,0.023555,4.2638e-07,0.46,0.14,0
0.024744,0.0067621,0.025904,-0.0003346,0.007671,3.4691e-05,0,0,0.047407,-0.020814,0,0.00018039,0,0,0,0.025919,-0.00034922,0.007671,0.0747,0.01108,0.023317,4.0111e-07,0.48,0.14,0
0.025683,0.0066001,0.025126,-0.00079849,0.0072984,0.00021646,0,0,0.046353,-0.021052,0,0.0011256,0,0,0,0.025149,-0.00082078,0.0072984,0.49476,0.010542,0.023011,3.7377e-07,0.5,0.14,0
0.026598,0.0064762,0.024363,-0.00094497,0.0070254,0.00034201,0,0,0.045077,-0.020723,0,0.0017784,0,0,0,0.024384,-0.00096586,0.0070254,0.81062,0.010148,0.022448,3.4384e-07,0.52,0.14,0
0.027486,0.0064084,0.023682,-0.00075008,0.0068796,0.00031732,0,0,0.043686,-0.019837,0,0.0016501,0,0,0,0.023695,-0.00076277,0.0068796,0.78235,0.0099371,0.021672,3.1408e-07,0.54,0.14,0
0.028346,0.0063886,0.023189,-0.000514,0.0068026,0.00013958,0,0,0.042606,-0.019023,0,0.0007258,0,0,0,0.023195,-0.00051915,0.0068026,0.36012,0.009826,0.021032,2.921e-07,0.56,0.14,0
0.02919,0.0064032,0.022951,-0.00040393,0.0067642,-0.00012952,0,0,0.042086,-0.018637,0,-0.00067352,0,0,0,0.022954,-0.00040714,0.0067642,-0.31213,0.0097705,0.020728,2.8181e-07,0.58,0.14,0
0.030029,0.0064468,0.02296,-0.00042774,0.0067595,-0.00041721,0,0,0.04212,-0.018687,0,-0.0021695,0,0,0,0.02297,-0.00043782,0.0067595,-1.0315,0.0097638,0.020766,2.8274e-07,0.6,0.14,0
0.030875,0.00652,0.023214,-0.0005865,0.0067883,-0.00067341,0,0,0.042707,-0.019175,0,-0.0035017,0,0,0,0.023238,-0.00061034,0.0067883,-1.6462,0.0098053,0.021144,2.9486e-07,0.62,0.14,0
0.031738,0.0066301,0.02372,-0.00087348,0.0068541,-0.00082387,0,0,0.043853,-0.020092,0,-0.0042841,0,0,0,0.023757,-0.00091047,0.0068541,-1.9578,0.0099004,0.021847,3.184e-07,0.64,0.14,0
0.032629,0.0067921,0.02441,-0.0011161,0.0069882,-0.00080674,0,0,0.045297,-0.021071,0,-0.0041951,0,0,0,0.024453,-0.0011587,0.0069882,-1.8447,0.010094,0.022664,3.4922e-07,0.66,0.14,0
0.03355,0.0070153,0.025175,-0.0010145,0.0072483,-0.00062671,0,0,0.046611,-0.021483,0,-0.0032589,0,0,0,0.025211,-0.0010504,0.0072483,-1.3839,0.01047,0.023252,3.7979e-07,0.68,0.14,0
0.034493,0.007283,0.025946,-0.00060441,0.0076024,-0.00037767,0,0,0.047692,-0.021338,0,-0.0019639,0,0,0,0.025966,-0.00062438,0.0076024,-0.81238,0.010981,0.023579,4.0759e-07,0.7,0.14,0
0.035457,0.0075669,0.026641,-0.00018354,0.0079373,-0.000182,0,0,0.04863,-0.021114,0,-0.0009464,0,0,0,0.02665,-0.00019196,0.0079373,-0.38041,0.011465,0.023841,4.3322e-07,0.72,0.14,0
0.036438,0.0078507,0.027194,0.00014258,0.0082008,-6.3492e-05,0,0,0.049381,-0.020951,0,-0.00033016,0,0,0,0.027198,0.00013839,0.0082008,-0.12607,0.011846,0.024064,4.5449e-07,0.74,0.14,0
0.037432,0.0081259,0.027614,0.00039845,0.0084038,-7.825e-06,0,0,0.049947,-0.020814,0,-4.0689e-05,0,0,0,0.027616,0.00039621,0.0084038,-0.0098805,0.012139,0.02423,4.7095e-07,0.76,0.14,0
0.038436,0.008385,0.027947,0.0005732,0.008556,-1.6722e-05,0,0,0.050416,-0.020755,0,-8.6955e-05,0,0,0,0.027948,0.00057167,0.008556,-0.029601,0.012359,0.024385,4.8478e-07,0.78,0.14,0
0.039449,0.0086219,0.028224,0.00065284,0.0086629,-7.1361e-05,0,0,0.050858,-0.020826,0,-0.00037108,0,0,0,0.028225,0.00065144,0.0086629,-0.14332,0.012513,0.024568,4.9783e-07,0.8,0.14,0
0.040471,0.008833,0.028466,0.0006429,0.0087327,-0.0001451,0,0,0.051307,-0.021034,0,-0.0007545,0,0,0,0.028468,0.00064113,0.0087327,-0.29394,0.012614,0.024792,5.1115e-07,0.82,0.14,0
0.041501,0.0090168,0.028683,0.00056426,0.0087743,-0.00021379,0,0,0.051763,-0.021346,0,-0.0011117,0,0,0,0.028686,0.00056185,0.0087743,-0.43104,0.012674,0.025049,5.2475e-07,0.84,0.14,0
0.042541,0.0091735,0.028876,0.00044416,0.0087961,-0.00026234,0,0,0.052208,-0.021715,0,-0.0013642,0,0,0,0.028879,0.00044117,0.0087961,-0.52463,0.012705,0.025317,5.3808e-07,0.86,0.14,0
0.04359,0.0093046,0.029043,0.00030702,0.008805,-0.00028456,0,0,0.052619,-0.022095,0,-0.0014797,0,0,0,0.029046,0.00030382,0.008805,-0.56407,0.012718,0.025575,5.5044e-07,0.88,0.14,0
0.044646,0.0094117,0.029182,0.00017118,0.008806,-0.00028036,0,0,0.052978,-0.022451,0,-0.0014579,0,0,0,0.029185,0.00016822,0.008806,-0.55114,0.01272,0.025806,5.6128e-07,0.9,0.14,0
0.045709,0.0094966,0.029294,4.9004e-05,0.0088028,-0.00025278,0,0,0.053276,-0.02276,0,-0.0013145,0,0,0,0.029296,4.6647e-05,0.0088028,-0.49338,0.012715,0.026002,5.7027e-07,0.92,0.14,0
0.046777,0.0095609,0.029378,-5.1667e-05,0.0087978,-0.00020618,0,0,0.053508,-0.023009,0,-0.0010721,0,0,0,0.029379,-5.3241e-05,0.0087978,-0.40014,0.012708,0.026156,5.7726e-07,0.94,0.14,0
0.047849,0.0096059,0.029437,-0.0001261,0.0087931,-0.00014532,0,0,0.053673,-0.02319,0,-0.00075567,0,0,0,0.029437,-0.00012693,0.0087931,-0.28087,0.012701,0.026266,5.8223e-07,0.96,0.14,0
0.048924,0.0096325,0.029471,-0.00017164,0.0087898,-5.3958e-05,0,0,0.053771,-0.0233,0,-0.00028058,0,0,0,0.029471,-0.00017199,0.0087898,-0.10392,0.012696,0.026332,5.852e-07,0.98,0.14,0
0.049462,0.0096413,0.029483,-0.00018695,0.0087887,4.0145e-06,0,0,0.053804,-0.023337,0,2.0875e-05,0,0,0,0.029483,-0.00018717,0.0087887,0.0080404,0.012695,0.026354,5.8619e-07,1,0.14,0
0.00044255,0.00033197,0.029727,0.012014,0.012522,0.006366,0,0,0.044731,-0.0013207,0,0.033103,0,0,0,0.031783,0.0099585,0.012522,17.854,0.018088,0.020665,4.2968e-07,0,0.16,0
0.00089463,0.00066422,0.029813,0.011298,0.012333,0.0063314,0,0,0.045448,-0.002692,0,0.032923,0,0,0,0.03178,0.0093313,0.012333,17.206,0.017815,0.021114,4.5045e-07,0.02,0.16,0
0.0018179,0.0013269,0.030124,0.0098947,0.012006,0.0062146,0,0,0.047108,-0.0054885,0,0.032316,0,0,0,0.031891,0.0081278,0.012006,15.815,0.017341,0.022086,4.9636e-07,0.04,0.16,0
0.0027789,0.0019807,0.030546,0.0085312,0.011723,0.0059899,0,0,0.048939,-0.0082992,0,0.031148,0,0,0,0.032081,0.0069966,0.011723,14.306,0.016933,0.02309,5.4394e-07,0.06,0.16,0
0.0037755,0.0026152,0.030901,0.0072262,0.011438,0.0056544,0,0,0.050604,-0.010951,0,0.029403,0,0,0,0.032192,0.0059354,0.011438,12.792,0.016522,0.023986,5.8472e-07,0.08,0.16,0
0.0048031,0.0032206,0.031169,0.0060413,0.011163,0.0052352,0,0,0.052015,-0.013317,0,0.027223,0,0,0,0.032225,0.0049856,0.011163,11.331,0.016124,0.024738,6.1677e-07,0.1,0.16,0
0.0058561,0.0037891,0.031342,0.0050096,0.010906,0.0047691,0,0,0.053136,-0.01533,0,0.024799,0,0,0,0.032187,0.0041652,0.010906,9.9709,0.015753,0.025335,6.3974e-07,0.12,0.16,0
0.0069285,0.0043151,0.031426,0.00414,0.01067,0.0042904,0,0,0.053967,-0.016978,0,0.02231,0,0,0,0.032091,0.0034753,0.01067,8.7391,0.015412,0.025784,6.5437e-07,0.14,0.16,0
0.0080148,0.0047955,0.031433,0.0034257,0.010458,0.0038256,0,0,0.054535,-0.018283,0,0.019893,0,0,0,0.03195,0.0029078,0.010458,7.6465,0.015105,0.026101,6.6194e-07,0.16,0.16,0
0.0091099,0.0052287,0.031377,0.0028528,0.010269,0.0033912,0,0,0.05488,-0.019282,0,0.017634,0,0,0,0.031778,0.0024514,0.010269,6.6912,0.014833,0.026305,6.638e-07,0.18,0.16,0
0.01021,0.0056146,0.031273,0.0024048,0.010103,0.0029956,0,0,0.05504,-0.020016,0,0.015577,0,0,0,0.031583,0.0020943,0.010103,5.8635,0.014594,0.026412,6.6113e-07,0.2,0.16,0
0.011312,0.0059535,0.031131,0.0020661,0.0099591,0.0026408,0,0,0.055047,-0.020522,0,0.013732,0,0,0,0.031371,0.0018258,0.0099591,5.1488,0.014385,0.026435,6.5482e-07,0.22,0.16,0
0.012412,0.006246,0.030959,0.0018226,0.0098346,0.0023244,0,0,0.054925,-0.020831,0,0.012087,0,0,0,0.031146,0.0016363,0.0098346,4.5302,0.014206,0.026384,6.4549e-07,0.24,0.16,0
0.013509,0.0064929,0.030762,0.0016612,0.0097269,0.002041,0,0,0.054691,-0.020971,0,0.010613,0,0,0,0.030906,0.001517,0.0097269,3.9888,0.01405,0.026265,6.3352e-07,0.26,0.16,0
0.014599,0.0066947,0.030539,0.0015695,0.0096326,0.0017835,0,0,0.054357,-0.020964,0,0.009274,0,0,0,0.03065,0.0014584,0.0096326,3.5047,0.013914,0.026084,6.1916e-07,0.28,0.16,0
0.015683,0.0068514,0.030291,0.0015334,0.0095474,0.0015429,0,0,0.053934,-0.020836,0,0.0080233,0,0,0,0.030375,0.0014491,0.0095474,3.0562,0.013791,0.025847,6.0266e-07,0.3,0.16,0
0.016757,0.0069627,0.030018,0.001535,0.0094659,0.0013103,0,0,0.053435,-0.02062,0,0.0068133,0,0,0,0.03008,0.0014729,0.0094659,2.621,0.013673,0.025566,5.8439e-07,0.32,0.16,0
0.01782,0.0070278,0.029722,0.0015489,0.0093812,0.0010777,0,0,0.052885,-0.020364,0,0.0056043,0,0,0,0.029765,0.0015054,0.0093812,2.1793,0.013551,0.02526,5.6514e-07,0.34,0.16,0
0.018872,0.007046,0.029408,0.0015379,0.0092836,0.00084412,0,0,0.052322,-0.020139,0,0.0043894,0,0,0,0.029436,0.0015097,0.0092836,1.7247,0.01341,0.024964,5.461e-07,0.36,0.16,0
0.019913,0.0070172,0.029079,0.0014545,0.00916,0.00062213,0,0,0.051789,-0.020035,0,0.0032351,0,0,0,0.029096,0.0014378,0.00916,1.2812,0.013231,0.024719,5.2863e-07,0.38,0.16,0
0.020944,0.0069433,0.02873,0.0012535,0.0089949,0.00044347,0,0,0.05131,-0.020128,0,0.0023061,0,0,0,0.028739,0.0012438,0.0089949,0.91588,0.012993,0.024555,5.1333e-07,0.4,0.16,0
0.021966,0.0068293,0.028337,0.0009199,0.008777,0.00035451,0,0,0.050856,-0.020429,0,0.0018434,0,0,0,0.028344,0.00091249,0.008777,0.72913,0.012678,0.024467,4.9916e-07,0.42,0.16,0
0.022978,0.0066841,0.027847,0.00047326,0.0084962,0.00039444,0,0,0.050313,-0.02086,0,0.0020511,0,0,0,0.027858,0.00046284,0.0084962,0.80737,0.012272,0.024392,4.8268e-07,0.44,0.16,0
0.023978,0.0065183,0.027199,-5.3147e-05,0.0081438,0.00058589,0,0,0.049544,-0.021312,0,0.0030466,0,0,0,0.027222,-7.6493e-05,0.0081438,1.1981,0.011763,0.024258,4.6074e-07,0.46,0.16,0
0.02496,0.0063424,0.026612,-0.00062766,0.0077952,0.00092612,0,0,0.047837,-0.02136,0,0.0046434,0,0,0,0.026663,-0.00067912,0.0077952,1.8975,0.01126,0.024244,4.5216e-07,0.48,0.16,0
0.025899,0.0061798,0.026011,-0.00097383,0.0075111,0.0011889,0,0,0.044846,-0.020552,0,0.0057511,0,0,0,0.026086,-0.0010486,0.0075111,2.528,0.010849,0.024028,4.5153e-07,0.5,0.16,0
0.026769,0.0060698,0.025067,-0.0008146,0.0072757,0.0011185,0,0,0.041921,-0.019192,0,0.0054037,0,0,0,0.025133,-0.00088099,0.0072757,2.5581,0.010509,0.023048,4.2325e-07,0.52,0.16,0
0.027584,0.006026,0.024231,-0.0004364,0.0071383,0.00079963,0,0,0.04009,-0.017935,0,0.0039111,0,0,0,0.024268,-0.00047351,0.0071383,1.9502,0.010311,0.021951,3.8777e-07,0.54,0.16,0
0.028373,0.006025,0.023844,-0.00017877,0.0070996,0.00038184,0,0,0.039157,-0.017145,0,0.0018739,0,0,0,0.023857,-0.00019139,0.0070996,0.95984,0.010255,0.021358,3.7178e-07,0.56,0.16,0
0.02915,0.0060477,0.023706,-7.0276e-05,0.0070908,-6.3471e-05,0,0,0.038801,-0.016832,0,-0.00030336,0,0,0,0.023711,-7.4945e-05,0.0070908,-0.15309,0.010242,0.021135,3.6688e-07,0.58,0.16,0
0.029925,0.0060902,0.023712,-9.9122e-05,0.0070838,-0.00049571,0,0,0.03883,-0.016884,0,-0.0024242,0,0,0,0.023727,-0.00011434,0.0070838,-1.2427,0.010232,0.021181,3.6812e-07,0.6,0.16,0
0.030703,0.0061532,0.023862,-0.0002669,0.0070785,-0.00092889,0,0,0.039248,-0.017306,0,-0.0045415,0,0,0,0.023905,-0.00031025,0.0070785,-2.2962,0.010225,0.021497,3.7559e-07,0.62,0.16,0
0.031495,0.0062421,0.024264,-0.00058822,0.0071028,-0.0013189,0,0,0.040251,-0.018215,0,-0.0064426,0,0,0,0.024347,-0.00067089,0.0071028,-3.1607,0.01026,0.02218,3.9434e-07,0.64,0.16,0
0.032313,0.006378,0.025115,-0.0010344,0.0072242,-0.0015924,0,0,0.042149,-0.01959,0,-0.0077064,0,0,0,0.025231,-0.0011504,0.0072242,-3.5848,0.010435,0.023352,4.3243e-07,0.66,0.16,0
0.033189,0.0065855,0.026058,-0.0012597,0.0074395,-0.0015978,0,0,0.045125,-0.021065,0,-0.0077559,0,0,0,0.026174,-0.0013754,0.0074395,-3.3564,0.010746,0.02437,4.6161e-07,0.68,0.16,0
0.034134,0.0068518,0.026635,-0.00097914,0.0076966,-0.0012507,0,0,0.048142,-0.022,0,-0.0062894,0,0,0,0.026711,-0.0010554,0.0076966,-2.5425,0.011117,0.024589,4.6101e-07,0.7,0.16,0
0.035122,0.0071392,0.027184,-0.00047917,0.0080115,-0.00081379,0,0,0.049849,-0.022076,0,-0.0042317,0,0,0,0.027219,-0.00051365,0.0080115,-1.6529,0.011572,0.024604,4.683e-07,0.72,0.16,0
0.036128,0.0074266,0.027787,-3.0988e-05,0.0083269,-0.00051325,0,0,0.050597,-0.021731,0,-0.0026689,0,0,0,0.027801,-4.4972e-05,0.0083269,-1.0403,0.012028,0.024747,4.8945e-07,0.74,0.16,0
0.037146,0.0077055,0.028224,0.00034108,0.0085696,-0.00034881,0,0,0.051102,-0.021394,0,-0.0018138,0,0,0,0.028231,0.00033451,0.0085696,-0.70627,0.012378,0.024826,5.0483e-07,0.76,0.16,0
0.038172,0.0079666,0.028556,0.00060057,0.008747,-0.00029957,0,0,0.051504,-0.021181,0,-0.0015577,0,0,0,0.028561,0.000596,0.008747,-0.60675,0.012635,0.02491,5.1733e-07,0.78,0.16,0
0.039206,0.0082026,0.028837,0.00072179,0.0088676,-0.00032635,0,0,0.05192,-0.021179,0,-0.001697,0,0,0,0.028842,0.00071683,0.0088676,-0.65873,0.012809,0.025064,5.3029e-07,0.8,0.16,0
0.040249,0.0084094,0.02909,0.00071289,0.0089407,-0.00038078,0,0,0.052387,-0.021392,0,-0.00198,0,0,0,0.029096,0.00070675,0.0089407,-0.76277,0.012914,0.025298,5.4476e-07,0.82,0.16,0
0.041302,0.0085864,0.029321,0.00061274,0.0089802,-0.0004274,0,0,0.052887,-0.021755,0,-0.0022225,0,0,0,0.029328,0.00060557,0.0089802,-0.84749,0.012971,0.025585,5.6027e-07,0.84,0.16,0
0.042364,0.0087351,0.029528,0.00046355,0.0089976,-0.00044864,0,0,0.05338,-0.022189,0,-0.0023329,0,0,0,0.029536,0.00045605,0.0089976,-0.87982,0.012997,0.025889,5.7563e-07,0.86,0.16,0
0.043437,0.0088579,0.029706,0.0002981,0.0090013,-0.00044059,0,0,0.053833,-0.022628,0,-0.0022911,0,0,0,0.029713,0.0002911,0.0090013,-0.85486,0.013002,0.026177,5.8975e-07,0.88,0.16,0
0.044518,0.0089573,0.029852,0.00013775,0.008997,-0.00040593,0,0,0.054224,-0.023034,0,-0.0021108,0,0,0,0.029858,0.00013192,0.008997,-0.78013,0.012996,0.026433,6.0194e-07,0.9,0.16,0
0.045606,0.0090355,0.029967,-4.3096e-06,0.0089888,-0.00034941,0,0,0.054543,-0.023382,0,-0.0018169,0,0,0,0.029971,-8.5994e-06,0.0089888,-0.66619,0.012984,0.026646,6.119e-07,0.92,0.16,0
0.046699,0.0090945,0.030053,-0.00012015,0.0089797,-0.00027605,0,0,0.054789,-0.02366,0,-0.0014355,0,0,0,0.030055,-0.00012286,0.0089797,-0.52306,0.012971,0.026812,6.1955e-07,0.94,0.16,0
0.047797,0.0091356,0.030112,-0.00020521,0.0089719,-0.00019055,0,0,0.054963,-0.02386,0,-0.00099084,0,0,0,0.030113,-0.00020657,0.0089719,-0.35944,0.012959,0.02693,6.2493e-07,0.96,0.16,0
0.048898,0.0091599,0.030146,-0.00025701,0.0089667,-7.8024e-05,0,0,0.055066,-0.023982,0,-0.00040572,0,0,0,0.030147,-0.00025753,0.0089667,-0.14672,0.012952,0.027001,6.2813e-07,0.98,0.16,0
0.049449,0.0091679,0.030157,-0.00027439,0.0089649,-1.0731e-05,0,0,0.0551,-0.024022,0,-5.5799e-05,0,0,0,0.030158,-0.00027465,0.0089649,-0.019929,0.012949,0.027024,6.2919e-07,1,0.16,0
0.00044118,0.00030639,0.029637,0.012014,0.012495,0.0058787,0,0,0.044568,-0.0012511,0,0.030569,0,0,0,0.031423,0.010228,0.012495,16.854,0.018049,0.020161,4.0277e-07,0,0.18,0
0.00089136,0.00061225,0.029721,0.011345,0.01232,0.0058504,0,0,0.045244,-0.0025349,0,0.030422,0,0,0,0.031434,0.0096325,0.01232,16.263,0.017795,0.020595,4.2279e-07,0.02,0.18,0
0.0018098,0.0012212,0.030027,0.010046,0.012022,0.0057568,0,0,0.046813,-0.0051375,0,0.029935,0,0,0,0.031576,0.008497,0.012022,15.003,0.017365,0.021538,4.6723e-07,0.04,0.18,0
0.0027639,0.0018211,0.030449,0.008793,0.011773,0.0055815,0,0,0.048559,-0.0077474,0,0.029024,0,0,0,0.031812,0.0074304,0.011773,13.66,0.017005,0.02253,5.1456e-07,0.06,0.18,0
0.0037521,0.0024043,0.030824,0.0075815,0.011522,0.0053213,0,0,0.050186,-0.010244,0,0.027671,0,0,0,0.031992,0.006413,0.011522,12.324,0.016642,0.023449,5.5757e-07,0.08,0.18,0
0.0047713,0.0029632,0.031133,0.0064584,0.011277,0.0049908,0,0,0.051625,-0.01253,0,0.025952,0,0,0,0.032111,0.00548,0.011277,11.031,0.01629,0.02426,5.943e-07,0.1,0.18,0
0.0058171,0.0034913,0.031368,0.0054545,0.011047,0.0046137,0,0,0.052835,-0.01454,0,0.023991,0,0,0,0.032171,0.0046515,0.011047,9.8149,0.015956,0.024946,6.2384e-07,0.12,0.18,0
0.0068847,0.0039835,0.031528,0.0045844,0.010834,0.0042151,0,0,0.053805,-0.016248,0,0.021919,0,0,0,0.032177,0.0039353,0.010834,8.6983,0.015649,0.025503,6.4614e-07,0.14,0.18,0
0.0079693,0.0044366,0.031618,0.0038497,0.01064,0.0038173,0,0,0.054543,-0.017656,0,0.01985,0,0,0,0.032137,0.0033306,0.01064,7.6943,0.015369,0.025937,6.6174e-07,0.16,0.18,0
0.0090664,0.0048484,0.031649,0.0032446,0.010468,0.0034365,0,0,0.05507,-0.018781,0,0.01787,0,0,0,0.032061,0.0028317,0.010468,6.8063,0.01512,0.026259,6.7143e-07,0.18,0.18,0
0.010172,0.0052182,0.031628,0.0027593,0.010316,0.0030831,0,0,0.055411,-0.019648,0,0.016032,0,0,0,0.031956,0.0024313,0.010316,6.0312,0.014901,0.026478,6.7604e-07,0.2,0.18,0
0.011283,0.0055456,0.031565,0.0023828,0.010184,0.0027622,0,0,0.05559,-0.020284,0,0.014363,0,0,0,0.031826,0.0021218,0.010184,5.3607,0.014711,0.026606,6.7627e-07,0.22,0.18,0
0.012396,0.0058307,0.031466,0.0021042,0.010071,0.0024748,0,0,0.055627,-0.020714,0,0.012869,0,0,0,0.031675,0.0018956,0.010071,4.7836,0.014547,0.026649,6.7265e-07,0.24,0.18,0
0.013508,0.0060738,0.031334,0.001913,0.0099741,0.0022187,0,0,0.055536,-0.020959,0,0.011537,0,0,0,0.031502,0.0017454,0.0099741,4.2864,0.014407,0.026614,6.6552e-07,0.26,0.18,0
0.014617,0.0062749,0.031169,0.0017985,0.0098903,0.0019889,0,0,0.055325,-0.021039,0,0.010342,0,0,0,0.031304,0.0016633,0.0098903,3.853,0.014286,0.026503,6.551e-07,0.28,0.18,0
0.015721,0.0064336,0.030971,0.0017482,0.0098157,0.001778,0,0,0.055003,-0.020976,0,0.0092457,0,0,0,0.03108,0.0016392,0.0098157,3.4643,0.014178,0.026323,6.4153e-07,0.3,0.18,0
0.016817,0.006549,0.030737,0.0017457,0.009745,0.0015762,0,0,0.054581,-0.020798,0,0.0081965,0,0,0,0.030824,0.0016588,0.009745,3.0966,0.014076,0.02608,6.2511e-07,0.32,0.18,0
0.017904,0.0066192,0.030471,0.001766,0.0096712,0.0013721,0,0,0.05408,-0.020553,0,0.0071351,0,0,0,0.030539,0.0016988,0.0096712,2.7227,0.013969,0.025795,6.0659e-07,0.34,0.18,0
0.01898,0.0066419,0.030182,0.0017666,0.0095846,0.0011576,0,0,0.053554,-0.020327,0,0.0060193,0,0,0,0.030231,0.0017174,0.0095846,2.3202,0.013844,0.025507,5.8765e-07,0.36,0.18,0
0.020046,0.0066148,0.029883,0.0016768,0.009468,0.00094083,0,0,0.053079,-0.020257,0,0.0048923,0,0,0,0.029917,0.0016433,0.009468,1.9001,0.013676,0.025286,5.7087e-07,0.38,0.18,0
0.021104,0.0065377,0.029581,0.001416,0.0092992,0.00076521,0,0,0.052733,-0.020496,0,0.0039791,0,0,0,0.029604,0.0013934,0.0092992,1.5473,0.013432,0.025205,5.5867e-07,0.4,0.18,0
0.022156,0.0064153,0.029257,0.00094203,0.0090596,0.00070418,0,0,0.052513,-0.021106,0,0.0036617,0,0,0,0.029276,0.000923,0.0090596,1.4131,0.013086,0.025287,5.5073e-07,0.42,0.18,0
0.023204,0.0062582,0.028899,0.00030979,0.0087628,0.00083636,0,0,0.052355,-0.021978,0,0.0043491,0,0,0,0.028927,0.00028194,0.0087628,1.6525,0.012657,0.025487,5.4547e-07,0.44,0.18,0
0.02425,0.0060799,0.028839,-0.00029594,0.0085628,0.0011778,0,0,0.051509,-0.022484,0,0.0060207,0,0,0,0.028894,-0.00035162,0.0085628,2.2914,0.012369,0.025964,5.7081e-07,0.46,0.18,0
0.025273,0.0059059,0.02905,-0.00080348,0.0084739,0.0015348,0,0,0.047878,-0.021465,0,0.0074178,0,0,0,0.029142,-0.00089528,0.0084739,2.9953,0.01224,0.02662,6.2825e-07,0.48,0.18,0
0.026193,0.0057745,0.028922,-0.00098924,0.0083797,0.0015892,0,0,0.041687,-0.018977,0,0.0071777,0,0,0,0.029027,-0.0010945,0.0083797,3.245,0.012104,0.026681,6.5904e-07,0.5,0.18,0
0.026972,0.0057068,0.028671,-0.00061043,0.0084182,0.0012888,0,0,0.037042,-0.016738,0,0.0056243,0,0,0,0.028754,-0.00069279,0.0084182,2.8422,0.01216,0.026117,6.6333e-07,0.52,0.18,0
0.027687,0.005691,0.028774,-0.00010206,0.0086015,0.00083587,0,0,0.035671,-0.015667,0,0.0036536,0,0,0,0.028816,-0.00014447,0.0086015,1.9554,0.012424,0.025731,6.7819e-07,0.54,0.18,0
0.028399,0.0057028,0.029023,0.00017739,0.00876,0.00036606,0,0,0.03564,-0.015291,0,0.0016396,0,0,0,0.029035,0.00016445,0.00876,0.88936,0.012653,0.025677,6.9831e-07,0.56,0.18,0
0.029113,0.00573,0.02917,0.00028612,0.0088369,-7.447e-05,0,0,0.035691,-0.015174,0,-0.00022707,0,0,0,0.029175,0.00028184,0.0088369,-0.13093,0.012764,0.025707,7.104e-07,0.58,0.18,0
0.029827,0.0057714,0.029172,0.0002523,0.0088272,-0.00048845,0,0,0.035712,-0.01522,0,-0.0019759,0,0,0,0.029185,0.00023865,0.0088272,-1.0901,0.01275,0.025751,7.1191e-07,0.6,0.18,0
0.030541,0.0058278,0.029028,7.3566e-05,0.0087305,-0.00091821,0,0,0.035707,-0.015433,0,-0.0038,0,0,0,0.029069,3.2393e-05,0.0087305,-2.0712,0.012611,0.025813,7.0289e-07,0.62,0.18,0
0.031255,0.0059015,0.028788,-0.00028221,0.0085519,-0.0013625,0,0,0.035794,-0.015916,0,-0.0057124,0,0,0,0.028876,-0.00036956,0.0085519,-3.0465,0.012353,0.025965,6.8613e-07,0.64,0.18,0
0.031973,0.0060067,0.0287,-0.00088385,0.0083448,-0.0017679,0,0,0.037238,-0.01712,0,-0.0075084,0,0,0,0.028835,-0.0010191,0.0083448,-3.7741,0.012054,0.026452,6.748e-07,0.66,0.18,0
0.032757,0.0061692,0.028949,-0.001364,0.0082755,-0.0019923,0,0,0.04196,-0.019526,0,-0.008843,0,0,0,0.029102,-0.0015168,0.0082755,-3.9705,0.011954,0.027088,6.7214e-07,0.68,0.18,0
0.033684,0.0064012,0.029049,-0.001261,0.0083363,-0.0018358,0,0,0.048199,-0.022204,0,-0.0087973,0,0,0,0.029173,-0.0013852,0.0083363,-3.5152,0.012041,0.027042,6.3975e-07,0.7,0.18,0
0.034713,0.0066839,0.028793,-0.00083074,0.0083888,-0.001365,0,0,0.051839,-0.0234,0,-0.0069615,0,0,0,0.028865,-0.00090232,0.0083888,-2.6142,0.012117,0.026379,5.7982e-07,0.72,0.18,0
0.035765,0.0069815,0.028802,-0.0003139,0.0085465,-0.00090434,0,0,0.052665,-0.023037,0,-0.0047026,0,0,0,0.028834,-0.00034591,0.0085465,-1.7575,0.012345,0.025906,5.5293e-07,0.74,0.18,0
0.03682,0.0072701,0.029102,0.00022914,0.0087994,-0.00064104,0,0,0.052787,-0.022283,0,-0.0033334,0,0,0,0.029118,0.00021355,0.0087994,-1.2613,0.01271,0.025711,5.5701e-07,0.76,0.18,0
0.037877,0.0075377,0.029366,0.00061693,0.0089949,-0.00055739,0,0,0.052965,-0.021783,0,-0.0028984,0,0,0,0.029378,0.00060527,0.0089949,-1.1034,0.012993,0.025629,5.6344e-07,0.78,0.18,0
0.038938,0.0077747,0.029605,0.00078553,0.009117,-0.00057621,0,0,0.053268,-0.021662,0,-0.0029963,0,0,0,0.029617,0.0007731,0.009117,-1.1385,0.013169,0.025708,5.7357e-07,0.8,0.18,0
0.040008,0.0079773,0.029838,0.00076681,0.0091815,-0.00062193,0,0,0.053708,-0.021878,0,-0.003234,0,0,0,0.029853,0.00075264,0.0091815,-1.2187,0.013262,0.025934,5.8794e-07,0.82,0.18,0
0.041087,0.0081466,0.030062,0.00063371,0.0092087,-0.00064682,0,0,0.054219,-0.022295,0,-0.0033635,0,0,0,0.030077,0.00061881,0.0092087,-1.2532,0.013301,0.02624,6.0448e-07,0.84,0.18,0
0.042176,0.008286,0.030263,0.00045116,0.0092144,-0.00063699,0,0,0.054727,-0.022784,0,-0.0033123,0,0,0,0.030277,0.00043705,0.0092144,-1.2195,0.01331,0.026563,6.2091e-07,0.86,0.18,0
0.043276,0.0083994,0.030433,0.00025762,0.0092071,-0.00059504,0,0,0.055187,-0.023269,0,-0.0030942,0,0,0,0.030445,0.00024552,0.0092071,-1.1265,0.013299,0.026864,6.357e-07,0.88,0.18,0
0.044384,0.0084903,0.030569,7.4857e-05,0.009193,-0.00052779,0,0,0.055576,-0.023707,0,-0.0027445,0,0,0,0.030578,6.5432e-05,0.009193,-0.98942,0.013279,0.027126,6.4819e-07,0.9,0.18,0
0.045499,0.0085613,0.030673,-8.4372e-05,0.0091766,-0.00044163,0,0,0.055891,-0.024079,0,-0.0022965,0,0,0,0.03068,-9.0965e-05,0.0091766,-0.82125,0.013255,0.027341,6.5822e-07,0.92,0.18,0
0.046619,0.0086145,0.03075,-0.00021274,0.009161,-0.00034183,0,0,0.05613,-0.024372,0,-0.0017775,0,0,0,0.030754,-0.00021675,0.009161,-0.63172,0.013233,0.027508,6.6583e-07,0.94,0.18,0
0.047744,0.0086514,0.030802,-0.00030627,0.0091486,-0.00023269,0,0,0.056298,-0.024583,0,-0.00121,0,0,0,0.030804,-0.00030824,0.0091486,-0.42813,0.013215,0.027625,6.7113e-07,0.96,0.18,0
0.048871,0.0086732,0.030832,-0.00036296,0.0091406,-0.00010058,0,0,0.056397,-0.024709,0,-0.00052301,0,0,0,0.030832,-0.00036366,0.0091406,-0.18453,0.013203,0.027695,6.7426e-07,0.98,0.18,0
0.049436,0.0086804,0.030842,-0.00038193,0.0091379,-2.4893e-05,0,0,0.05643,-0.024752,0,-0.00012944,0,0,0,0.030842,-0.00038223,0.0091379,-0.045452,0.013199,0.027719,6.7529e-07,1,0.18,0
0.00044082,0.00028193,0.029614,0.01203,0.012493,0.0054112,0,0,0.044514,-0.0012047,0,0.028138,0,0,0,0.03115,0.010493,0.012493,15.805,0.018045,0.019737,3.8102e-07,0,0.2,0
0.00089027,0.00056282,0.029696,0.011393,0.012327,0.0053872,0,0,0.045161,-0.0024286,0,0.028013,0,0,0,0.031171,0.0099174,0.012327,15.26,0.017805,0.020163,4.0061e-07,0.02,0.2,0
0.0018064,0.0011214,0.029997,0.010166,0.012049,0.0053094,0,0,0.046664,-0.0048945,0,0.027609,0,0,0,0.031337,0.0088264,0.012049,14.109,0.017404,0.021089,4.4413e-07,0.04,0.2,0
0.0027568,0.0016708,0.030418,0.0089955,0.011824,0.0051687,0,0,0.048345,-0.0073545,0,0.026877,0,0,0,0.031608,0.0078061,0.011824,12.903,0.017079,0.022072,4.9118e-07,0.06,0.2,0
0.0037402,0.0022054,0.030804,0.0078587,0.011599,0.004963,0,0,0.049934,-0.0097245,0,0.025808,0,0,0,0.031839,0.0068243,0.011599,11.717,0.016754,0.023005,5.3552e-07,0.08,0.2,0
0.0047542,0.0027194,0.031141,0.0067914,0.01138,0.0046998,0,0,0.051379,-0.01193,0,0.024439,0,0,0,0.032023,0.0059096,0.01138,10.571,0.016437,0.023855,5.754e-07,0.1,0.2,0
0.0057954,0.0032075,0.03142,0.0058199,0.011172,0.0043941,0,0,0.052644,-0.013915,0,0.022849,0,0,0,0.032158,0.0050814,0.011172,9.4877,0.016137,0.024605,6.0971e-07,0.12,0.2,0
0.00686,0.0036652,0.031637,0.0049596,0.010979,0.0040643,0,0,0.053711,-0.015651,0,0.021134,0,0,0,0.032247,0.0043498,0.010979,8.484,0.015859,0.025245,6.3801e-07,0.14,0.2,0
0.0079439,0.0040893,0.031796,0.0042168,0.010804,0.003728,0,0,0.054579,-0.017126,0,0.019385,0,0,0,0.032294,0.0037183,0.010804,7.5725,0.015605,0.025775,6.6034e-07,0.16,0.2,0
0.0090431,0.0044775,0.0319,0.003591,0.010647,0.0033998,0,0,0.055257,-0.018346,0,0.017679,0,0,0,0.032305,0.0031857,0.010647,6.759,0.015379,0.026199,6.7706e-07,0.18,0.2,0
0.010154,0.0048287,0.031956,0.0030773,0.01051,0.0030906,0,0,0.05576,-0.019325,0,0.016071,0,0,0,0.032285,0.0027482,0.01051,6.0446,0.015181,0.026523,6.8869e-07,0.2,0.2,0
0.011274,0.0051421,0.031971,0.002669,0.010392,0.0028072,0,0,0.056105,-0.02008,0,0.014597,0,0,0,0.032239,0.002401,0.010392,5.4257,0.015011,0.026753,6.9571e-07,0.22,0.2,0
0.012398,0.0054175,0.031948,0.0023586,0.010292,0.0025529,0,0,0.056306,-0.020627,0,0.013275,0,0,0,0.032168,0.0021388,0.010292,4.8961,0.014866,0.026896,6.9853e-07,0.24,0.2,0
0.013526,0.0056546,0.031892,0.0021381,0.010209,0.0023281,0,0,0.056375,-0.020984,0,0.012106,0,0,0,0.032074,0.0019562,0.010209,4.4468,0.014746,0.026956,6.9744e-07,0.26,0.2,0
0.014653,0.0058531,0.031802,0.0019992,0.01014,0.0021302,0,0,0.05632,-0.021167,0,0.011077,0,0,0,0.031954,0.0018471,0.01014,4.0663,0.014647,0.026935,6.9259e-07,0.28,0.2,0
0.015779,0.0060124,0.031676,0.0019319,0.010082,0.0019538,0,0,0.056144,-0.021191,0,0.01016,0,0,0,0.031805,0.0018035,0.010082,3.7393,0.014564,0.026837,6.8405e-07,0.3,0.2,0
0.016899,0.0061307,0.031512,0.0019226,0.01003,0.0017897,0,0,0.055852,-0.02108,0,0.0093064,0,0,0,0.031621,0.0018141,0.01003,3.4445,0.014488,0.026665,6.7185e-07,0.32,0.2,0
0.018013,0.0062057,0.031307,0.0019499,0.009977,0.0016236,0,0,0.055458,-0.020871,0,0.0084427,0,0,0,0.031397,0.0018593,0.009977,3.1498,0.014411,0.026431,6.5634e-07,0.34,0.2,0
0.019117,0.0062329,0.031071,0.001975,0.0099137,0.0014366,0,0,0.055008,-0.020641,0,0.0074703,0,0,0,0.031143,0.0019028,0.0099137,2.8122,0.01432,0.026171,6.3909e-07,0.36,0.2,0
0.020213,0.0062069,0.030833,0.0019127,0.0098238,0.0012205,0,0,0.054625,-0.020569,0,0.0063468,0,0,0,0.030887,0.0018595,0.0098238,2.4053,0.01419,0.025977,6.2422e-07,0.38,0.2,0
0.021302,0.0061234,0.030609,0.001601,0.0096631,0.0010172,0,0,0.05446,-0.020961,0,0.0052896,0,0,0,0.030646,0.0015641,0.0096631,2.0019,0.013958,0.025997,6.1689e-07,0.4,0.2,0
0.022391,0.0059851,0.030416,0.00093851,0.0094064,0.00094842,0,0,0.054625,-0.022017,0,0.0049318,0,0,0,0.030447,0.00090734,0.0094064,1.8338,0.013587,0.026341,6.212e-07,0.42,0.2,0
0.023487,0.005805,0.030641,0.00014968,0.0092371,0.0011,0,0,0.054388,-0.023069,0,0.0056829,0,0,0,0.030684,0.00010667,0.0092371,2.0716,0.013343,0.027188,6.7007e-07,0.44,0.2,0
0.024575,0.0056161,0.031382,-0.00040043,0.0092945,0.0012938,0,0,0.05143,-0.022516,0,0.0064944,0,0,0,0.031447,-0.00046526,0.0092945,2.4104,0.013425,0.028323,7.7375e-07,0.46,0.2,0
0.025574,0.0054758,0.031563,-0.00074423,0.0092457,0.0012027,0,0,0.044687,-0.019877,0,0.0058139,0,0,0,0.031639,-0.00081955,0.0092457,2.3186,0.013355,0.028778,8.2807e-07,0.48,0.2,0
0.026397,0.0054132,0.031545,-0.0008264,0.0092157,0.0008648,0,0,0.037336,-0.016745,0,0.0039744,0,0,0,0.03161,-0.00089101,0.0092157,1.81,0.013312,0.028811,8.2392e-07,0.5,0.2,0
0.027081,0.005398,0.032623,-0.0004064,0.0096648,0.00055552,0,0,0.033415,-0.014769,0,0.0023361,0,0,0,0.032664,-0.00044782,0.0096648,1.2336,0.01396,0.029394,8.7162e-07,0.52,0.2,0
0.027734,0.0053993,0.033887,0.00014202,0.010209,0.00030227,0,0,0.032957,-0.014131,0,0.0012242,0,0,0,0.033906,0.00012304,0.010209,0.69069,0.014746,0.03004,9.4614e-07,0.54,0.2,0
0.028399,0.0054133,0.034552,0.00044216,0.010498,6.023e-05,0,0,0.033459,-0.014068,0,0.00035194,0,0,0,0.034557,0.00043638,0.010498,0.19,0.015164,0.030368,9.9292e-07,0.56,0.2,0
0.029072,0.0054407,0.034864,0.00054391,0.010622,-0.00016557,0,0,0.033714,-0.014082,0,-0.00043401,0,0,0,0.034867,0.00054131,0.010622,-0.26381,0.015343,0.030559,1.0169e-06,0.58,0.2,0
0.029748,0.0054814,0.034854,0.00050362,0.010607,-0.00038774,0,0,0.033722,-0.014118,0,-0.001192,0,0,0,0.034861,0.00049672,0.010607,-0.70219,0.015322,0.03059,1.0177e-06,0.6,0.2,0
0.030421,0.0055359,0.034521,0.00031795,0.010452,-0.00060187,0,0,0.033484,-0.014181,0,-0.0019444,0,0,0,0.034539,0.00029942,0.010452,-1.1354,0.015097,0.030461,9.9514e-07,0.62,0.2,0
0.031087,0.0056055,0.033833,-7.6661e-05,0.010127,-0.00081872,0,0,0.033002,-0.01433,0,-0.002743,0,0,0,0.033873,-0.00011636,0.010127,-1.5884,0.014628,0.030202,9.4956e-07,0.64,0.2,0
0.031741,0.0056909,0.032549,-0.0007433,0.0095416,-0.001024,0,0,0.033502,-0.015094,0,-0.0037543,0,0,0,0.032616,-0.00081019,0.0095416,-2.041,0.013782,0.029642,8.7625e-07,0.66,0.2,0
0.032428,0.005797,0.03146,-0.0012932,0.00905,-0.0012553,0,0,0.037491,-0.017258,0,-0.0052767,0,0,0,0.03155,-0.0013832,0.00905,-2.4683,0.013072,0.029154,8.3027e-07,0.68,0.2,0
0.033255,0.0059555,0.031468,-0.0013227,0.0090437,-0.0014871,0,0,0.044923,-0.020629,0,-0.0069039,0,0,0,0.031565,-0.0014193,0.0090437,-2.7741,0.013063,0.029195,8.3607e-07,0.7,0.2,0
0.034259,0.0062002,0.031269,-0.0010738,0.0090586,-0.0014503,0,0,0.051731,-0.023535,0,-0.0071746,0,0,0,0.031346,-0.0011508,0.0090586,-2.6386,0.013085,0.028784,7.8202e-07,0.72,0.2,0
0.035354,0.0065051,0.030497,-0.00061352,0.0089651,-0.0011202,0,0,0.054719,-0.024318,0,-0.0057678,0,0,0,0.030542,-0.00065802,0.0089651,-2.0642,0.01295,0.027674,6.7794e-07,0.74,0.2,0
0.036456,0.0068141,0.030227,8.3949e-05,0.0090933,-0.00082891,0,0,0.054948,-0.023424,0,-0.0043103,0,0,0,0.030251,6.0289e-05,0.0090933,-1.5661,0.013135,0.02684,6.2868e-07,0.76,0.2,0
0.037552,0.0070953,0.030366,0.00065198,0.0093054,-0.00074987,0,0,0.054758,-0.022499,0,-0.0038993,0,0,0,0.030385,0.00063268,0.0093054,-1.4407,0.013441,0.026503,6.2345e-07,0.78,0.2,0
0.038647,0.0073361,0.030537,0.00086184,0.0094195,-0.00079648,0,0,0.054904,-0.02225,0,-0.0041417,0,0,0,0.030559,0.00083987,0.0094195,-1.5307,0.013606,0.026492,6.2926e-07,0.8,0.2,0
0.039748,0.0075342,0.030724,0.00080117,0.0094575,-0.00084448,0,0,0.055292,-0.022506,0,-0.0043913,0,0,0,0.030748,0.00077679,0.0094575,-1.6097,0.013661,0.026711,6.4264e-07,0.82,0.2,0
0.040858,0.0076946,0.030916,0.00062252,0.0094616,-0.00084607,0,0,0.055782,-0.022982,0,-0.0043996,0,0,0,0.03094,0.00059847,0.0094616,-1.5944,0.013667,0.027023,6.5915e-07,0.84,0.2,0
0.041979,0.0078237,0.031085,0.00040554,0.0094472,-0.00080263,0,0,0.056259,-0.023508,0,-0.0041737,0,0,0,0.031106,0.0003842,0.0094472,-1.4949,0.013646,0.027342,6.75e-07,0.86,0.2,0
0.043109,0.0079271,0.031221,0.00018598,0.009422,-0.00072706,0,0,0.056677,-0.024014,0,-0.0037807,0,0,0,0.031238,0.00016866,0.009422,-1.3397,0.01361,0.02763,6.8875e-07,0.88,0.2,0
0.044246,0.008009,0.031325,-1.6076e-05,0.0093928,-0.00062955,0,0,0.057025,-0.024463,0,-0.0032737,0,0,0,0.031338,-2.9001e-05,0.0093928,-1.1493,0.013567,0.027877,7.0009e-07,0.9,0.2,0
0.04539,0.0080724,0.031404,-0.00018911,0.0093644,-0.0005171,0,0,0.057303,-0.024839,0,-0.0026889,0,0,0,0.031413,-0.00019785,0.0093644,-0.93697,0.013526,0.028078,7.0903e-07,0.92,0.2,0
0.046538,0.0081196,0.03146,-0.0003269,0.00934,-0.00039474,0,0,0.057512,-0.025134,0,-0.0020527,0,0,0,0.031465,-0.00033208,0.00934,-0.71114,0.013491,0.028233,7.1573e-07,0.94,0.2,0
0.04769,0.0081523,0.031498,-0.00042644,0.0093214,-0.00026612,0,0,0.057658,-0.025344,0,-0.0013838,0,0,0,0.0315,-0.00042894,0.0093214,-0.47748,0.013464,0.028341,7.2036e-07,0.96,0.2,0
0.048845,0.0081715,0.031519,-0.00048644,0.0093098,-0.00011877,0,0,0.057744,-0.02547,0,-0.00061761,0,0,0,0.03152,-0.00048732,0.0093098,-0.21256,0.013447,0.028405,7.2306e-07,0.98,0.2,0
0.049422,0.0081779,0.031526,-0.00050648,0.0093058,-3.6912e-05,0,0,0.057772,-0.025512,0,-0.00019194,0,0,0,0.031526,-0.00050682,0.0093058,-0.065876,0.013442,0.028427,7.2395e-07,1,0.2,0
0.00044108,0.00025821,0.029631,0.012055,0.012506,0.0049571,0,0,0.044527,-0.0011732,0,0.025777,0,0,0,0.030938,0.010748,0.012506,14.712,0.018064,0.019374,3.6294e-07,0,0.22,0
0.00089053,0.00051511,0.029713,0.01144,0.012346,0.0049363,0,0,0.045154,-0.0023551,0,0.025669,0,0,0,0.030968,0.010185,0.012346,14.208,0.017833,0.019796,3.8231e-07,0.02,0.22,0
0.0018062,0.0010255,0.030009,0.010266,0.012083,0.0048702,0,0,0.04661,-0.0047232,0,0.025325,0,0,0,0.031153,0.0091227,0.012083,13.153,0.017453,0.020714,4.2531e-07,0.04,0.22,0
0.0027549,0.0015269,0.03043,0.0091563,0.011876,0.0047548,0,0,0.04824,-0.0070707,0,0.024725,0,0,0,0.031451,0.0081351,0.011876,12.063,0.017154,0.021692,4.7218e-07,0.06,0.22,0
0.0037358,0.0020153,0.030823,0.0080786,0.01167,0.0045891,0,0,0.049796,-0.0093388,0,0.023863,0,0,0,0.03172,0.0071814,0.01167,11.006,0.016857,0.022633,5.1739e-07,0.08,0.22,0
0.0047468,0.002486,0.031179,0.0070593,0.011471,0.0043767,0,0,0.051239,-0.011472,0,0.022759,0,0,0,0.031954,0.0062842,0.011471,9.9893,0.01657,0.023512,5.5946e-07,0.1,0.22,0
0.0057853,0.0029347,0.03149,0.0061196,0.011283,0.0041274,0,0,0.052538,-0.013424,0,0.021463,0,0,0,0.032149,0.0054603,0.011283,9.025,0.016297,0.024308,5.9731e-07,0.12,0.22,0
0.0068483,0.0033575,0.031753,0.0052741,0.011108,0.0038543,0,0,0.053676,-0.015168,0,0.020042,0,0,0,0.032306,0.0047206,0.011108,8.1265,0.016045,0.025012,6.303e-07,0.14,0.22,0
0.0079324,0.0037515,0.031967,0.0045308,0.010949,0.0035711,0,0,0.054645,-0.016688,0,0.01857,0,0,0,0.032427,0.0040705,0.010949,7.3042,0.015816,0.02562,6.5823e-07,0.16,0.22,0
0.0090341,0.0041146,0.032135,0.0038923,0.010808,0.0032905,0,0,0.055449,-0.017981,0,0.017111,0,0,0,0.032515,0.0035115,0.010808,6.565,0.015612,0.026132,6.8117e-07,0.18,0.22,0
0.01015,0.0044452,0.032261,0.0033574,0.010685,0.0030228,0,0,0.056096,-0.019053,0,0.015719,0,0,0,0.032576,0.0030428,0.010685,5.9118,0.015435,0.02655,6.9938e-07,0.2,0.22,0
0.011278,0.0047424,0.03235,0.0029229,0.010582,0.0027755,0,0,0.056597,-0.019913,0,0.014433,0,0,0,0.032611,0.002662,0.010582,5.3446,0.015285,0.026879,7.1318e-07,0.22,0.22,0
0.012414,0.0050056,0.032406,0.002584,0.010497,0.0025532,0,0,0.056964,-0.020574,0,0.013277,0,0,0,0.032624,0.002366,0.010497,4.8605,0.015162,0.027123,7.2289e-07,0.24,0.22,0
0.013556,0.0052344,0.032432,0.0023356,0.01043,0.002358,0,0,0.057205,-0.021047,0,0.012262,0,0,0,0.032617,0.0021513,0.01043,4.4541,0.015066,0.027285,7.2875e-07,0.26,0.22,0
0.014702,0.0054282,0.032431,0.0021717,0.010381,0.0021895,0,0,0.05733,-0.021344,0,0.011385,0,0,0,0.032589,0.0020137,0.010381,4.1177,0.014995,0.027369,7.3095e-07,0.28,0.22,0
0.01585,0.005586,0.032401,0.0020853,0.010346,0.0020441,0,0,0.057344,-0.021478,0,0.01063,0,0,0,0.032539,0.0019477,0.010346,3.84,0.014944,0.027376,7.2955e-07,0.3,0.22,0
0.016996,0.0057057,0.032341,0.0020662,0.010322,0.001915,0,0,0.057248,-0.021465,0,0.009958,0,0,0,0.032462,0.0019453,0.010322,3.604,0.01491,0.027309,7.2453e-07,0.32,0.22,0
0.01814,0.0057844,0.032243,0.0020981,0.010302,0.0017884,0,0,0.057046,-0.021331,0,0.0092998,0,0,0,0.032349,0.001992,0.010302,3.381,0.014881,0.027172,7.1578e-07,0.34,0.22,0
0.019278,0.0058163,0.032103,0.0021503,0.010276,0.0016379,0,0,0.056751,-0.021127,0,0.0085173,0,0,0,0.032193,0.0020604,0.010276,3.1165,0.014843,0.02698,7.0361e-07,0.36,0.22,0
0.02041,0.005792,0.031953,0.0021525,0.010232,0.0014277,0,0,0.056476,-0.021006,0,0.0074241,0,0,0,0.032023,0.002083,0.010232,2.7321,0.014779,0.026811,6.9168e-07,0.38,0.22,0
0.021537,0.0056992,0.031858,0.0018455,0.010111,0.0011835,0,0,0.056541,-0.02149,0,0.006154,0,0,0,0.031905,0.0017976,0.010111,2.2554,0.014605,0.026932,6.9205e-07,0.4,0.22,0
0.022671,0.0055347,0.032196,0.0010327,0.0099686,0.001041,0,0,0.056469,-0.022656,0,0.005419,0,0,0,0.032233,0.00099545,0.0099686,1.9408,0.014399,0.027859,7.5335e-07,0.42,0.22,0
0.023804,0.0053322,0.033064,0.0001532,0.0099652,0.0009681,0,0,0.053789,-0.022758,0,0.0050564,0,0,0,0.033105,0.00011261,0.0099652,1.774,0.014394,0.029335,8.8472e-07,0.44,0.22,0
0.024853,0.0051685,0.033351,-0.00031251,0.0099115,0.00068816,0,0,0.047015,-0.020425,0,0.003754,0,0,0,0.033393,-0.00035488,0.0099115,1.3004,0.014317,0.029965,9.5728e-07,0.46,0.22,0
0.025719,0.0050997,0.033002,-0.00054377,0.0097374,0.00019156,0,0,0.039093,-0.017205,0,0.0016153,0,0,0,0.033036,-0.0005776,0.0097374,0.49693,0.014065,0.029825,9.2805e-07,0.48,0.22,0
0.026426,0.0051017,0.033584,-0.00057398,0.0099029,-0.00018961,0,0,0.034061,-0.015054,0,-1.1244e-05,0,0,0,0.033605,-0.00059591,0.0099029,-0.15792,0.014304,0.030347,9.291e-07,0.5,0.22,0
0.027075,0.0051167,0.03492,-0.00019405,0.010418,-0.00031428,0,0,0.032457,-0.014065,0,-0.00069765,0,0,0,0.034933,-0.00020665,0.010418,-0.45182,0.015048,0.031215,9.8715e-07,0.52,0.22,0
0.027721,0.0051257,0.035771,0.0002999,0.010821,-0.00031534,0,0,0.032435,-0.013678,0,-0.00081987,0,0,0,0.035778,0.00029288,0.010821,-0.50664,0.015631,0.031567,1.0309e-06,0.54,0.22,0
0.028372,0.00514,0.036143,0.00057648,0.011016,-0.00028853,0,0,0.032665,-0.013571,0,-0.00075017,0,0,0,0.036147,0.00057252,0.011016,-0.46719,0.015912,0.031671,1.054e-06,0.56,0.22,0
0.029027,0.0051667,0.03633,0.00066168,0.011098,-0.00026715,0,0,0.032803,-0.013567,0,-0.00069458,0,0,0,0.036333,0.00065924,0.011098,-0.43029,0.01603,0.031768,1.0678e-06,0.58,0.22,0
0.029684,0.0052067,0.036308,0.00061414,0.011077,-0.00025617,0,0,0.032801,-0.013601,0,-0.00066605,0,0,0,0.036311,0.00061178,0.011077,-0.40955,0.016,0.031786,1.0674e-06,0.6,0.22,0
0.030339,0.0052606,0.036075,0.00043053,0.010952,-0.00021996,0,0,0.03266,-0.013677,0,-0.00057188,0,0,0,0.036078,0.00042719,0.010952,-0.35065,0.015819,0.031726,1.0527e-06,0.62,0.22,0
0.03099,0.0053283,0.035654,4.2765e-05,0.010709,-0.00016409,0,0,0.032428,-0.013866,0,-0.00042664,0,0,0,0.035659,3.7043e-05,0.010709,-0.26646,0.015468,0.031665,1.0285e-06,0.64,0.22,0
0.031636,0.0054037,0.034752,-0.0005896,0.010249,-0.00012166,0,0,0.032461,-0.014368,0,-0.00045861,0,0,0,0.034764,-0.00060085,0.010249,-0.25749,0.014804,0.03138,9.8394e-07,0.66,0.22,0
0.032285,0.005476,0.033382,-0.001117,0.0096795,-0.00018303,0,0,0.034103,-0.015521,0,-0.0010521,0,0,0,0.033404,-0.0011389,0.0096795,-0.4591,0.013981,0.030604,9.2668e-07,0.68,0.22,0
0.032993,0.0055647,0.032793,-0.0012204,0.0094716,-0.00047098,0,0,0.039208,-0.017898,0,-0.0025062,0,0,0,0.032829,-0.0012572,0.0094716,-0.95443,0.013681,0.030188,9.2877e-07,0.7,0.22,0
0.033863,0.0057314,0.033139,-0.0011281,0.0096032,-0.00083713,0,0,0.04723,-0.021442,0,-0.0042662,0,0,0,0.033184,-0.0011736,0.0096032,-1.5182,0.013871,0.030436,9.6158e-07,0.72,0.22,0
0.034917,0.0060054,0.032844,-0.0007859,0.0096176,-0.0009606,0,0,0.054102,-0.024134,0,-0.004948,0,0,0,0.032883,-0.0008241,0.0096176,-1.7118,0.013892,0.029887,8.9181e-07,0.74,0.22,0
0.036057,0.0063332,0.031962,1.1764e-05,0.0095921,-0.00087476,0,0,0.056834,-0.024292,0,-0.0045494,0,0,0,0.031988,-1.4244e-05,0.0095921,-1.5882,0.013855,0.028444,7.6234e-07,0.76,0.22,0
0.037199,0.0066378,0.031592,0.00074602,0.0097015,-0.0008652,0,0,0.056916,-0.023284,0,-0.004499,0,0,0,0.031617,0.00072149,0.0097015,-1.6049,0.014013,0.027527,7.0136e-07,0.78,0.22,0
0.038334,0.0068847,0.031649,0.00094788,0.0097791,-0.00095803,0,0,0.056862,-0.022961,0,-0.0049818,0,0,0,0.031679,0.00091768,0.0097791,-1.7822,0.014125,0.027426,7.0019e-07,0.8,0.22,0
0.039474,0.0070771,0.031768,0.00081008,0.0097735,-0.0010097,0,0,0.057187,-0.023305,0,-0.0052506,0,0,0,0.031801,0.00077701,0.0097735,-1.8632,0.014117,0.027647,7.1196e-07,0.82,0.22,0
0.040621,0.0072273,0.03189,0.00058393,0.0097423,-0.0009861,0,0,0.057585,-0.023812,0,-0.0051277,0,0,0,0.031921,0.00055273,0.0097423,-1.8009,0.014072,0.027932,7.2569e-07,0.84,0.22,0
0.041777,0.0073457,0.031984,0.00033343,0.0096953,-0.00091414,0,0,0.057951,-0.024341,0,-0.0047535,0,0,0,0.032011,0.00030684,0.0096953,-1.6525,0.014004,0.028207,7.379e-07,0.86,0.22,0
0.042939,0.0074389,0.032054,8.9575e-05,0.0096431,-0.00081341,0,0,0.058269,-0.024839,0,-0.0042297,0,0,0,0.032075,6.8638e-05,0.0096431,-1.4568,0.013929,0.028454,7.4825e-07,0.88,0.22,0
0.044108,0.0075118,0.032106,-0.00012915,0.0095931,-0.00069425,0,0,0.058534,-0.025278,0,-0.0036101,0,0,0,0.032121,-0.00014438,0.0095931,-1.2335,0.013857,0.028666,7.5672e-07,0.9,0.22,0
0.045281,0.0075677,0.032144,-0.00031283,0.0095492,-0.00056357,0,0,0.058745,-0.025641,0,-0.0029306,0,0,0,0.032154,-0.00032292,0.0095492,-0.99484,0.013793,0.028837,7.6335e-07,0.92,0.22,0
0.046457,0.0076091,0.032169,-0.00045701,0.0095136,-0.00042623,0,0,0.058904,-0.025924,0,-0.0022164,0,0,0,0.032175,-0.00046289,0.0095136,-0.74869,0.013742,0.028968,7.6825e-07,0.94,0.22,0
0.047637,0.0076377,0.032185,-0.00056011,0.0094875,-0.00028542,0,0,0.059014,-0.026124,0,-0.0014842,0,0,0,0.032188,-0.00056291,0.0094875,-0.49961,0.013704,0.02906,7.7158e-07,0.96,0.22,0
0.048818,0.0076544,0.032194,-0.00062187,0.0094716,-0.00012986,0,0,0.059078,-0.026243,0,-0.0006753,0,0,0,0.032195,-0.00062283,0.0094716,-0.22685,0.013681,0.029114,7.735e-07,0.98,0.22,0
0.049409,0.0076599,0.032197,-0.00064242,0.0094663,-4.5285e-05,0,0,0.059099,-0.026283,0,-0.00023548,0,0,0,0.032197,-0.00064278,0.0094663,-0.078959,0.013674,0.029132,7.7413e-07,1,0.22,0
0.00044167,0.000235,0.029672,0.012084,0.012527,0.0045122,0,0,0.044577,-0.0011511,0,0.023464,0,0,0,0.030767,0.010989,0.012527,13.581,0.018094,0.019059,3.4755e-07,0,0.24,0
0.00089155,0.00046861,0.029752,0.011486,0.012371,0.004494,0,0,0.04519,-0.0023028,0,0.023369,0,0,0,0.030805,0.010433,0.012371,13.116,0.01787,0.01948,3.6684e-07,0.02,0.24,0
0.0018076,0.00093243,0.030046,0.01035,0.012119,0.0044372,0,0,0.046611,-0.0045989,0,0.023074,0,0,0,0.031006,0.0093897,0.012119,12.149,0.017505,0.020394,4.0958e-07,0.04,0.24,0
0.002756,0.0013879,0.030465,0.0092868,0.011925,0.0043408,0,0,0.048202,-0.0068606,0,0.022572,0,0,0,0.031326,0.0084254,0.011925,11.164,0.017226,0.02137,4.5635e-07,0.06,0.24,0
0.0037357,0.0018319,0.030863,0.0082561,0.011736,0.0042049,0,0,0.049731,-0.0090471,0,0.021865,0,0,0,0.031625,0.0074937,0.011736,10.219,0.016952,0.022318,5.0215e-07,0.08,0.24,0
0.0047452,0.0022606,0.031233,0.0072772,0.011553,0.0040309,0,0,0.051168,-0.011117,0,0.020961,0,0,0,0.031898,0.0066121,0.011553,9.314,0.016688,0.023216,5.4578e-07,0.1,0.24,0
0.0057824,0.0026705,0.031569,0.0063668,0.011381,0.0038252,0,0,0.05249,-0.013036,0,0.019891,0,0,0,0.032141,0.0057947,0.011381,8.4553,0.016439,0.024047,5.8625e-07,0.12,0.24,0
0.0068448,0.0030585,0.031867,0.0055379,0.011222,0.0035972,0,0,0.053679,-0.014778,0,0.018706,0,0,0,0.032354,0.0050516,0.011222,7.6516,0.016209,0.024801,6.2294e-07,0.14,0.24,0
0.0079296,0.0034217,0.032127,0.0047985,0.011078,0.0033578,0,0,0.054729,-0.016326,0,0.017461,0,0,0,0.032537,0.0043889,0.011078,6.9113,0.016001,0.025472,6.5548e-07,0.16,0.24,0
0.0090339,0.0037583,0.03235,0.004153,0.010951,0.0031175,0,0,0.055638,-0.017675,0,0.016211,0,0,0,0.032693,0.00381,0.010951,6.241,0.015818,0.026058,6.8381e-07,0.18,0.24,0
0.010155,0.0040666,0.032539,0.0036027,0.010843,0.0028855,0,0,0.056411,-0.018824,0,0.015005,0,0,0,0.032826,0.0033158,0.010843,5.6447,0.015661,0.026559,7.0802e-07,0.2,0.24,0
0.01129,0.0043456,0.032698,0.0031467,0.010753,0.0026692,0,0,0.057056,-0.019777,0,0.01388,0,0,0,0.032938,0.0029061,0.010753,5.1241,0.015533,0.026979,7.2831e-07,0.22,0.24,0
0.012437,0.0045945,0.032831,0.0027831,0.010684,0.0024737,0,0,0.057581,-0.020543,0,0.012863,0,0,0,0.033034,0.0025797,0.010684,4.6783,0.015433,0.027319,7.4495e-07,0.24,0.24,0
0.013594,0.0048127,0.032942,0.0025092,0.010635,0.0023019,0,0,0.057998,-0.021128,0,0.01197,0,0,0,0.033116,0.0023353,0.010635,4.3037,0.015362,0.027584,7.5819e-07,0.26,0.24,0
0.014757,0.0049994,0.033037,0.0023218,0.010608,0.0021541,0,0,0.058316,-0.021543,0,0.011201,0,0,0,0.033188,0.0021708,0.010608,3.9945,0.015322,0.027777,7.6831e-07,0.28,0.24,0
0.015926,0.0051532,0.033118,0.0022169,0.0106,0.0020279,0,0,0.058545,-0.021797,0,0.010545,0,0,0,0.033251,0.0020839,0.0106,3.7409,0.015312,0.027901,7.7559e-07,0.3,0.24,0
0.017099,0.0052721,0.033189,0.0021888,0.010613,0.0019174,0,0,0.058697,-0.021904,0,0.0099703,0,0,0,0.033308,0.0020702,0.010613,3.5282,0.015331,0.027963,7.8037e-07,0.32,0.24,0
0.018274,0.0053524,0.033255,0.0022285,0.010645,0.0018106,0,0,0.058786,-0.021883,0,0.0094151,0,0,0,0.033361,0.0021227,0.010645,3.3314,0.015376,0.027968,7.8296e-07,0.34,0.24,0
0.01945,0.0053879,0.033313,0.002318,0.010689,0.0016811,0,0,0.058822,-0.021765,0,0.0087418,0,0,0,0.033405,0.0022263,0.010689,3.0991,0.01544,0.027926,7.8361e-07,0.36,0.24,0
0.020627,0.0053667,0.033397,0.0024297,0.010748,0.0014553,0,0,0.058887,-0.021627,0,0.0075676,0,0,0,0.033467,0.002359,0.010748,2.6918,0.015525,0.027877,7.8511e-07,0.38,0.24,0
0.021806,0.0052638,0.033926,0.0022026,0.010839,0.0011803,0,0,0.058598,-0.021866,0,0.0060738,0,0,0,0.033973,0.0021556,0.010839,2.1604,0.015656,0.028487,8.5388e-07,0.4,0.24,0
0.022979,0.0050758,0.034943,0.0013098,0.010876,0.00086428,0,0,0.055904,-0.022048,0,0.0044697,0,0,0,0.034977,0.0012758,0.010876,1.5449,0.015709,0.030075,1.0163e-06,0.42,0.24,0
0.024069,0.0048836,0.035168,0.00036374,0.01066,0.00034887,0,0,0.0491,-0.020477,0,0.0022382,0,0,0,0.035197,0.00033449,0.01066,0.64979,0.015397,0.031018,1.1018e-06,0.44,0.24,0
0.024974,0.0047862,0.034536,-6.3312e-05,0.010342,-0.00020593,0,0,0.04072,-0.017447,0,2.5276e-05,0,0,0,0.03456,-8.6478e-05,0.010342,-0.25879,0.014938,0.030787,1.0454e-06,0.46,0.24,0
0.025706,0.0047839,0.034689,-0.00024796,0.010332,-0.00052287,0,0,0.035091,-0.015221,0,-0.001175,0,0,0,0.034705,-0.00026456,0.010332,-0.77978,0.014924,0.031058,1.0113e-06,0.48,0.24,0
0.026369,0.0048134,0.035522,-0.00031411,0.010562,-0.00062575,0,0,0.033078,-0.014414,0,-0.0015855,0,0,0,0.035534,-0.00032676,0.010562,-0.97399,0.015257,0.031845,1.042e-06,0.5,0.24,0
0.027025,0.0048365,0.035917,-8.6728e-05,0.010749,-0.00063791,0,0,0.032718,-0.014087,0,-0.0016586,0,0,0,0.035928,-9.8234e-05,0.010749,-1.0146,0.015526,0.032013,1.0562e-06,0.52,0.24,0
0.027678,0.0048522,0.035945,0.00029071,0.010871,-0.0005817,0,0,0.032596,-0.013754,0,-0.0015124,0,0,0,0.035955,0.00028089,0.010871,-0.93337,0.015702,0.031733,1.0462e-06,0.54,0.24,0
0.028328,0.0048705,0.035953,0.00055027,0.010951,-0.00045816,0,0,0.032503,-0.013521,0,-0.0011912,0,0,0,0.035959,0.00054394,0.010951,-0.74075,0.015818,0.031528,1.0382e-06,0.56,0.24,0
0.028978,0.004898,0.035959,0.00063658,0.010979,-0.00031312,0,0,0.032475,-0.013445,0,-0.0008141,0,0,0,0.035962,0.00063344,0.010979,-0.50779,0.015858,0.031459,1.0356e-06,0.58,0.24,0
0.029627,0.0049373,0.035931,0.00058104,0.010954,-0.00016292,0,0,0.032471,-0.013484,0,-0.00042359,0,0,0,0.035933,0.00057984,0.010954,-0.26423,0.015822,0.031475,1.0347e-06,0.6,0.24,0
0.030277,0.0049888,0.035869,0.00038064,0.010875,-2.105e-08,0,0,0.032492,-0.013643,0,-5.48e-08,0,0,0,0.03587,0.00037997,0.010875,-0.001062,0.015708,0.031579,1.0356e-06,0.62,0.24,0
0.030927,0.0050508,0.035803,-4.3143e-06,0.01074,0.00015673,0,0,0.032583,-0.013967,0,0.00040749,0,0,0,0.035804,-5.6051e-06,0.01074,0.24872,0.015513,0.031829,1.0421e-06,0.64,0.24,0
0.03158,0.0051174,0.035716,-0.00053006,0.010556,0.00025437,0,0,0.032708,-0.014411,0,0.00066135,0,0,0,0.035718,-0.00053214,0.010556,0.40078,0.015247,0.032173,1.0509e-06,0.66,0.24,0
0.032235,0.0051787,0.035267,-0.00091931,0.010304,0.00028886,0,0,0.033084,-0.014876,0,0.00069401,0,0,0,0.03527,-0.00092325,0.010304,0.43123,0.014884,0.032089,1.0365e-06,0.68,0.24,0
0.032899,0.0052359,0.034406,-0.0010032,0.010021,0.00025248,0,0,0.035141,-0.015865,0,0.00041788,0,0,0,0.034416,-0.0010129,0.010021,0.33574,0.014475,0.031401,1.0078e-06,0.7,0.24,0
0.033633,0.0053291,0.034247,-0.00098417,0.0099787,4.757e-05,0,0,0.040861,-0.018388,0,-0.00048058,0,0,0,0.034265,-0.001003,0.0099787,0.0040876,0.014414,0.03126,1.0463e-06,0.72,0.24,0
0.034541,0.0055281,0.034869,-0.00074712,0.010237,-0.00034206,0,0,0.049366,-0.021852,0,-0.0020884,0,0,0,0.034893,-0.00077116,0.010237,-0.60955,0.014786,0.031632,1.1084e-06,0.74,0.24,0
0.035639,0.0058393,0.034643,8.2374e-05,0.010417,-0.00067254,0,0,0.05628,-0.023828,0,-0.0034795,0,0,0,0.034665,6.0466e-05,0.010417,-1.1661,0.015047,0.030764,1.0281e-06,0.76,0.24,0
0.03682,0.0061639,0.033629,0.00093442,0.010369,-0.00082434,0,0,0.059038,-0.023891,0,-0.0042351,0,0,0,0.033652,0.00091173,0.010369,-1.4662,0.014977,0.029185,8.6757e-07,0.78,0.24,0
0.038008,0.0064176,0.033089,0.0010824,0.010252,-0.00095702,0,0,0.059379,-0.02384,0,-0.0049765,0,0,0,0.033119,0.0010525,0.010252,-1.7184,0.014808,0.0286,7.9867e-07,0.8,0.24,0
0.039195,0.006602,0.032999,0.00082752,0.010148,-0.0010418,0,0,0.059413,-0.024233,0,-0.0054175,0,0,0,0.033033,0.00079351,0.010148,-1.8565,0.014658,0.028729,7.9862e-07,0.82,0.24,0
0.040385,0.0067421,0.032954,0.00054304,0.010049,-0.0010161,0,0,0.059553,-0.024716,0,-0.0052836,0,0,0,0.032986,0.000511,0.010049,-1.7965,0.014515,0.028911,8.0236e-07,0.84,0.24,0
0.041577,0.0068501,0.03292,0.0002514,0.0099515,-0.00094068,0,0,0.059718,-0.02522,0,-0.0048915,0,0,0,0.032947,0.00022412,0.0099515,-1.6501,0.014374,0.029105,8.0696e-07,0.86,0.24,0
0.042773,0.0069335,0.032898,-1.9804e-05,0.0098634,-0.00083418,0,0,0.05989,-0.025696,0,-0.0043377,0,0,0,0.032919,-4.1203e-05,0.0098634,-1.4524,0.014247,0.029292,8.1175e-07,0.88,0.24,0
0.043973,0.0069979,0.032882,-0.00025458,0.0097882,-0.00070801,0,0,0.060044,-0.026111,0,-0.0036816,0,0,0,0.032897,-0.00027001,0.0097882,-1.2249,0.014138,0.029456,8.1598e-07,0.9,0.24,0
0.045175,0.0070467,0.032868,-0.00044666,0.0097264,-0.00057105,0,0,0.060168,-0.02645,0,-0.0029695,0,0,0,0.032878,-0.00045677,0.0097264,-0.98289,0.014049,0.029588,8.1928e-07,0.92,0.24,0
0.04638,0.0070827,0.032856,-0.00059468,0.0096783,-0.00042931,0,0,0.060261,-0.02671,0,-0.0022324,0,0,0,0.032861,-0.00060051,0.0096783,-0.73606,0.01398,0.029688,8.2163e-07,0.94,0.24,0
0.047586,0.0071074,0.032845,-0.00069921,0.0096438,-0.00028613,0,0,0.060324,-0.026892,0,-0.0014879,0,0,0,0.032848,-0.00070196,0.0096438,-0.48925,0.01393,0.029758,8.2315e-07,0.96,0.24,0
0.048793,0.0071218,0.032838,-0.00076133,0.0096231,-0.00013161,0,0,0.06036,-0.027,0,-0.00068436,0,0,0,0.032839,-0.00076226,0.0096231,-0.22468,0.0139,0.029799,8.2399e-07,0.98,0.24,0
0.049396,0.0071266,0.032836,-0.00078193,0.0096162,-4.8769e-05,0,0,0.060371,-0.027035,0,-0.0002536,0,0,0,0.032836,-0.00078227,0.0096162,-0.083164,0.01389,0.029812,8.2426e-07,1,0.24,0
0.0004424,0.00021216,0.029721,0.012114,0.012551,0.0040741,0,0,0.044643,-0.0011345,0,0.021185,0,0,0,0.030623,0.011212,0.012551,12.417,0.018129,0.018781,3.3418e-07,0,0.26,0
0.00089286,0.000423,0.0298,0.011528,0.012399,0.0040581,0,0,0.045245,-0.0022633,0,0.021102,0,0,0,0.030667,0.010661,0.012399,11.991,0.017909,0.019202,3.5346e-07,0.02,0.26,0
0.0018098,0.00084151,0.030092,0.010422,0.012154,0.004009,0,0,0.046638,-0.004504,0,0.020847,0,0,0,0.030884,0.0096297,0.012154,11.108,0.017556,0.020115,3.9608e-07,0.04,0.26,0
0.0027584,0.0012525,0.030509,0.0093949,0.011971,0.0039272,0,0,0.048199,-0.0066984,0,0.020422,0,0,0,0.031222,0.0086824,0.011971,10.22,0.017292,0.021092,4.4278e-07,0.06,0.26,0
0.0037377,0.0016534,0.030911,0.0084021,0.011794,0.0038135,0,0,0.049704,-0.0088187,0,0.01983,0,0,0,0.031545,0.0077683,0.011794,9.3744,0.017036,0.022044,4.8897e-07,0.08,0.26,0
0.0047465,0.0020413,0.031291,0.0074572,0.011625,0.0036683,0,0,0.051134,-0.010835,0,0.019075,0,0,0,0.031848,0.0069007,0.011625,8.5676,0.016791,0.022955,5.3367e-07,0.1,0.26,0
0.0057831,0.0024132,0.031646,0.0065732,0.011466,0.0034957,0,0,0.052469,-0.012721,0,0.018178,0,0,0,0.032129,0.0060909,0.011466,7.8014,0.016562,0.023812,5.7608e-07,0.12,0.26,0
0.0068453,0.0027664,0.031973,0.0057609,0.01132,0.0033027,0,0,0.053697,-0.014454,0,0.017174,0,0,0,0.032386,0.0053476,0.01132,7.0813,0.016351,0.024604,6.1561e-07,0.14,0.26,0
0.007931,0.0030985,0.03227,0.005028,0.01119,0.0030977,0,0,0.05481,-0.01602,0,0.016108,0,0,0,0.032621,0.0046772,0.01119,6.4139,0.016163,0.025325,6.5188e-07,0.16,0.26,0
0.0090377,0.0034076,0.03254,0.0043796,0.011076,0.0028893,0,0,0.055806,-0.01741,0,0.015025,0,0,0,0.032836,0.0040837,0.011076,5.8047,0.015998,0.025972,6.8475e-07,0.18,0.26,0
0.010163,0.0036922,0.032783,0.0038184,0.010981,0.0026857,0,0,0.056687,-0.018621,0,0.013965,0,0,0,0.033032,0.0035695,0.010981,5.2582,0.015861,0.026545,7.1422e-07,0.2,0.26,0
0.011305,0.0039513,0.033005,0.0033457,0.010905,0.0024934,0,0,0.057459,-0.019655,0,0.012966,0,0,0,0.033215,0.0031359,0.010905,4.7765,0.015752,0.027045,7.4043e-07,0.22,0.26,0
0.012462,0.0041839,0.033209,0.0029617,0.010851,0.0023173,0,0,0.05813,-0.020513,0,0.01205,0,0,0,0.033387,0.0027838,0.010851,4.3595,0.015674,0.027473,7.6358e-07,0.24,0.26,0
0.01363,0.0043893,0.0334,0.0026662,0.01082,0.0021601,0,0,0.058709,-0.0212,0,0.011233,0,0,0,0.033553,0.0025139,0.01082,4.0041,0.015629,0.027832,7.8395e-07,0.26,0.26,0
0.01481,0.0045665,0.033586,0.002459,0.010814,0.0020215,0,0,0.059209,-0.021722,0,0.010512,0,0,0,0.033718,0.0023273,0.010814,3.7036,0.01562,0.028125,8.0191e-07,0.28,0.26,0
0.015999,0.0047141,0.033775,0.0023402,0.010835,0.0018979,0,0,0.059646,-0.022086,0,0.0098691,0,0,0,0.033891,0.002225,0.010835,3.4462,0.01565,0.028359,8.1797e-07,0.3,0.26,0
0.017196,0.0048296,0.033981,0.00231,0.010887,0.0017808,0,0,0.060044,-0.022301,0,0.0092599,0,0,0,0.034082,0.002209,0.010887,3.2125,0.015726,0.028541,8.3297e-07,0.32,0.26,0
0.018401,0.004909,0.034225,0.0023696,0.010978,0.0016539,0,0,0.06044,-0.022382,0,0.0086003,0,0,0,0.034312,0.0022823,0.010978,2.9702,0.015857,0.028688,8.4833e-07,0.34,0.26,0
0.019613,0.0049456,0.034543,0.0025256,0.011121,0.0014846,0,0,0.060898,-0.022347,0,0.0077197,0,0,0,0.034614,0.0024539,0.011121,2.6584,0.016063,0.028822,8.6648e-07,0.36,0.26,0
0.020836,0.0049269,0.034988,0.0028003,0.011337,0.0011708,0,0,0.061494,-0.022194,0,0.0060884,0,0,0,0.035038,0.0027504,0.011337,2.0956,0.016375,0.028966,8.9047e-07,0.38,0.26,0
0.022073,0.0048224,0.036105,0.0026212,0.011618,0.00082283,0,0,0.059782,-0.021672,0,0.0041085,0,0,0,0.036135,0.0025914,0.011618,1.4405,0.016781,0.030071,1.0253e-06,0.4,0.26,0
0.023243,0.0046441,0.036963,0.0015639,0.011558,0.00036708,0,0,0.052532,-0.020102,0,0.0019092,0,0,0,0.036987,0.0015396,0.011558,0.60397,0.016695,0.031664,1.2009e-06,0.42,0.26,0
0.024203,0.004502,0.036288,0.0005751,0.011059,-0.00028755,0,0,0.042779,-0.017505,0,-0.00059043,0,0,0,0.036311,0.00055175,0.011059,-0.48405,0.015974,0.03184,1.1803e-06,0.44,0.26,0
0.024961,0.0044673,0.035885,0.0001937,0.010824,-0.00058746,0,0,0.036207,-0.015319,0,-0.0016097,0,0,0,0.035901,0.00017728,0.010824,-0.93783,0.015634,0.031768,1.101e-06,0.46,0.26,0
0.025641,0.0044935,0.036355,-2.5235e-05,0.010899,-0.00052185,0,0,0.033754,-0.01448,0,-0.0013652,0,0,0,0.036365,-3.5302e-05,0.010899,-0.8162,0.015743,0.03235,1.1057e-06,0.48,0.26,0
0.026307,0.0045266,0.03643,-0.0001598,0.010881,-0.0005134,0,0,0.033213,-0.014353,0,-0.0013348,0,0,0,0.036438,-0.00016807,0.010881,-0.80532,0.015717,0.032521,1.1039e-06,0.5,0.26,0
0.026969,0.0045532,0.036212,-5.4821e-05,0.010847,-0.00055688,0,0,0.032975,-0.014173,0,-0.0014479,0,0,0,0.036221,-6.385e-05,0.010847,-0.88008,0.015668,0.032245,1.0809e-06,0.52,0.26,0
0.027626,0.0045756,0.036052,0.00020713,0.010878,-0.00054844,0,0,0.032726,-0.013872,0,-0.0014259,0,0,0,0.03606,0.00019845,0.010878,-0.87621,0.015712,0.031893,1.0582e-06,0.54,0.26,0
0.028278,0.0045992,0.035943,0.00042786,0.010911,-0.00045236,0,0,0.032541,-0.013628,0,-0.0011761,0,0,0,0.035949,0.00042176,0.010911,-0.72912,0.015761,0.031616,1.0413e-06,0.56,0.26,0
0.028928,0.0046289,0.035875,0.00051036,0.010916,-0.00029972,0,0,0.032447,-0.013527,0,-0.00077927,0,0,0,0.035878,0.00050739,0.010916,-0.48545,0.015767,0.031485,1.0323e-06,0.58,0.26,0
0.029576,0.0046673,0.035848,0.00044513,0.010888,-0.00012365,0,0,0.032448,-0.013576,0,-0.00032149,0,0,0,0.035849,0.00044423,0.010888,-0.20069,0.015727,0.031509,1.0318e-06,0.6,0.26,0
0.030226,0.0047149,0.035861,0.00022957,0.010827,4.9151e-05,0,0,0.032544,-0.013777,0,0.00012779,0,0,0,0.035862,0.0002291,0.010827,0.077909,0.015639,0.031692,1.0398e-06,0.62,0.26,0
0.030878,0.0047696,0.035912,-0.00013238,0.010734,0.00018228,0,0,0.032731,-0.014126,0,0.00047392,0,0,0,0.035913,-0.00013354,0.010734,0.28889,0.015504,0.032027,1.0556e-06,0.64,0.26,0
0.031535,0.0048272,0.036007,-0.00054797,0.010638,0.00023721,0,0,0.03298,-0.014541,0,0.00061674,0,0,0,0.036009,-0.0005497,0.010638,0.37194,0.015366,0.032445,1.077e-06,0.66,0.26,0
0.032197,0.0048824,0.036154,-0.0008186,0.010601,0.00023937,0,0,0.033219,-0.014845,0,0.00062236,0,0,0,0.036156,-0.00082073,0.010601,0.37222,0.015312,0.032793,1.0988e-06,0.68,0.26,0
0.032864,0.0049329,0.036025,-0.00085032,0.010552,0.0002918,0,0,0.033778,-0.015117,0,0.0007591,0,0,0,0.036029,-0.00085462,0.010552,0.4485,0.015242,0.032708,1.1009e-06,0.7,0.26,0
0.033544,0.0049923,0.035536,-0.00081188,0.010417,0.00042957,0,0,0.036301,-0.016191,0,0.0011939,0,0,0,0.035548,-0.0008231,0.010417,0.67753,0.015047,0.032255,1.1e-06,0.72,0.26,0
0.034305,0.0051194,0.035924,-0.0006769,0.010574,0.00027308,0,0,0.042999,-0.018797,0,0.00066778,0,0,0,0.035943,-0.0006956,0.010574,0.46333,0.015274,0.03251,1.1864e-06,0.74,0.26,0
0.035271,0.0053707,0.036587,0.00012479,0.011013,-0.00018193,0,0,0.052889,-0.021919,0,-0.00096313,0,0,0,0.036604,0.00010741,0.011013,-0.27002,0.015908,0.032463,1.2143e-06,0.76,0.26,0
0.03645,0.0056798,0.035757,0.0011693,0.011078,-0.00045353,0,0,0.060254,-0.02388,0,-0.0022136,0,0,0,0.035771,0.0011552,0.011078,-0.76663,0.016001,0.030882,1.0434e-06,0.78,0.26,0
0.037697,0.0059312,0.034674,0.0013287,0.010801,-0.00066602,0,0,0.062071,-0.024628,0,-0.0034633,0,0,0,0.034693,0.0013099,0.010801,-1.1582,0.015601,0.029794,9.105e-07,0.8,0.26,0
0.038932,0.0061077,0.034256,0.00091526,0.010551,-0.00086654,0,0,0.061631,-0.025054,0,-0.004506,0,0,0,0.03428,0.00089084,0.010551,-1.4959,0.015241,0.029759,8.8979e-07,0.82,0.26,0
0.040162,0.0062387,0.033984,0.00053213,0.010355,-0.00090802,0,0,0.061436,-0.025539,0,-0.0047217,0,0,0,0.03401,0.00050679,0.010355,-1.5586,0.014957,0.029824,8.7951e-07,0.84,0.26,0
0.04139,0.0063368,0.033814,0.00017712,0.010197,-0.00086981,0,0,0.061403,-0.026052,0,-0.004523,0,0,0,0.033837,0.00015422,0.010197,-1.4839,0.014729,0.029952,8.7593e-07,0.86,0.26,0
0.042618,0.006411,0.0337,-0.00012889,0.010071,-0.00078079,0,0,0.061435,-0.026521,0,-0.0040601,0,0,0,0.033719,-0.00014728,0.010071,-1.3243,0.014548,0.030088,8.7502e-07,0.88,0.26,0
0.043847,0.0064673,0.033615,-0.00038057,0.0099704,-0.00066367,0,0,0.061477,-0.026913,0,-0.0034511,0,0,0,0.033629,-0.00039389,0.0099704,-1.1202,0.014402,0.030205,8.7463e-07,0.9,0.26,0
0.045077,0.0065097,0.033547,-0.00057964,0.0098903,-0.00053379,0,0,0.061509,-0.027222,0,-0.0027757,0,0,0,0.033556,-0.00058833,0.0098903,-0.89762,0.014286,0.030296,8.7413e-07,0.92,0.26,0
0.046308,0.0065407,0.033494,-0.00072957,0.0098294,-0.00039974,0,0,0.061528,-0.027453,0,-0.0020787,0,0,0,0.033499,-0.00073455,0.0098294,-0.67034,0.014198,0.030363,8.7348e-07,0.94,0.26,0
0.047538,0.006562,0.033455,-0.00083385,0.0097864,-0.00026549,0,0,0.061539,-0.027613,0,-0.0013806,0,0,0,0.033458,-0.00083619,0.0097864,-0.44439,0.014136,0.030408,8.7286e-07,0.96,0.26,0
0.048769,0.0065744,0.033432,-0.00089526,0.0097609,-0.00012258,0,0,0.061544,-0.027706,0,-0.00063743,0,0,0,0.033432,-0.00089604,0.0097609,-0.20497,0.014099,0.030433,8.7242e-07,0.98,0.26,0
0.049385,0.0065785,0.033424,-0.00091553,0.0097524,-4.6563e-05,0,0,0.061545,-0.027737,0,-0.00024213,0,0,0,0.033424,-0.00091581,0.0097524,-0.077816,0.014087,0.030441,8.7227e-07,1,0.26,0
0.00044309,0.00018962,0.029768,0.012142,0.012573,0.0036413,0,0,0.044707,-0.0011205,0,0.018935,0,0,0,0.030495,0.011414,0.012573,11.225,0.018161,0.018532,3.2237e-07,0,0.28,0
0.00089413,0.00037808,0.029846,0.011566,0.012424,0.0036274,0,0,0.045299,-0.0022303,0,0.018862,0,0,0,0.030546,0.010866,0.012424,10.838,0.017945,0.018954,3.4165e-07,0.02,0.28,0
0.001812,0.00075227,0.030135,0.010483,0.012186,0.0035849,0,0,0.046669,-0.0044258,0,0.018641,0,0,0,0.030775,0.009844,0.012186,10.04,0.017601,0.019868,3.8419e-07,0.04,0.28,0
0.0027609,0.00112,0.030551,0.0094863,0.012011,0.0035146,0,0,0.048204,-0.0065649,0,0.018276,0,0,0,0.031127,0.00891,0.012011,9.2421,0.01735,0.020844,4.3078e-07,0.06,0.28,0
0.0037401,0.0014791,0.030955,0.0085248,0.011844,0.0034176,0,0,0.049688,-0.0086295,0,0.017771,0,0,0,0.031469,0.0080108,0.011844,8.4871,0.017108,0.021799,4.7714e-07,0.08,0.28,0
0.0047484,0.0018272,0.031343,0.007609,0.011685,0.0032936,0,0,0.051109,-0.010599,0,0.017127,0,0,0,0.031796,0.007156,0.011685,7.7673,0.016879,0.022718,5.2253e-07,0.1,0.28,0
0.0057844,0.0021617,0.031712,0.0067486,0.011538,0.0031455,0,0,0.052452,-0.012453,0,0.016356,0,0,0,0.032106,0.0063544,0.011538,7.0822,0.016666,0.023593,5.6629e-07,0.12,0.28,0
0.0068465,0.0024803,0.03206,0.0059525,0.011404,0.0029785,0,0,0.053707,-0.014173,0,0.015488,0,0,0,0.032399,0.0056136,0.011404,6.435,0.016472,0.024413,6.0793e-07,0.14,0.28,0
0.0079327,0.0027809,0.032388,0.0052278,0.011285,0.0027992,0,0,0.054868,-0.015748,0,0.014556,0,0,0,0.032676,0.0049392,0.011285,5.8307,0.0163,0.025173,6.471e-07,0.16,0.28,0
0.0090412,0.0030619,0.032695,0.0045795,0.011182,0.0026147,0,0,0.055933,-0.017167,0,0.013596,0,0,0,0.032939,0.0043358,0.011182,5.2742,0.016152,0.025869,6.8363e-07,0.18,0.28,0
0.01017,0.0033217,0.032984,0.0040116,0.011099,0.0024317,0,0,0.056903,-0.018427,0,0.012645,0,0,0,0.033189,0.0038066,0.011099,4.7695,0.016032,0.026501,7.1749e-07,0.2,0.28,0
0.011317,0.0035594,0.033259,0.0035265,0.011036,0.002256,0,0,0.057781,-0.019524,0,0.011731,0,0,0,0.033432,0.0033543,0.011036,4.3187,0.01594,0.027067,7.4876e-07,0.22,0.28,0
0.012481,0.003774,0.033524,0.0031267,0.010995,0.0020917,0,0,0.058575,-0.020458,0,0.010877,0,0,0,0.033669,0.0029816,0.010995,3.9219,0.015882,0.027569,7.7759e-07,0.24,0.28,0
0.01366,0.0039647,0.033784,0.0028144,0.01098,0.0019407,0,0,0.059292,-0.021229,0,0.010092,0,0,0,0.033907,0.0026917,0.01098,3.5754,0.015859,0.028007,8.042e-07,0.26,0.28,0
0.014853,0.0041305,0.034046,0.0025932,0.010992,0.0018015,0,0,0.059941,-0.021836,0,0.0093678,0,0,0,0.034151,0.0024887,0.010992,3.2709,0.015877,0.028382,8.2889e-07,0.28,0.28,0
0.016058,0.0042698,0.03432,0.0024678,0.011036,0.0016676,0,0,0.060538,-0.022278,0,0.0086714,0,0,0,0.034409,0.002379,0.011036,2.9924,0.015941,0.028698,8.5209e-07,0.3,0.28,0
0.017274,0.0043801,0.034622,0.0024458,0.01112,0.0015252,0,0,0.061103,-0.022553,0,0.0079309,0,0,0,0.034696,0.0023716,0.01112,2.7119,0.016062,0.028959,8.7451e-07,0.32,0.28,0
0.018502,0.0044571,0.034975,0.0025402,0.011254,0.0013487,0,0,0.061672,-0.022657,0,0.0070132,0,0,0,0.035033,0.0024813,0.011254,2.3816,0.016256,0.029172,8.9742e-07,0.34,0.28,0
0.019741,0.004494,0.035417,0.0027789,0.011459,0.0010912,0,0,0.062292,-0.022568,0,0.0056741,0,0,0,0.035459,0.0027375,0.011459,1.917,0.016552,0.029349,9.2262e-07,0.36,0.28,0
0.020994,0.0044789,0.035946,0.0032205,0.01175,0.00066688,0,0,0.06291,-0.022177,0,0.0034678,0,0,0,0.035969,0.0031976,0.01175,1.1658,0.016972,0.029443,9.4766e-07,0.38,0.28,0
0.022258,0.0043927,0.036624,0.0030882,0.011914,0.00021144,0,0,0.059725,-0.020768,0,0.0010025,0,0,0,0.036637,0.0030757,0.011914,0.34269,0.017209,0.030148,1.0218e-06,0.4,0.28,0
0.02339,0.0042635,0.036867,0.0017972,0.011599,-0.00018946,0,0,0.049236,-0.017998,0,-0.00073734,0,0,0,0.036882,0.001782,0.011599,-0.35881,0.016754,0.031399,1.1126e-06,0.42,0.28,0
0.024237,0.0041813,0.036562,0.00060975,0.011152,-0.00046472,0,0,0.038335,-0.015424,0,-0.001461,0,0,0,0.036578,0.00059359,0.011152,-0.782,0.016108,0.032053,1.1253e-06,0.44,0.28,0
0.024921,0.0041768,0.036617,0.00020688,0.011047,-0.00037189,0,0,0.033955,-0.014381,0,-0.0010412,0,0,0,0.036625,0.00019841,0.011047,-0.59579,0.015957,0.032395,1.12e-06,0.46,0.28,0
0.02559,0.0042062,0.036686,1.7093e-05,0.011011,-0.00022433,0,0,0.033378,-0.014292,0,-0.00058326,0,0,0,0.036689,1.4141e-05,0.011011,-0.34879,0.015905,0.032599,1.121e-06,0.48,0.28,0
0.026256,0.0042393,0.036434,-7.8649e-05,0.010907,-0.00028916,0,0,0.033186,-0.014281,0,-0.00075181,0,0,0,0.036437,-8.1717e-05,0.010907,-0.45295,0.015754,0.032451,1.101e-06,0.5,0.28,0
0.026918,0.0042696,0.036229,2.1183e-07,0.010869,-0.00038512,0,0,0.032968,-0.014129,0,-0.0010013,0,0,0,0.036234,-4.4092e-06,0.010869,-0.60889,0.015699,0.032209,1.0801e-06,0.52,0.28,0
0.027575,0.0042973,0.036072,0.00016792,0.010872,-0.00042019,0,0,0.03276,-0.013915,0,-0.0010925,0,0,0,0.036078,0.00016271,0.010872,-0.6703,0.015704,0.031937,1.0609e-06,0.54,0.28,0
0.028228,0.0043254,0.035955,0.0003128,0.01088,-0.00037244,0,0,0.032597,-0.013738,0,-0.00096835,0,0,0,0.035959,0.00030865,0.01088,-0.59841,0.015716,0.031715,1.0458e-06,0.56,0.28,0
0.028879,0.004357,0.035883,0.00036245,0.010874,-0.0002597,0,0,0.032512,-0.013665,0,-0.00067522,0,0,0,0.035886,0.00036025,0.010874,-0.41891,0.015707,0.031608,1.0377e-06,0.58,0.28,0
0.029529,0.0043943,0.035862,0.00028632,0.010845,-0.000117,0,0,0.032523,-0.013726,0,-0.00030419,0,0,0,0.035863,0.00028561,0.010845,-0.1889,0.015664,0.031648,1.0381e-06,0.6,0.28,0
0.03018,0.0044377,0.03589,8.2547e-05,0.010792,1.801e-05,0,0,0.032628,-0.013922,0,4.6826e-05,0,0,0,0.03589,8.228e-05,0.010792,0.028129,0.015588,0.031834,1.0469e-06,0.62,0.28,0
0.030834,0.0044858,0.035958,-0.00022137,0.010721,0.00010817,0,0,0.032808,-0.014225,0,0.00028123,0,0,0,0.035959,-0.00022186,0.010721,0.1709,0.015486,0.032138,1.0624e-06,0.64,0.28,0
0.031492,0.0045358,0.036053,-0.00055379,0.01065,0.00013058,0,0,0.033024,-0.014565,0,0.00033951,0,0,0,0.036053,-0.00055445,0.01065,0.2044,0.015383,0.032489,1.0811e-06,0.66,0.28,0
0.032155,0.0045849,0.036174,-0.00080059,0.010612,9.7152e-05,0,0,0.03323,-0.014836,0,0.0002526,0,0,0,0.036174,-0.0008011,0.010612,0.15048,0.015328,0.032794,1.0997e-06,0.68,0.28,0
0.032821,0.0046328,0.036325,-0.00087297,0.010636,8.2825e-05,0,0,0.033396,-0.014961,0,0.00021535,0,0,0,0.036326,-0.00087409,0.010636,0.12691,0.015363,0.032988,1.116e-06,0.7,0.28,0
0.033491,0.004685,0.036194,-0.00086365,0.010599,0.00026954,0,0,0.033992,-0.01521,0,0.00077777,0,0,0,0.0362,-0.00086988,0.010599,0.42836,0.01531,0.032872,1.1151e-06,0.72,0.28,0
0.034176,0.0047737,0.036114,-0.00074899,0.010609,0.00044033,0,0,0.038488,-0.01665,0,0.0014895,0,0,0,0.036128,-0.00076355,0.010609,0.73619,0.015325,0.032739,1.1266e-06,0.74,0.28,0
0.035027,0.0049534,0.036392,0.00016495,0.010967,0.0003343,0,0,0.049545,-0.01989,0,0.0015422,0,0,0,0.036409,0.00014883,0.010967,0.60345,0.015842,0.032277,1.1227e-06,0.76,0.28,0
0.036168,0.005204,0.036193,0.001464,0.011297,0.00013358,0,0,0.06017,-0.023149,0,0.00079833,0,0,0,0.036203,0.0014535,0.011297,0.25438,0.016318,0.031041,1.0406e-06,0.78,0.28,0
0.037442,0.0054325,0.035605,0.0016714,0.011183,-0.00019778,0,0,0.063497,-0.02473,0,-0.0010284,0,0,0,0.035613,0.0016632,0.011183,-0.33264,0.016153,0.030332,9.719e-07,0.8,0.28,0
0.038707,0.0055999,0.035149,0.0010861,0.010871,-0.00055039,0,0,0.063124,-0.02544,0,-0.002862,0,0,0,0.035161,0.0010743,0.010871,-0.92763,0.015702,0.030397,9.5375e-07,0.82,0.28,0
0.039967,0.0057205,0.034805,0.00055374,0.010608,-0.0007041,0,0,0.062914,-0.02614,0,-0.0036613,0,0,0,0.034821,0.00053827,0.010608,-1.1804,0.015322,0.030521,9.4271e-07,0.84,0.28,0
0.041224,0.005808,0.034581,0.00011762,0.01041,-0.00072014,0,0,0.062846,-0.026759,0,-0.0037447,0,0,0,0.034597,0.00010198,0.01041,-1.2001,0.015036,0.030669,9.3759e-07,0.86,0.28,0
0.042481,0.0058727,0.034411,-0.00022681,0.010255,-0.0006589,0,0,0.062804,-0.027253,0,-0.0034263,0,0,0,0.034424,-0.00023986,0.010255,-1.0926,0.014813,0.030788,9.3337e-07,0.88,0.28,0
0.043736,0.0059214,0.034268,-0.00049527,0.010132,-0.00056191,0,0,0.062755,-0.027631,0,-0.0029219,0,0,0,0.034278,-0.00050481,0.010132,-0.92837,0.014635,0.030871,9.2898e-07,0.9,0.28,0
0.044991,0.0059579,0.034151,-0.00070003,0.010035,-0.00045103,0,0,0.062701,-0.027912,0,-0.0023454,0,0,0,0.034157,-0.00070625,0.010035,-0.7433,0.014495,0.030925,9.2471e-07,0.92,0.28,0
0.046244,0.0059846,0.034058,-0.00085044,0.0099624,-0.0003366,0,0,0.06265,-0.028113,0,-0.0017503,0,0,0,0.034062,-0.00085398,0.0099624,-0.55377,0.01439,0.030959,9.2099e-07,0.94,0.28,0
0.047497,0.0060029,0.033992,-0.00095332,0.0099115,-0.00022284,0,0,0.062608,-0.028249,0,-0.0011588,0,0,0,0.033993,-0.00095497,0.0099115,-0.36622,0.014317,0.030979,9.1813e-07,0.96,0.28,0
0.048749,0.0060136,0.033951,-0.0010133,0.0098814,-0.00010241,0,0,0.062582,-0.028326,0,-0.00053253,0,0,0,0.033952,-0.0010138,0.0098814,-0.16822,0.014273,0.03099,9.1635e-07,0.98,0.28,0
0.049374,0.0060171,0.033938,-0.001033,0.0098715,-3.8427e-05,0,0,0.062573,-0.028352,0,-0.00019982,0,0,0,0.033938,-0.0010332,0.0098715,-0.063126,0.014259,0.030993,9.1574e-07,1,0.28,0
0.00044362,0.00016734,0.029804,0.012165,0.012591,0.0032134,0,0,0.044754,-0.0011069,0,0.01671,0,0,0,0.030376,0.011593,0.012591,10.009,0.018186,0.018308,3.1181e-07,0,0.3,0
0.00089509,0.00033378,0.029882,0.011598,0.012444,0.0032014,0,0,0.045338,-0.0021995,0,0.016647,0,0,0,0.030432,0.011048,0.012444,9.6628,0.017974,0.01873,3.3106e-07,0.02,0.3,0
0.0018135,0.00066448,0.030168,0.010537,0.012211,0.0031647,0,0,0.046687,-0.0043546,0,0.016456,0,0,0,0.030671,0.010034,0.012211,8.9506,0.017639,0.019644,3.7344e-07,0.04,0.3,0
0.0027626,0.00098993,0.030581,0.0095649,0.012044,0.0031038,0,0,0.048198,-0.0064454,0,0.01614,0,0,0,0.031035,0.0091111,0.012044,8.2411,0.017397,0.020618,4.1981e-07,0.06,0.3,0
0.0037414,0.0013083,0.030985,0.0086304,0.011885,0.0030192,0,0,0.049661,-0.0084611,0,0.0157,0,0,0,0.03139,0.0082252,0.011885,7.5693,0.017167,0.021572,4.6614e-07,0.08,0.3,0
0.004749,0.0016174,0.031377,0.00774,0.011735,0.0029105,0,0,0.05107,-0.010388,0,0.015135,0,0,0,0.031735,0.0073827,0.011735,6.9273,0.016951,0.022496,5.1184e-07,0.1,0.3,0
0.0057842,0.0019151,0.031756,0.0069012,0.011597,0.0027801,0,0,0.052414,-0.01221,0,0.014456,0,0,0,0.032067,0.0065902,0.011597,6.3134,0.016752,0.023381,5.5644e-07,0.12,0.3,0
0.0068456,0.0021995,0.032121,0.006121,0.011473,0.0026317,0,0,0.053686,-0.013914,0,0.013685,0,0,0,0.032388,0.0058538,0.011473,5.7296,0.016571,0.02422,5.9951e-07,0.14,0.3,0
0.0079316,0.0024686,0.032471,0.0054056,0.011363,0.0024707,0,0,0.054881,-0.015489,0,0.012848,0,0,0,0.032698,0.0051788,0.011363,5.1797,0.016413,0.025008,6.4078e-07,0.16,0.3,0
0.0090408,0.0027209,0.032807,0.0047601,0.01127,0.0023027,0,0,0.055997,-0.016926,0,0.011974,0,0,0,0.032998,0.0045695,0.01127,4.6677,0.016279,0.025742,6.8008e-07,0.18,0.3,0
0.010172,0.0029551,0.033133,0.0041889,0.011196,0.0021333,0,0,0.057034,-0.01822,0,0.011093,0,0,0,0.033292,0.0040299,0.011196,4.1973,0.016173,0.026418,7.1736e-07,0.2,0.3,0
0.011322,0.0031703,0.03345,0.0036957,0.011144,0.0019675,0,0,0.057996,-0.019365,0,0.010231,0,0,0,0.033582,0.0035638,0.011144,3.7707,0.016096,0.027037,7.5265e-07,0.22,0.3,0
0.012491,0.0033656,0.033762,0.0032846,0.011114,0.0018087,0,0,0.058885,-0.020357,0,0.0094052,0,0,0,0.033871,0.0031754,0.011114,3.3878,0.016054,0.027597,7.8603e-07,0.24,0.3,0
0.013678,0.0035401,0.034075,0.0029606,0.011111,0.0016582,0,0,0.059707,-0.02119,0,0.0086225,0,0,0,0.034165,0.0028704,0.011111,3.0451,0.016049,0.028096,8.1756e-07,0.26,0.3,0
0.01488,0.0036931,0.034391,0.0027307,0.011137,0.0015135,0,0,0.060462,-0.021855,0,0.0078703,0,0,0,0.034466,0.0026565,0.011137,2.7337,0.016086,0.02853,8.4725e-07,0.28,0.3,0
0.016096,0.0038229,0.034717,0.0026056,0.011197,0.0013667,0,0,0.061153,-0.022337,0,0.0071069,0,0,0,0.034778,0.0025454,0.011197,2.4355,0.016173,0.028895,8.7499e-07,0.3,0.3,0
0.017326,0.0039274,0.035058,0.002601,0.011298,0.0012009,0,0,0.061777,-0.022612,0,0.0062448,0,0,0,0.035105,0.0025542,0.011298,2.1185,0.016319,0.029179,9.0042e-07,0.32,0.3,0
0.018567,0.0040028,0.035418,0.0027414,0.011448,0.00098645,0,0,0.062322,-0.022636,0,0.0051295,0,0,0,0.03545,0.0027086,0.011448,1.7287,0.016536,0.029364,9.227e-07,0.34,0.3,0
0.019819,0.0040429,0.035783,0.0030671,0.011655,0.00067801,0,0,0.062733,-0.022329,0,0.0035257,0,0,0,0.035801,0.0030488,0.011655,1.1839,0.016835,0.02941,9.3904e-07,0.36,0.3,0
0.021076,0.0040399,0.03608,0.0036615,0.011923,0.00024099,0,0,0.06281,-0.021479,0,0.0012532,0,0,0,0.036088,0.003654,0.011923,0.41377,0.017221,0.029193,9.4028e-07,0.38,0.3,0
0.022331,0.0039896,0.036173,0.0036422,0.011945,-0.00020968,0,0,0.058856,-0.019542,0,-0.00099619,0,0,0,0.03618,0.0036359,0.011945,-0.38493,0.017253,0.029307,9.4212e-07,0.4,0.3,0
0.023431,0.0039216,0.03616,0.0021131,0.011482,-0.0004473,0,0,0.04763,-0.016731,0,-0.0018429,0,0,0,0.03617,0.0021033,0.011482,-0.78043,0.016585,0.03052,9.9001e-07,0.42,0.3,0
0.024236,0.0038863,0.03622,0.00050944,0.011019,-0.00036801,0,0,0.036631,-0.014685,0,-0.0012009,0,0,0,0.036227,0.00050201,0.011019,-0.6081,0.015916,0.031817,1.057e-06,0.44,0.3,0
0.024896,0.0038937,0.036248,3.8945e-05,0.010886,-0.00014534,0,0,0.03297,-0.014101,0,-0.00037789,0,0,0,0.03625,3.6896e-05,0.010886,-0.22886,0.015724,0.03219,1.0807e-06,0.46,0.3,0
0.025555,0.0039219,0.036212,2.4232e-05,0.010871,-6.8592e-05,0,0,0.032943,-0.014101,0,-0.00017834,0,0,0,0.036212,2.3934e-05,0.010871,-0.10817,0.015702,0.032167,1.0776e-06,0.48,0.3,0
0.026214,0.0039553,0.03617,1.9539e-05,0.010857,-0.00015391,0,0,0.032907,-0.014088,0,-0.00040016,0,0,0,0.036171,1.8582e-05,0.010857,-0.24355,0.015682,0.032134,1.0738e-06,0.5,0.3,0
0.026871,0.003988,0.036103,7.2845e-05,0.010853,-0.00025608,0,0,0.032825,-0.014014,0,-0.00066581,0,0,0,0.036105,7.0792e-05,0.010853,-0.40708,0.015676,0.032034,1.0663e-06,0.52,0.3,0
0.027527,0.004019,0.036025,0.00016148,0.010856,-0.00030904,0,0,0.03272,-0.013903,0,-0.0008035,0,0,0,0.036028,0.00015869,0.010856,-0.4936,0.015681,0.031896,1.0566e-06,0.54,0.3,0
0.02818,0.0040497,0.035955,0.00023401,0.010857,-0.00029336,0,0,0.032628,-0.01381,0,-0.00076274,0,0,0,0.035958,0.00023149,0.010857,-0.47045,0.015682,0.031775,1.0481e-06,0.56,0.3,0
0.028832,0.0040823,0.035909,0.00024023,0.010845,-0.0002217,0,0,0.032584,-0.013786,0,-0.00057642,0,0,0,0.035911,0.00023871,0.010845,-0.3562,0.015665,0.031728,1.0437e-06,0.58,0.3,0
0.029483,0.0041183,0.035897,0.00015296,0.010815,-0.00012214,0,0,0.032607,-0.013861,0,-0.00031756,0,0,0,0.035898,0.00015238,0.010815,-0.19609,0.015622,0.031785,1.0453e-06,0.6,0.3,0
0.030136,0.004158,0.035918,-2.9225e-05,0.010767,-2.7292e-05,0,0,0.032697,-0.014035,0,-7.096e-05,0,0,0,0.035919,-2.9378e-05,0.010767,-0.043889,0.015552,0.031949,1.0529e-06,0.62,0.3,0
0.030791,0.0042006,0.035961,-0.00028124,0.010704,3.479e-05,0,0,0.032834,-0.014281,0,9.0455e-05,0,0,0,0.035961,-0.00028135,0.010704,0.05477,0.015461,0.032188,1.0645e-06,0.64,0.3,0
0.031449,0.0042447,0.036002,-0.00055294,0.010635,5.1387e-05,0,0,0.032977,-0.014544,0,0.00013361,0,0,0,0.036002,-0.00055306,0.010635,0.080537,0.015361,0.032442,1.0765e-06,0.66,0.3,0
0.03211,0.004289,0.036002,-0.00079026,0.010564,3.9711e-05,0,0,0.03307,-0.01476,0,0.00010325,0,0,0,0.036002,-0.00079036,0.010564,0.061898,0.015258,0.032632,1.0837e-06,0.68,0.3,0
0.032772,0.0043345,0.035913,-0.00096626,0.010484,5.1347e-05,0,0,0.033058,-0.014885,0,0.0001335,0,0,0,0.035913,-0.0009667,0.010484,0.080241,0.015144,0.032695,1.0813e-06,0.7,0.3,0
0.033433,0.0043857,0.035763,-0.0011237,0.010392,0.00019189,0,0,0.032983,-0.01497,0,0.00049892,0,0,0,0.035766,-0.0011266,0.010392,0.29789,0.015011,0.032693,1.0732e-06,0.72,0.3,0
0.034092,0.0044546,0.035568,-0.00093721,0.010389,0.00045517,0,0,0.036624,-0.015871,0,0.0015467,0,0,0,0.035578,-0.00094789,0.010389,0.74471,0.015007,0.032402,1.0426e-06,0.74,0.3,0
0.034898,0.0045722,0.035442,0.00036176,0.010741,0.00058694,0,0,0.047725,-0.018625,0,0.0025558,0,0,0,0.035459,0.00034479,0.010741,1.009,0.015515,0.031286,9.8268e-07,0.76,0.3,0
0.036001,0.0047515,0.035536,0.0019147,0.011235,0.00041654,0,0,0.059051,-0.021941,0,0.0020837,0,0,0,0.035548,0.0019028,0.011235,0.72782,0.016229,0.030108,9.489e-07,0.78,0.3,0
0.03726,0.004942,0.035619,0.0020453,0.011299,4.7837e-05,0,0,0.063232,-0.024061,0,0.00024875,0,0,0,0.035624,0.0020409,0.011299,0.087527,0.016321,0.030044,9.5998e-07,0.8,0.3,0
0.03853,0.0050901,0.035536,0.0012593,0.011038,-0.00030517,0,0,0.063692,-0.025426,0,-0.0015869,0,0,0,0.03554,0.0012548,0.011038,-0.50589,0.015944,0.030591,9.7907e-07,0.82,0.3,0
0.039807,0.005193,0.035385,0.00057937,0.010789,-0.00049071,0,0,0.063949,-0.026546,0,-0.0025517,0,0,0,0.035393,0.0005717,0.010789,-0.80895,0.015585,0.031002,9.8883e-07,0.84,0.3,0
0.041088,0.0052665,0.035199,7.3532e-05,0.010582,-0.00052241,0,0,0.064005,-0.027322,0,-0.0027165,0,0,0,0.035208,6.5034e-05,0.010582,-0.85494,0.015285,0.031242,9.8904e-07,0.86,0.3,0
0.042368,0.0053209,0.034998,-0.00030495,0.010408,-0.00048054,0,0,0.063934,-0.027853,0,-0.0024988,0,0,0,0.035005,-0.00031219,0.010408,-0.78268,0.015034,0.031363,9.8326e-07,0.88,0.3,0
0.043645,0.0053621,0.03481,-0.00058772,0.010267,-0.0004087,0,0,0.063812,-0.028221,0,-0.0021252,0,0,0,0.034815,-0.00059301,0.010267,-0.66383,0.01483,0.031419,9.7545e-07,0.9,0.3,0
0.04492,0.0053932,0.03465,-0.00079649,0.010156,-0.0003264,0,0,0.063684,-0.028476,0,-0.0016973,0,0,0,0.034653,-0.00079992,0.010156,-0.52935,0.01467,0.031441,9.6774e-07,0.92,0.3,0
0.046193,0.0054162,0.034523,-0.00094627,0.010073,-0.00024229,0,0,0.06357,-0.02865,0,-0.0012599,0,0,0,0.034525,-0.00094821,0.010073,-0.39264,0.01455,0.031446,9.6116e-07,0.94,0.3,0
0.047463,0.005432,0.034432,-0.0010471,0.010015,-0.00015969,0,0,0.063482,-0.028762,0,-0.00083038,0,0,0,0.034433,-0.001048,0.010015,-0.25868,0.014467,0.031444,9.5623e-07,0.96,0.3,0
0.048732,0.0054414,0.034377,-0.0011052,0.0099815,-7.1842e-05,0,0,0.063428,-0.028825,0,-0.00037358,0,0,0,0.034377,-0.0011055,0.0099815,-0.11638,0.014418,0.031441,9.532e-07,0.98,0.3,0
0.049366,0.0054444,0.034358,-0.0011242,0.0099703,-2.4732e-05,0,0,0.063409,-0.028846,0,-0.00012861,0,0,0,0.034359,-0.0011243,0.0099703,-0.040104,0.014401,0.03144,9.5218e-07,1,0.3,0
0.0004439,0.00014534,0.029823,0.012181,0.012601,0.0027906,0,0,0.044777,-0.0010921,0,0.014511,0,0,0,0.030259,0.011746,0.012601,8.7772,0.018202,0.018104,3.0226e-07,0,0.32,0
0.00089554,0.0002901,0.0299,0.011623,0.012457,0.0027804,0,0,0.045352,-0.0021672,0,0.014458,0,0,0,0.030319,0.011205,0.012457,8.4727,0.017993,0.018525,3.2141e-07,0.02,0.32,0
0.0018141,0.00057808,0.030183,0.010582,0.01223,0.002749,0,0,0.046679,-0.0042831,0,0.014295,0,0,0,0.030567,0.010199,0.01223,7.8479,0.017665,0.019436,3.635e-07,0.04,0.32,0
0.0027627,0.00086218,0.030593,0.0096337,0.012068,0.0026959,0,0,0.048165,-0.0063291,0,0.014018,0,0,0,0.030939,0.0092878,0.012068,7.2247,0.017431,0.020407,4.0949e-07,0.06,0.32,0
0.0037406,0.0011407,0.030995,0.0087234,0.011915,0.0026205,0,0,0.049606,-0.0082993,0,0.013626,0,0,0,0.031303,0.0084149,0.011915,6.6309,0.017211,0.021357,4.5553e-07,0.08,0.32,0
0.004747,0.0014117,0.031388,0.0078562,0.011773,0.0025229,0,0,0.050999,-0.010185,0,0.013119,0,0,0,0.03166,0.0075847,0.011773,6.0595,0.017006,0.02228,5.0121e-07,0.1,0.32,0
0.0057806,0.0016733,0.031773,0.0070375,0.011643,0.0024047,0,0,0.052337,-0.011974,0,0.012504,0,0,0,0.032008,0.0068022,0.011643,5.5089,0.016818,0.02317,5.4615e-07,0.12,0.32,0
0.0068404,0.0019237,0.032147,0.006273,0.011526,0.0022691,0,0,0.053615,-0.013658,0,0.011799,0,0,0,0.032348,0.0060721,0.011526,4.9805,0.016649,0.024019,5.9003e-07,0.14,0.32,0
0.0079252,0.0021614,0.032512,0.0055682,0.011424,0.0021202,0,0,0.054829,-0.015226,0,0.011025,0,0,0,0.032681,0.0053992,0.011424,4.4773,0.016502,0.024825,6.3262e-07,0.16,0.32,0
0.0090336,0.0023848,0.032869,0.0049278,0.011339,0.0019627,0,0,0.055979,-0.01667,0,0.010206,0,0,0,0.03301,0.0047876,0.011339,4.003,0.016379,0.025584,6.7379e-07,0.18,0.32,0
0.010164,0.0025929,0.03322,0.0043565,0.011273,0.0018012,0,0,0.057063,-0.017983,0,0.0093661,0,0,0,0.033335,0.0042418,0.011273,3.5609,0.016283,0.026293,7.1348e-07,0.2,0.32,0
0.011316,0.0027848,0.033568,0.0038589,0.011228,0.0016399,0,0,0.058083,-0.01916,0,0.0085277,0,0,0,0.03366,0.0037661,0.011228,3.1533,0.016218,0.02695,7.5167e-07,0.22,0.32,0
0.012488,0.0029597,0.033914,0.0034405,0.011206,0.0014822,0,0,0.05904,-0.020191,0,0.0077075,0,0,0,0.033988,0.0033661,0.011206,2.7809,0.016187,0.027552,7.8834e-07,0.24,0.32,0
0.013678,0.0031171,0.034262,0.0031086,0.011211,0.0013294,0,0,0.059932,-0.021067,0,0.0069126,0,0,0,0.034321,0.0030496,0.011211,2.4413,0.016194,0.028095,8.2337e-07,0.26,0.32,0
0.014885,0.0032563,0.034613,0.0028736,0.011246,0.0011798,0,0,0.060754,-0.021768,0,0.0061351,0,0,0,0.034659,0.0028275,0.011246,2.128,0.016244,0.028568,8.5638e-07,0.28,0.32,0
0.016108,0.0033763,0.034963,0.0027514,0.011314,0.0010274,0,0,0.061487,-0.022264,0,0.0053423,0,0,0,0.034998,0.0027163,0.011314,1.8266,0.016343,0.028957,8.8649e-07,0.3,0.32,0
0.017344,0.0034756,0.035305,0.0027659,0.011421,0.00085858,0,0,0.062098,-0.022504,0,0.0044646,0,0,0,0.03533,0.002741,0.011421,1.5112,0.016498,0.029232,9.1192e-07,0.32,0.32,0
0.018592,0.0035517,0.035618,0.0029529,0.011571,0.00065112,0,0,0.062521,-0.022408,0,0.0033858,0,0,0,0.035633,0.0029376,0.011571,1.1404,0.016714,0.029347,9.2935e-07,0.34,0.32,0
0.019845,0.0036008,0.035858,0.0033647,0.011767,0.00037982,0,0,0.062637,-0.021845,0,0.0019751,0,0,0,0.035865,0.0033579,0.011767,0.66498,0.016996,0.029225,9.3294e-07,0.36,0.32,0
0.021097,0.0036198,0.035967,0.0040846,0.012015,4.847e-05,0,0,0.062273,-0.02062,0,0.00025204,0,0,0,0.035969,0.0040822,0.012015,0.077587,0.017356,0.028755,9.1454e-07,0.38,0.32,0
0.022336,0.003611,0.03593,0.0040943,0.012007,-0.00025892,0,0,0.058069,-0.018583,0,-0.0012094,0,0,0,0.035934,0.0040906,0.012007,-0.46834,0.017344,0.028735,9.0601e-07,0.4,0.32,0
0.02342,0.0035943,0.035851,0.0022654,0.011435,-0.00038563,0,0,0.047022,-0.016259,0,-0.001542,0,0,0,0.035856,0.0022599,0.011435,-0.66993,0.016517,0.030118,9.5919e-07,0.42,0.32,0
0.024217,0.0035939,0.035805,0.00031929,0.010837,-0.0002905,0,0,0.036258,-0.014669,0,-0.00092531,0,0,0,0.035809,0.00031595,0.010837,-0.47947,0.015654,0.031593,1.0266e-06,0.44,0.32,0
0.02487,0.0036127,0.035794,-9.7621e-05,0.010709,-0.00014499,0,0,0.032611,-0.014049,0,-0.00037697,0,0,0,0.035795,-9.8535e-05,0.010709,-0.23096,0.015468,0.031894,1.0442e-06,0.46,0.32,0
0.025522,0.0036422,0.035847,7.4921e-05,0.010777,-0.00010087,0,0,0.032591,-0.013912,0,-0.00026226,0,0,0,0.035847,7.4461e-05,0.010777,-0.16209,0.015566,0.031802,1.0435e-06,0.48,0.32,0
0.026174,0.0036758,0.035927,0.00011543,0.010813,-0.00014928,0,0,0.032648,-0.013906,0,-0.00038813,0,0,0,0.035928,0.00011464,0.010813,-0.2391,0.015618,0.031842,1.0492e-06,0.5,0.32,0
0.026827,0.0037091,0.035969,0.00013841,0.010832,-0.00021754,0,0,0.032678,-0.013902,0,-0.0005656,0,0,0,0.03597,0.00013701,0.010832,-0.3479,0.015647,0.031862,1.0522e-06,0.52,0.32,0
0.027481,0.0037412,0.035974,0.00016801,0.010843,-0.00025486,0,0,0.032671,-0.013877,0,-0.00066265,0,0,0,0.035976,0.00016617,0.010843,-0.4078,0.015661,0.031843,1.0517e-06,0.54,0.32,0
0.028134,0.003773,0.035959,0.00018309,0.010843,-0.00024625,0,0,0.032651,-0.013857,0,-0.00064025,0,0,0,0.03596,0.00018137,0.010843,-0.39437,0.015661,0.031818,1.0499e-06,0.56,0.32,0
0.028787,0.0038055,0.035943,0.00015242,0.010829,-0.00019846,0,0,0.032649,-0.013879,0,-0.00051599,0,0,0,0.035945,0.00015125,0.010829,-0.31779,0.015642,0.031828,1.0495e-06,0.58,0.32,0
0.02944,0.0038399,0.035941,5.4854e-05,0.010799,-0.00012963,0,0,0.032685,-0.013967,0,-0.00033705,0,0,0,0.035942,5.4304e-05,0.010799,-0.20718,0.015598,0.031902,1.0523e-06,0.6,0.32,0
0.030095,0.0038763,0.035953,-0.00011098,0.010753,-6.0876e-05,0,0,0.032761,-0.014123,0,-0.00015828,0,0,0,0.035954,-0.00011115,0.010753,-0.096958,0.015532,0.032045,1.0585e-06,0.62,0.32,0
0.030751,0.0039146,0.035972,-0.00032616,0.010694,-8.9143e-06,0,0,0.032861,-0.014326,0,-2.3177e-05,0,0,0,0.035972,-0.0003262,0.010694,-0.014249,0.015446,0.032233,1.0668e-06,0.64,0.32,0
0.031409,0.003954,0.035978,-0.00055992,0.010625,2.3211e-05,0,0,0.032959,-0.014541,0,6.0349e-05,0,0,0,0.035978,-0.00055995,0.010625,0.036288,0.015348,0.032426,1.0746e-06,0.66,0.32,0
0.032069,0.0039945,0.035951,-0.00078885,0.010549,5.7787e-05,0,0,0.033023,-0.014739,0,0.00015025,0,0,0,0.035951,-0.00078902,0.010549,0.089899,0.015237,0.032586,1.0791e-06,0.68,0.32,0
0.03273,0.0040374,0.035858,-0.0010329,0.010448,0.00015223,0,0,0.033033,-0.014924,0,0.00039581,0,0,0,0.035859,-0.0010341,0.010448,0.23554,0.015091,0.032701,1.0784e-06,0.7,0.32,0
0.03339,0.0040861,0.035703,-0.0013814,0.010296,0.00032866,0,0,0.033028,-0.015181,0,0.00085451,0,0,0,0.035707,-0.0013855,0.010296,0.50599,0.014873,0.032848,1.076e-06,0.72,0.32,0
0.034051,0.0041389,0.035307,-0.0011486,0.010248,0.00059579,0,0,0.036138,-0.015905,0,0.0019602,0,0,0,0.035321,-0.0011627,0.010248,0.98906,0.014802,0.032343,1.0424e-06,0.74,0.32,0
0.034833,0.0042084,0.035276,0.0005428,0.010746,0.00065126,0,0,0.045684,-0.017754,0,0.0025249,0,0,0,0.035299,0.00052023,0.010746,1.1354,0.015522,0.030997,1.0072e-06,0.76,0.32,0
0.035881,0.0043264,0.035911,0.0022769,0.011457,0.00030822,0,0,0.056626,-0.020587,0,0.0012561,0,0,0,0.035926,0.0022629,0.011457,0.52346,0.016548,0.030156,1.0122e-06,0.78,0.32,0
0.037113,0.0044701,0.036118,0.0023241,0.011533,-1.4074e-05,0,0,0.06256,-0.023383,0,-0.00013273,0,0,0,0.036121,0.002321,0.011533,-0.038452,0.016658,0.030266,1.0075e-06,0.8,0.32,0
0.038393,0.0045829,0.035978,0.0014093,0.011216,-0.00018399,0,0,0.064381,-0.025498,0,-0.00095673,0,0,0,0.03598,0.0014074,0.011216,-0.30239,0.016201,0.030862,1.012e-06,0.82,0.32,0
0.039688,0.0046587,0.035902,0.00061234,0.010954,-0.00028025,0,0,0.064864,-0.026889,0,-0.0014573,0,0,0,0.035905,0.00060929,0.010954,-0.45726,0.015823,0.031428,1.0315e-06,0.84,0.32,0
0.040987,0.0047151,0.03569,5.0208e-05,0.010722,-0.00028315,0,0,0.064917,-0.027747,0,-0.0014724,0,0,0,0.035693,4.6942e-05,0.010722,-0.45787,0.015488,0.031688,1.031e-06,0.86,0.32,0
0.042285,0.0047586,0.035443,-0.00035536,0.010526,-0.00025426,0,0,0.064784,-0.028293,0,-0.0013221,0,0,0,0.035446,-0.00035808,0.010526,-0.40922,0.015205,0.031792,1.022e-06,0.88,0.32,0
0.043579,0.0047925,0.035214,-0.00064835,0.01037,-0.00021253,0,0,0.064594,-0.028647,0,-0.0011052,0,0,0,0.035216,-0.00065032,0.01037,-0.34135,0.014978,0.031821,1.0108e-06,0.9,0.32,0
0.044869,0.0048188,0.035019,-0.00085911,0.010248,-0.0001671,0,0,0.064404,-0.028878,0,-0.0008689,0,0,0,0.03502,-0.00086037,0.010248,-0.26817,0.014802,0.031815,1.0001e-06,0.92,0.32,0
0.046155,0.0048386,0.034865,-0.0010074,0.010157,-0.00012229,0,0,0.06424,-0.029028,0,-0.00063592,0,0,0,0.034866,-0.0010081,0.010157,-0.19624,0.014672,0.031797,9.9122e-07,0.94,0.32,0
0.047438,0.0048524,0.034755,-0.0011058,0.010095,-7.9678e-05,0,0,0.064117,-0.029122,0,-0.00041433,0,0,0,0.034756,-0.0011062,0.010095,-0.12788,0.014581,0.031778,9.8462e-07,0.96,0.32,0
0.04872,0.0048605,0.034689,-0.0011621,0.010058,-3.2712e-05,0,0,0.064041,-0.029173,0,-0.0001701,0,0,0,0.034689,-0.0011622,0.010058,-0.05255,0.014528,0.031764,9.8059e-07,0.98,0.32,0
0.04936,0.0048633,0.034667,-0.0011805,0.010046,-6.4402e-06,0,0,0.064015,-0.029189,0,-3.3489e-05,0,0,0,0.034667,-0.0011805,0.010046,-0.01042,0.014511,0.031759,9.7923e-07,1,0.32,0
0.00044386,0.00012366,0.029821,0.01219,0.012603,0.0023738,0,0,0.044766,-0.0010749,0,0.012344,0,0,0,0.03014,0.011871,0.012603,7.5345,0.018205,0.017917,2.9357e-07,0,0.34,0
0.00089533,0.0002471,0.029897,0.011642,0.012462,0.0023653,0,0,0.045331,-0.002131,0,0.0123,0,0,0,0.030203,0.011336,0.012462,7.2733,0.018,0.018336,3.1253e-07,0.02,0.34,0
0.0018133,0.00049315,0.030176,0.010621,0.012239,0.0023389,0,0,0.046636,-0.0042064,0,0.012162,0,0,0,0.030456,0.010341,0.012239,6.7377,0.017679,0.019241,3.5413e-07,0.04,0.34,0
0.0027607,0.00073677,0.03058,0.0096948,0.012082,0.0022923,0,0,0.048094,-0.0062079,0,0.01192,0,0,0,0.030833,0.0094419,0.012082,6.1997,0.017452,0.020204,3.9953e-07,0.06,0.34,0
0.003737,0.00097629,0.030978,0.0088073,0.011936,0.002224,0,0,0.049511,-0.0081337,0,0.011565,0,0,0,0.031203,0.0085823,0.011936,5.6801,0.01724,0.021147,4.4503e-07,0.08,0.34,0
0.0047412,0.00121,0.03137,0.0079618,0.011799,0.0021342,0,0,0.050883,-0.009978,0,0.011098,0,0,0,0.031567,0.007765,0.011799,5.1741,0.017044,0.022065,4.9033e-07,0.1,0.34,0
0.0057723,0.0014361,0.031755,0.0071625,0.011675,0.0020244,0,0,0.052207,-0.011733,0,0.010527,0,0,0,0.031924,0.0069934,0.011675,4.6807,0.016864,0.022953,5.3515e-07,0.12,0.34,0
0.0068295,0.0016532,0.032134,0.006414,0.011564,0.0018973,0,0,0.053481,-0.013391,0,0.0098657,0,0,0,0.032276,0.0062714,0.011564,4.2015,0.016704,0.023806,5.7924e-07,0.14,0.34,0
0.0079116,0.0018596,0.032507,0.0057208,0.011468,0.001756,0,0,0.0547,-0.014944,0,0.009131,0,0,0,0.032625,0.005603,0.011468,3.7392,0.016565,0.02462,6.2243e-07,0.16,0.34,0
0.0090175,0.0020541,0.032876,0.0050877,0.011389,0.0016044,0,0,0.055865,-0.016383,0,0.0083427,0,0,0,0.032971,0.0049923,0.011389,3.2972,0.016451,0.025393,6.646e-07,0.18,0.34,0
0.010146,0.0022358,0.033242,0.0045192,0.011328,0.0014465,0,0,0.056975,-0.017703,0,0.0075216,0,0,0,0.033317,0.0044436,0.011328,2.8788,0.016363,0.026121,7.0568e-07,0.2,0.34,0
0.011296,0.0024039,0.033607,0.0040205,0.011288,0.0012861,0,0,0.058029,-0.018896,0,0.0066876,0,0,0,0.033666,0.0039619,0.011288,2.4868,0.016305,0.026803,7.4563e-07,0.22,0.34,0
0.012467,0.0025579,0.033974,0.003598,0.011272,0.0011266,0,0,0.059027,-0.019952,0,0.0058581,0,0,0,0.034019,0.0035536,0.011272,2.123,0.016281,0.027433,7.8437e-07,0.24,0.34,0
0.013658,0.0026975,0.034344,0.0032604,0.011281,0.00097042,0,0,0.059963,-0.020854,0,0.0050462,0,0,0,0.034377,0.0032275,0.011281,1.7879,0.016295,0.028005,8.2163e-07,0.26,0.34,0
0.014866,0.0028224,0.034714,0.0030204,0.01132,0.00081874,0,0,0.060823,-0.02158,0,0.0042575,0,0,0,0.034737,0.0029967,0.01132,1.4798,0.016351,0.028505,8.5674e-07,0.28,0.34,0
0.01609,0.0029324,0.035076,0.0028975,0.011392,0.00067049,0,0,0.061578,-0.022086,0,0.0034866,0,0,0,0.035092,0.0028811,0.011392,1.1937,0.016455,0.028911,8.8827e-07,0.3,0.34,0
0.017329,0.0030273,0.035413,0.0029209,0.0115,0.00052162,0,0,0.062173,-0.022306,0,0.0027124,0,0,0,0.035423,0.0029104,0.0115,0.91931,0.016611,0.029182,9.1347e-07,0.32,0.34,0
0.018577,0.0031065,0.035691,0.0031345,0.011648,0.00036485,0,0,0.062514,-0.022135,0,0.0018972,0,0,0,0.035697,0.0031288,0.011648,0.64066,0.016825,0.029255,9.2771e-07,0.34,0.34,0
0.019829,0.0031691,0.035869,0.0035986,0.01184,0.00019392,0,0,0.062475,-0.021429,0,0.0010084,0,0,0,0.035871,0.0035965,0.01184,0.34126,0.017103,0.029045,9.2476e-07,0.36,0.34,0
0.021076,0.0032151,0.03592,0.0043711,0.012087,1.6309e-05,0,0,0.061965,-0.020062,0,8.4805e-05,0,0,0,0.035921,0.0043703,0.012087,0.024876,0.017459,0.028488,8.9982e-07,0.38,0.34,0
0.022308,0.0032463,0.035846,0.0043264,0.012052,-0.00013467,0,0,0.057745,-0.018105,0,-0.00061871,0,0,0,0.035847,0.0043252,0.012052,-0.24366,0.017408,0.028477,8.9022e-07,0.4,0.34,0
0.023386,0.0032712,0.035727,0.0022843,0.011403,-0.00022029,0,0,0.046817,-0.016106,0,-0.00082251,0,0,0,0.035729,0.0022823,0.011403,-0.37677,0.016471,0.029989,9.4751e-07,0.42,0.34,0
0.024181,0.0032995,0.035664,0.00018999,0.010756,-0.00023522,0,0,0.03616,-0.014727,0,-0.00068613,0,0,0,0.035666,0.00018816,0.010756,-0.38122,0.015537,0.031568,1.0183e-06,0.44,0.34,0
0.024833,0.0033318,0.035667,-0.00015665,0.010653,-0.00021832,0,0,0.032518,-0.014053,0,-0.00056764,0,0,0,0.035669,-0.00015816,0.010653,-0.34901,0.015388,0.03183,1.0349e-06,0.46,0.34,0
0.025481,0.0033654,0.03573,0.000116,0.010754,-0.00021574,0,0,0.032469,-0.013829,0,-0.00056093,0,0,0,0.035732,0.00011444,0.010754,-0.34716,0.015533,0.031668,1.0321e-06,0.48,0.34,0
0.026131,0.0033991,0.035835,0.00017242,0.010802,-0.00023402,0,0,0.032542,-0.013819,0,-0.00060846,0,0,0,0.035836,0.00017068,0.010802,-0.37599,0.015603,0.031716,1.0394e-06,0.5,0.34,0
0.026783,0.003432,0.035925,0.00017214,0.010829,-0.00025171,0,0,0.032625,-0.013854,0,-0.00065445,0,0,0,0.035927,0.00017029,0.010829,-0.40333,0.015642,0.031797,1.0474e-06,0.52,0.34,0
0.027436,0.0034639,0.035976,0.00016448,0.010842,-0.00025221,0,0,0.032674,-0.013881,0,-0.00065575,0,0,0,0.035978,0.00016268,0.010842,-0.40348,0.015661,0.031848,1.0521e-06,0.54,0.34,0
0.02809,0.0034954,0.035995,0.00014463,0.010842,-0.00023043,0,0,0.032699,-0.013907,0,-0.00059911,0,0,0,0.035997,0.00014313,0.010842,-0.36828,0.015661,0.03188,1.0543e-06,0.56,0.34,0
0.028744,0.0035271,0.036,9.0332e-05,0.010827,-0.00018966,0,0,0.032725,-0.013958,0,-0.00049311,0,0,0,0.036001,8.9295e-05,0.010827,-0.30269,0.015639,0.031927,1.0564e-06,0.58,0.34,0
0.029399,0.0035596,0.036004,-1.5563e-05,0.010796,-0.00013719,0,0,0.03277,-0.014056,0,-0.00035671,0,0,0,0.036004,-1.6132e-05,0.010796,-0.21838,0.015595,0.032014,1.06e-06,0.6,0.34,0
0.030055,0.0035931,0.036012,-0.0001745,0.010751,-8.1407e-05,0,0,0.032839,-0.014203,0,-0.00021166,0,0,0,0.036012,-0.00017473,0.010751,-0.12909,0.015529,0.032148,1.0657e-06,0.62,0.34,0
0.030713,0.0036276,0.036019,-0.00037174,0.010694,-2.887e-05,0,0,0.032922,-0.014386,0,-7.5061e-05,0,0,0,0.036019,-0.0003718,0.010694,-0.045655,0.015447,0.032312,1.0725e-06,0.64,0.34,0
0.031372,0.003663,0.036023,-0.00058563,0.010631,1.9253e-05,0,0,0.033009,-0.014582,0,5.0058e-05,0,0,0,0.036023,-0.00058567,0.010631,0.029915,0.015356,0.032487,1.0793e-06,0.66,0.34,0
0.032033,0.0036994,0.03604,-0.00080744,0.01057,7.3097e-05,0,0,0.033112,-0.014791,0,0.00019005,0,0,0,0.036041,-0.00080765,0.01057,0.11335,0.015268,0.03268,1.0877e-06,0.68,0.34,0
0.032696,0.0037375,0.036143,-0.0010693,0.010522,0.00015909,0,0,0.033307,-0.015069,0,0.00041363,0,0,0,0.036144,-0.0010705,0.010522,0.24452,0.015199,0.032983,1.1052e-06,0.7,0.34,0
0.033365,0.0037784,0.036394,-0.0014891,0.010472,0.00027833,0,0,0.033699,-0.015549,0,0.00072366,0,0,0,0.036398,-0.0014927,0.010472,0.42227,0.015126,0.033549,1.1425e-06,0.72,0.34,0
0.034044,0.0038188,0.035891,-0.0011955,0.010409,0.00043198,0,0,0.03613,-0.016136,0,0.0013715,0,0,0,0.035907,-0.001211,0.010409,0.71344,0.015035,0.032894,1.1271e-06,0.74,0.34,0
0.0348,0.0038621,0.035946,0.00061384,0.010968,0.0004385,0,0,0.04313,-0.0171,0,0.0015717,0,0,0,0.035974,0.00058597,0.010968,0.76488,0.015843,0.031527,1.1483e-06,0.76,0.34,0
0.035778,0.0039271,0.037496,0.0023271,0.011947,0.00021541,0,0,0.053674,-0.019618,0,0.00073552,0,0,0,0.037515,0.0023078,0.011947,0.34775,0.017257,0.031525,1.2292e-06,0.78,0.34,0
0.036994,0.004006,0.037592,0.0024466,0.012012,6.0148e-05,0,0,0.062422,-0.023191,0,0.00020659,0,0,0,0.037597,0.0024415,0.012012,0.074108,0.01735,0.031484,1.1571e-06,0.8,0.34,0
0.038303,0.0040702,0.036697,0.0015594,0.011477,2.3678e-05,0,0,0.065572,-0.025786,0,0.00012313,0,0,0,0.036699,0.0015576,0.011477,0.03659,0.016578,0.031382,1.0692e-06,0.82,0.34,0
0.039617,0.0041175,0.036354,0.00065932,0.011104,4.1417e-06,0,0,0.065651,-0.027156,0,2.1538e-05,0,0,0,0.036356,0.0006576,0.011104,0.0044048,0.016039,0.03179,1.0693e-06,0.84,0.34,0
0.040929,0.0041566,0.036017,4.9142e-05,0.01082,7.3742e-06,0,0,0.065512,-0.028003,0,3.8347e-05,0,0,0,0.036018,4.7724e-05,0.01082,0.010265,0.015628,0.031976,1.0592e-06,0.86,0.34,0
0.042237,0.0041892,0.035715,-0.00037281,0.010603,1.1206e-05,0,0,0.065293,-0.028537,0,5.827e-05,0,0,0,0.035717,-0.00037393,0.010603,0.0167,0.015315,0.032045,1.0458e-06,0.88,0.34,0
0.043541,0.0042162,0.035454,-0.0006702,0.010435,1.4618e-05,0,0,0.06505,-0.028874,0,7.6014e-05,0,0,0,0.035455,-0.00067101,0.010435,0.022372,0.015073,0.03205,1.0319e-06,0.9,0.34,0
0.044839,0.0042381,0.035238,-0.00088045,0.010307,1.6175e-05,0,0,0.064819,-0.029088,0,8.4109e-05,0,0,0,0.035238,-0.00088098,0.010307,0.025069,0.014888,0.032026,1.0193e-06,0.92,0.34,0
0.046134,0.0042551,0.035069,-0.0010265,0.010213,1.519e-05,0,0,0.064625,-0.029222,0,7.8987e-05,0,0,0,0.035069,-0.0010269,0.010213,0.023705,0.014752,0.031993,1.0089e-06,0.94,0.34,0
0.047424,0.0042672,0.034948,-0.0011227,0.010148,1.1726e-05,0,0,0.064481,-0.029303,0,6.0974e-05,0,0,0,0.034948,-0.0011228,0.010148,0.018372,0.014658,0.031962,1.0013e-06,0.96,0.34,0
0.048713,0.0042744,0.034876,-0.0011773,0.010109,1.22e-05,0,0,0.064392,-0.029346,0,6.3439e-05,0,0,0,0.034876,-0.0011774,0.010109,0.019271,0.014603,0.031942,9.9664e-07,0.98,0.34,0
0.049357,0.0042769,0.034852,-0.0011951,0.010097,1.4977e-05,0,0,0.064362,-0.029359,0,7.788e-05,0,0,0,0.034852,-0.0011951,0.010097,0.023751,0.014584,0.031935,9.9509e-07,1,0.34,0
0.00044346,0.00010235,0.029795,0.01219,0.012595,0.0019641,0,0,0.044719,-0.0010546,0,0.010213,0,0,0,0.030016,0.011969,0.012595,6.2878,0.018193,0.017745,2.8562e-07,0,0.36,0
0.00089437,0.00020486,0.029869,0.011653,0.012457,0.0019573,0,0,0.045272,-0.0020895,0,0.010178,0,0,0,0.030081,0.01144,0.012457,6.0711,0.017993,0.01816,3.0428e-07,0.02,0.36,0
0.0018109,0.00040983,0.030143,0.010654,0.012239,0.0019356,0,0,0.04655,-0.0041209,0,0.010065,0,0,0,0.030338,0.010459,0.012239,5.6259,0.017679,0.019055,3.4518e-07,0.04,0.36,0
0.0027564,0.00061386,0.03054,0.0097497,0.012087,0.0018948,0,0,0.047978,-0.0060768,0,0.0098532,0,0,0,0.030715,0.0095744,0.012087,5.1725,0.017459,0.020007,3.8975e-07,0.06,0.36,0
0.00373,0.00081531,0.030932,0.0088842,0.011945,0.0018321,0,0,0.049366,-0.0079574,0,0.0095271,0,0,0,0.031087,0.0087292,0.011945,4.7245,0.017254,0.020939,4.3445e-07,0.08,0.36,0
0.004731,0.0010125,0.031318,0.0080599,0.011813,0.0017481,0,0,0.050713,-0.0097593,0,0.0090903,0,0,0,0.031453,0.0079257,0.011813,4.28,0.017064,0.021846,4.7903e-07,0.1,0.36,0
0.0057585,0.001204,0.0317,0.0072798,0.011694,0.0016442,0,0,0.052016,-0.011477,0,0.0085501,0,0,0,0.031814,0.0071662,0.011694,3.8395,0.016891,0.022726,5.233e-07,0.12,0.36,0
0.0068117,0.0013881,0.032078,0.0065476,0.011588,0.0015226,0,0,0.053274,-0.013104,0,0.0079175,0,0,0,0.032171,0.0064538,0.011588,3.4051,0.016738,0.023575,5.6706e-07,0.14,0.36,0
0.0078895,0.0015636,0.032451,0.0058674,0.011496,0.0013859,0,0,0.054485,-0.014633,0,0.0072066,0,0,0,0.032527,0.0057922,0.011496,2.9797,0.016605,0.024389,6.1015e-07,0.16,0.36,0
0.0089911,0.0017295,0.032823,0.0052435,0.01142,0.0012373,0,0,0.055648,-0.016059,0,0.006434,0,0,0,0.032881,0.005185,0.01142,2.5665,0.016495,0.025166,6.5248e-07,0.18,0.36,0
0.010115,0.0018848,0.033194,0.0046804,0.011362,0.0010803,0,0,0.056762,-0.017373,0,0.0056175,0,0,0,0.033237,0.0046366,0.011362,2.1688,0.016412,0.025902,6.9398e-07,0.2,0.36,0
0.011262,0.002029,0.033566,0.0041834,0.011325,0.00091841,0,0,0.057827,-0.018568,0,0.0047757,0,0,0,0.033597,0.0041519,0.011325,1.7902,0.016358,0.026595,7.3461e-07,0.22,0.36,0
0.012428,0.0021617,0.033941,0.0037592,0.01131,0.0007554,0,0,0.058841,-0.019632,0,0.0039281,0,0,0,0.033963,0.0037375,0.01131,1.4338,0.016337,0.027241,7.7426e-07,0.24,0.36,0
0.013615,0.002283,0.03432,0.0034168,0.011321,0.00059524,0,0,0.059797,-0.020551,0,0.0030953,0,0,0,0.034334,0.0034025,0.011321,1.1035,0.016353,0.027831,8.1262e-07,0.26,0.36,0
0.01482,0.0023931,0.0347,0.0031694,0.011361,0.00044245,0,0,0.060682,-0.021298,0,0.0023007,0,0,0,0.034709,0.0031606,0.011361,0.8037,0.01641,0.028352,8.4903e-07,0.28,0.36,0
0.016042,0.0024929,0.035073,0.003037,0.011433,0.00030268,0,0,0.061464,-0.021829,0,0.0015739,0,0,0,0.035078,0.0030317,0.011433,0.54074,0.016514,0.028781,8.8199e-07,0.3,0.36,0
0.017279,0.0025834,0.03542,0.0030495,0.011541,0.00018352,0,0,0.062086,-0.022078,0,0.00095431,0,0,0,0.035423,0.0030464,0.011541,0.32401,0.01667,0.029075,9.0871e-07,0.32,0.36,0
0.018526,0.0026663,0.035709,0.0032512,0.011688,9.4608e-05,0,0,0.062454,-0.021935,0,0.00049196,0,0,0,0.03571,0.0032496,0.011688,0.16621,0.016883,0.029172,9.2445e-07,0.34,0.36,0
0.019777,0.0027437,0.035896,0.0037032,0.01188,4.3693e-05,0,0,0.062442,-0.021259,0,0.0002272,0,0,0,0.035896,0.0037025,0.01188,0.077313,0.017159,0.028984,9.2289e-07,0.36,0.36,0
0.021024,0.0028173,0.035955,0.0044628,0.012125,2.4968e-05,0,0,0.061957,-0.019923,0,0.00012983,0,0,0,0.035955,0.0044625,0.012125,0.045177,0.017514,0.028448,8.9913e-07,0.38,0.36,0
0.022255,0.0028868,0.03589,0.004407,0.012089,5.284e-06,0,0,0.05776,-0.018,0,6.3839e-05,0,0,0,0.035891,0.0044066,0.012089,0.014419,0.017462,0.028452,8.9071e-07,0.4,0.36,0
0.023334,0.0029501,0.03578,0.0023569,0.011441,-6.0069e-05,0,0,0.046844,-0.01604,0,-0.00012514,0,0,0,0.035781,0.0023561,0.011441,-0.089354,0.016526,0.029977,9.4945e-07,0.42,0.36,0
0.024129,0.0030048,0.035726,0.00024936,0.010793,-0.00017733,0,0,0.036196,-0.014693,0,-0.00045207,0,0,0,0.035727,0.00024795,0.010793,-0.2796,0.015589,0.031576,1.0218e-06,0.44,0.36,0
0.024782,0.0030506,0.035737,-0.00011916,0.010686,-0.00029328,0,0,0.032568,-0.014046,0,-0.00076253,0,0,0,0.03574,-0.00012189,0.010686,-0.4693,0.015435,0.031864,1.0401e-06,0.46,0.36,0
0.025432,0.0030891,0.035807,0.00013152,0.010782,-0.00035125,0,0,0.032533,-0.013845,0,-0.00091326,0,0,0,0.035811,0.00012778,0.010782,-0.56356,0.015573,0.031728,1.0386e-06,0.48,0.36,0
0.026083,0.003123,0.035917,0.00017043,0.010826,-0.00034848,0,0,0.032618,-0.013852,0,-0.00090604,0,0,0,0.03592,0.00016682,0.010826,-0.55805,0.015638,0.031793,1.0469e-06,0.5,0.36,0
0.026736,0.0031549,0.036011,0.00015593,0.01085,-0.00031392,0,0,0.032709,-0.013902,0,-0.0008162,0,0,0,0.036013,0.00015307,0.01085,-0.50142,0.015672,0.031887,1.0555e-06,0.52,0.36,0
0.027391,0.003186,0.036064,0.00013663,0.01086,-0.00027033,0,0,0.032765,-0.013941,0,-0.00070286,0,0,0,0.036066,0.00013455,0.01086,-0.43106,0.015687,0.031949,1.0607e-06,0.54,0.36,0
0.028047,0.0032167,0.036084,0.00010732,0.010858,-0.00022773,0,0,0.032795,-0.013975,0,-0.0005921,0,0,0,0.036086,0.00010585,0.010858,-0.36271,0.015683,0.031989,1.0634e-06,0.56,0.36,0
0.028703,0.0032472,0.03609,4.5484e-05,0.010841,-0.00018703,0,0,0.032824,-0.014034,0,-0.00048629,0,0,0,0.036091,4.4489e-05,0.010841,-0.29738,0.015659,0.032043,1.0658e-06,0.58,0.36,0
0.02936,0.0032776,0.036094,-6.606e-05,0.010809,-0.00014485,0,0,0.032872,-0.014137,0,-0.00037661,0,0,0,0.036095,-6.667e-05,0.010809,-0.22963,0.015612,0.032135,1.0697e-06,0.6,0.36,0
0.030018,0.0033082,0.036102,-0.00022866,0.010762,-9.6754e-05,0,0,0.032942,-0.014288,0,-0.00025156,0,0,0,0.036103,-0.00022896,0.010762,-0.15276,0.015545,0.032272,1.0755e-06,0.62,0.36,0
0.030678,0.0033391,0.036109,-0.00042735,0.010705,-4.0456e-05,0,0,0.033026,-0.014471,0,-0.00010519,0,0,0,0.036109,-0.00042745,0.010705,-0.063683,0.015462,0.032436,1.0822e-06,0.64,0.36,0
0.031339,0.0033707,0.036111,-0.00064015,0.010641,2.0343e-05,0,0,0.033111,-0.014666,0,5.2893e-05,0,0,0,0.036111,-0.00064022,0.010641,0.031433,0.015371,0.032609,1.0889e-06,0.66,0.36,0
0.032002,0.0034029,0.036125,-0.00085808,0.01058,6.9953e-05,0,0,0.033209,-0.01487,0,0.00018188,0,0,0,0.036126,-0.00085825,0.01058,0.10818,0.015282,0.032796,1.0969e-06,0.68,0.36,0
0.032667,0.0034346,0.036222,-0.0011132,0.010533,7.6024e-05,0,0,0.033396,-0.01514,0,0.00019766,0,0,0,0.036223,-0.0011137,0.010533,0.11673,0.015214,0.033088,1.1136e-06,0.7,0.36,0
0.033338,0.0034642,0.036465,-0.001524,0.010482,3.3868e-05,0,0,0.033777,-0.015608,0,8.8057e-05,0,0,0,0.036466,-0.0015255,0.010482,0.049862,0.015141,0.033636,1.1495e-06,0.72,0.36,0
0.034019,0.0034947,0.035952,-0.0012256,0.010418,-6.4646e-05,0,0,0.036204,-0.016193,0,-0.00030676,0,0,0,0.035962,-0.0012356,0.010418,-0.13495,0.015048,0.032963,1.1325e-06,0.74,0.36,0
0.034776,0.0035249,0.036008,0.00059828,0.010982,-3.0812e-05,0,0,0.043221,-0.01715,0,-0.00013502,0,0,0,0.036031,0.00057606,0.010982,-0.08936,0.015863,0.031585,1.1532e-06,0.76,0.36,0
0.035756,0.003539,0.037572,0.0023372,0.011973,0.00020996,0,0,0.053793,-0.019651,0,0.0010478,0,0,0,0.037592,0.002318,0.011973,0.34923,0.017294,0.031585,1.2351e-06,0.78,0.36,0
0.036974,0.0035405,0.037675,0.0024608,0.012041,0.00034154,0,0,0.062559,-0.02323,0,0.0017423,0,0,0,0.037683,0.0024525,0.012041,0.57844,0.017392,0.031552,1.1639e-06,0.8,0.36,0
0.038286,0.0035514,0.036774,0.0015669,0.011502,0.00034846,0,0,0.065707,-0.025832,0,0.001812,0,0,0,0.03678,0.0015616,0.011502,0.56845,0.016615,0.03145,1.076e-06,0.82,0.36,0
0.039603,0.0035724,0.036426,0.00066829,0.011128,0.00035127,0,0,0.065773,-0.027196,0,0.0018266,0,0,0,0.036431,0.00066306,0.011128,0.56415,0.016074,0.031852,1.0756e-06,0.84,0.36,0
0.040917,0.003595,0.036083,6.1562e-05,0.010843,0.0003272,0,0,0.065622,-0.028032,0,0.0017014,0,0,0,0.036087,5.7118e-05,0.010843,0.52113,0.015662,0.03203,1.0649e-06,0.86,0.36,0
0.042228,0.0036171,0.035777,-0.00035624,0.010626,0.00029494,0,0,0.065393,-0.028555,0,0.0015337,0,0,0,0.035781,-0.00035982,0.010626,0.46814,0.015349,0.032091,1.051e-06,0.88,0.36,0
0.043533,0.0036375,0.035513,-0.0006496,0.010459,0.00025497,0,0,0.065141,-0.028882,0,0.0013258,0,0,0,0.035516,-0.00065225,0.010459,0.40432,0.015108,0.032089,1.0366e-06,0.9,0.36,0
0.044833,0.0036553,0.035294,-0.00085633,0.010331,0.00020929,0,0,0.064903,-0.029088,0,0.0010883,0,0,0,0.035296,-0.00085811,0.010331,0.33196,0.014923,0.032059,1.0236e-06,0.92,0.36,0
0.046129,0.0036697,0.035123,-0.00099957,0.010237,0.00015973,0,0,0.064704,-0.029215,0,0.0008306,0,0,0,0.035124,-0.0010006,0.010237,0.25353,0.014787,0.032021,1.0129e-06,0.94,0.36,0
0.047421,0.0036803,0.035001,-0.0010936,0.010172,0.00010769,0,0,0.064555,-0.029291,0,0.00056001,0,0,0,0.035002,-0.0010941,0.010172,0.17106,0.014693,0.031987,1.0051e-06,0.96,0.36,0
0.048711,0.0036867,0.034928,-0.001147,0.010134,5.9441e-05,0,0,0.064464,-0.029332,0,0.00030909,0,0,0,0.034929,-0.0011472,0.010134,0.094462,0.014639,0.031965,1.0003e-06,0.98,0.36,0
0.049356,0.0036889,0.034904,-0.0011644,0.010122,3.7682e-05,0,0,0.064434,-0.029344,0,0.00019595,0,0,0,0.034904,-0.0011644,0.010122,0.059891,0.014621,0.031957,9.9869e-07,1,0.36,0
0.00044267,8.1473e-05,0.029743,0.01218,0.012577,0.0015628,0,0,0.044631,-0.0010309,0,0.0081265,0,0,0,0.029885,0.012038,0.012577,5.0439,0.018167,0.017587,2.7833e-07,0,0.38,0
0.00089262,0.00016352,0.029815,0.011656,0.012441,0.0015577,0,0,0.045172,-0.0020418,0,0.0081001,0,0,0,0.029952,0.011519,0.012441,4.8721,0.017971,0.017995,2.9658e-07,0.02,0.38,0
0.0018069,0.00032832,0.030083,0.010681,0.012229,0.0015407,0,0,0.046419,-0.0040251,0,0.0080117,0,0,0,0.030208,0.010555,0.012229,4.5178,0.017664,0.018876,3.3655e-07,0.04,0.38,0
0.0027494,0.0004937,0.030471,0.0097991,0.012081,0.0015054,0,0,0.047814,-0.005933,0,0.0078281,0,0,0,0.030584,0.0096863,0.012081,4.1484,0.01745,0.019812,3.8006e-07,0.06,0.38,0
0.0037194,0.00065799,0.030854,0.0089558,0.011943,0.0014476,0,0,0.049169,-0.0077666,0,0.0075274,0,0,0,0.030953,0.0088569,0.011943,3.7703,0.017251,0.020729,4.2368e-07,0.08,0.38,0
0.0047161,0.00081962,0.031232,0.0081524,0.011815,0.0013683,0,0,0.050484,-0.0095239,0,0.007115,0,0,0,0.031317,0.0080682,0.011815,3.385,0.017067,0.021622,4.6725e-07,0.1,0.38,0
0.0057388,0.00097707,0.031607,0.0073915,0.011699,0.0012689,0,0,0.051759,-0.011201,0,0.0065982,0,0,0,0.031676,0.0073219,0.011699,2.995,0.016899,0.022489,5.1057e-07,0.12,0.38,0
0.0067865,0.001129,0.031977,0.0066762,0.011596,0.0011513,0,0,0.052991,-0.012792,0,0.0059866,0,0,0,0.032033,0.0066208,0.011596,2.603,0.01675,0.023327,5.5349e-07,0.14,0.38,0
0.0078584,0.0012742,0.032345,0.0060101,0.011507,0.0010177,0,0,0.05418,-0.014291,0,0.0052921,0,0,0,0.032387,0.0059678,0.011507,2.2123,0.016621,0.024133,5.9586e-07,0.16,0.38,0
0.0089537,0.0014118,0.032711,0.0053972,0.011432,0.0008708,0,0,0.055324,-0.015692,0,0.0045282,0,0,0,0.032742,0.0053666,0.011432,1.8261,0.016514,0.024903,6.3759e-07,0.18,0.38,0
0.010071,0.0015409,0.033077,0.0048418,0.011376,0.00071352,0,0,0.056423,-0.016988,0,0.0037103,0,0,0,0.033098,0.004821,0.011376,1.448,0.016431,0.025636,6.7861e-07,0.2,0.38,0
0.011211,0.0016612,0.033444,0.004349,0.011338,0.0005492,0,0,0.057476,-0.018171,0,0.0028558,0,0,0,0.033457,0.0043358,0.011338,1.0817,0.016377,0.026329,7.1888e-07,0.22,0.38,0
0.01237,0.0017726,0.033815,0.0039251,0.011322,0.0003818,0,0,0.058482,-0.019232,0,0.0019854,0,0,0,0.033823,0.0039174,0.011322,0.73177,0.016354,0.026977,7.5831e-07,0.24,0.38,0
0.01355,0.0018754,0.034191,0.0035785,0.011331,0.00021642,0,0,0.059437,-0.020157,0,0.0011254,0,0,0,0.034196,0.0035742,0.011331,0.40443,0.016367,0.027574,7.967e-07,0.26,0.38,0
0.014748,0.0019705,0.034572,0.003321,0.011368,6.0222e-05,0,0,0.060331,-0.020922,0,0.00031315,0,0,0,0.034575,0.0033182,0.011368,0.1092,0.016421,0.02811,8.3358e-07,0.28,0.38,0
0.015963,0.0020592,0.034955,0.0031701,0.011437,-7.5851e-05,0,0,0.061145,-0.021495,0,-0.00039442,0,0,0,0.034957,0.0031674,0.011437,-0.13842,0.016521,0.028567,8.6797e-07,0.3,0.38,0
0.017194,0.0021442,0.035328,0.0031514,0.011544,-0.00017479,0,0,0.06184,-0.021821,0,-0.00090888,0,0,0,0.035332,0.0031482,0.011544,-0.31296,0.016675,0.028915,8.9793e-07,0.32,0.38,0
0.018437,0.002229,0.035672,0.0033024,0.011692,-0.0002118,0,0,0.062347,-0.021814,0,-0.0011014,0,0,0,0.035675,0.0032991,0.011692,-0.37574,0.016889,0.029102,9.199e-07,0.34,0.38,0
0.019688,0.0023188,0.03594,0.003677,0.011885,-0.00016043,0,0,0.062543,-0.021341,0,-0.00083423,0,0,0,0.035942,0.0036749,0.011885,-0.28334,0.017167,0.029046,9.2768e-07,0.36,0.38,0
0.020938,0.0024181,0.036075,0.0043588,0.01213,-2.385e-05,0,0,0.062257,-0.020206,0,-0.00012402,0,0,0,0.036076,0.0043579,0.01213,-0.03834,0.017522,0.028636,9.1284e-07,0.38,0.38,0
0.022178,0.0025263,0.036066,0.0043373,0.012121,0.00011253,0,0,0.058118,-0.01827,0,0.00057322,0,0,0,0.036068,0.0043361,0.012121,0.21107,0.017508,0.028663,9.078e-07,0.4,0.38,0
0.023263,0.0026296,0.036014,0.0024846,0.01155,8.6446e-05,0,0,0.047106,-0.016059,0,0.00052382,0,0,0,0.036015,0.0024829,0.01155,0.1738,0.016683,0.030084,9.6522e-07,0.42,0.38,0
0.024062,0.0027118,0.035994,0.00049563,0.010947,-0.00014055,0,0,0.036367,-0.01457,0,-0.0002665,0,0,0,0.035996,0.00049332,0.010947,-0.21042,0.015812,0.031619,1.0375e-06,0.44,0.38,0
0.024718,0.0027699,0.036006,1.1888e-05,0.010806,-0.00038128,0,0,0.032761,-0.014032,0,-0.00099133,0,0,0,0.036011,7.153e-06,0.010806,-0.60717,0.015608,0.032002,1.06e-06,0.46,0.38,0
0.025373,0.0028116,0.036079,0.00011994,0.01086,-0.00047637,0,0,0.032785,-0.013962,0,-0.0012386,0,0,0,0.036085,0.00011342,0.01086,-0.75795,0.015686,0.031983,1.0633e-06,0.48,0.38,0
0.026029,0.002845,0.036173,0.0001085,0.010884,-0.00044035,0,0,0.032875,-0.014009,0,-0.0011449,0,0,0,0.036178,0.00010294,0.010884,-0.69905,0.015722,0.032074,1.0719e-06,0.5,0.38,0
0.026688,0.0028759,0.036224,8.897e-05,0.010894,-0.00035317,0,0,0.032929,-0.014046,0,-0.00091824,0,0,0,0.036228,8.5373e-05,0.010894,-0.55988,0.015736,0.032132,1.0768e-06,0.52,0.38,0
0.027346,0.0029063,0.036236,8.3845e-05,0.010896,-0.00027128,0,0,0.032942,-0.014056,0,-0.00070532,0,0,0,0.036238,8.1725e-05,0.010896,-0.43001,0.015738,0.032144,1.0777e-06,0.54,0.38,0
0.028005,0.0029364,0.036225,7.0616e-05,0.010889,-0.00021435,0,0,0.032937,-0.014064,0,-0.00055732,0,0,0,0.036227,6.9306e-05,0.010889,-0.3398,0.015728,0.032143,1.0771e-06,0.56,0.38,0
0.028664,0.0029658,0.036213,1.7363e-05,0.010869,-0.00017966,0,0,0.032947,-0.014107,0,-0.00046713,0,0,0,0.036214,1.6455e-05,0.010869,-0.28448,0.0157,0.032174,1.0776e-06,0.58,0.38,0
0.029323,0.0029941,0.036212,-9.7145e-05,0.010834,-0.00015284,0,0,0.032991,-0.014211,0,-0.00039738,0,0,0,0.036212,-9.7803e-05,0.010834,-0.24125,0.01565,0.032265,1.0811e-06,0.6,0.38,0
0.029984,0.0030215,0.036224,-0.00027398,0.010785,-0.00011664,0,0,0.033071,-0.014377,0,-0.00030327,0,0,0,0.036224,-0.0002744,0.010785,-0.18323,0.015578,0.032416,1.0878e-06,0.62,0.38,0
0.030646,0.0030487,0.03624,-0.00049359,0.010724,-5.8487e-05,0,0,0.033171,-0.014583,0,-0.00015207,0,0,0,0.03624,-0.00049376,0.010724,-0.091488,0.01549,0.032606,1.0961e-06,0.64,0.38,0
0.03131,0.0030764,0.036242,-0.00072423,0.010655,2.0024e-05,0,0,0.033263,-0.014794,0,5.2062e-05,0,0,0,0.036242,-0.00072435,0.010655,0.03066,0.015391,0.032793,1.1034e-06,0.66,0.38,0
0.031976,0.0031046,0.036208,-0.00094151,0.01058,9.1408e-05,0,0,0.033316,-0.014978,0,0.00023766,0,0,0,0.036208,-0.00094185,0.01058,0.14062,0.015282,0.032937,1.1069e-06,0.68,0.38,0
0.032643,0.0031319,0.036102,-0.0011651,0.010481,9.2704e-05,0,0,0.033307,-0.01514,0,0.00024103,0,0,0,0.036103,-0.0011657,0.010481,0.14262,0.015139,0.033023,1.1041e-06,0.7,0.38,0
0.033309,0.0031541,0.035932,-0.0014852,0.010334,-4.0741e-06,0,0,0.033278,-0.015365,0,-1.0592e-05,0,0,0,0.035933,-0.0014861,0.010334,-0.0053774,0.014927,0.033131,1.0989e-06,0.72,0.38,0
0.033974,0.0031724,0.035523,-0.0012233,0.01029,-0.00021801,0,0,0.036386,-0.016069,0,-0.00086198,0,0,0,0.035528,-0.0012284,0.01029,-0.38968,0.014863,0.032579,1.0621e-06,0.74,0.38,0
0.034761,0.0031768,0.03549,0.00051509,0.010801,-0.00024815,0,0,0.04598,-0.017894,0,-0.0010199,0,0,0,0.035502,0.0005032,0.010801,-0.46197,0.015602,0.031191,1.0243e-06,0.76,0.38,0
0.035816,0.0031384,0.036137,0.0023014,0.011531,9.9693e-05,0,0,0.056985,-0.020698,0,0.00062592,0,0,0,0.036148,0.0022898,0.011531,0.17347,0.016656,0.030333,1.0294e-06,0.78,0.38,0
0.037056,0.0030748,0.036346,0.0023546,0.01161,0.00041066,0,0,0.062949,-0.023505,0,0.0021484,0,0,0,0.036354,0.0023466,0.01161,0.70787,0.01677,0.030453,1.026e-06,0.8,0.38,0
0.038343,0.0030369,0.036198,0.0014292,0.011288,0.00056488,0,0,0.064765,-0.025633,0,0.0029374,0,0,0,0.036208,0.0014192,0.011288,0.92856,0.016305,0.031055,1.031e-06,0.82,0.38,0
0.039646,0.0030297,0.03611,0.00063886,0.011025,0.00064514,0,0,0.065222,-0.027003,0,0.0033547,0,0,0,0.036123,0.0006262,0.011025,1.0436,0.015925,0.031608,1.0498e-06,0.84,0.38,0
0.040952,0.0030353,0.035886,8.8011e-05,0.010792,0.00062588,0,0,0.065243,-0.027831,0,0.0032546,0,0,0,0.035898,7.5925e-05,0.010792,1.0036,0.015589,0.031846,1.0478e-06,0.86,0.38,0
0.042256,0.003047,0.035628,-0.00030496,0.010597,0.00056705,0,0,0.06508,-0.028345,0,0.0029486,0,0,0,0.035638,-0.00031495,0.010597,0.90574,0.015307,0.031927,1.0372e-06,0.88,0.38,0
0.043556,0.0030609,0.035389,-0.0005859,0.010441,0.00048729,0,0,0.064865,-0.02867,0,0.0025339,0,0,0,0.035396,-0.00059334,0.010441,0.77734,0.015081,0.031936,1.0246e-06,0.9,0.38,0
0.044851,0.0030746,0.035187,-0.00078616,0.01032,0.0003964,0,0,0.064654,-0.028877,0,0.0020613,0,0,0,0.035192,-0.00079113,0.01032,0.63232,0.014907,0.031913,1.0128e-06,0.92,0.38,0
0.046142,0.0030865,0.035029,-0.00092599,0.010231,0.00029991,0,0,0.064475,-0.029008,0,0.0015595,0,0,0,0.035032,-0.00092891,0.010231,0.47861,0.014778,0.031881,1.003e-06,0.94,0.38,0
0.04743,0.0030955,0.034915,-0.0010183,0.010169,0.0002008,0,0,0.06434,-0.029087,0,0.0010442,0,0,0,0.034917,-0.0010197,0.010169,0.32062,0.014689,0.031852,9.9579e-07,0.96,0.38,0
0.048715,0.0031012,0.034848,-0.0010709,0.010133,0.00010526,0,0,0.064258,-0.02913,0,0.00054738,0,0,0,0.034848,-0.0010713,0.010133,0.16813,0.014637,0.031832,9.9139e-07,0.98,0.38,0
0.049358,0.0031031,0.034825,-0.0010879,0.010121,5.9683e-05,0,0,0.06423,-0.029144,0,0.00031035,0,0,0,0.034825,-0.0010881,0.010121,0.095328,0.014619,0.031825,9.8992e-07,1,0.38,0
0.00044149,6.1111e-05,0.029664,0.012162,0.012548,0.0011714,0,0,0.044503,-0.0010037,0,0.0060911,0,0,0,0.029747,0.01208,0.012548,3.8096,0.018125,0.017441,2.7165e-07,0,0.4,0
0.00089006,0.00012319,0.029735,0.011651,0.012416,0.001168,0,0,0.045029,-0.0019879,0,0.0060736,0,0,0,0.029814,0.011572,0.012416,3.6824,0.017934,0.01784,2.8939e-07,0.02,0.4,0
0.0018012,0.00024883,0.029995,0.010702,0.012209,0.0011557,0,0,0.046244,-0.0039187,0,0.0060095,0,0,0,0.030068,0.010629,0.012209,3.4186,0.017635,0.018703,3.2819e-07,0.04,0.4,0
0.0027398,0.00037654,0.030373,0.0098434,0.012065,0.0011258,0,0,0.0476,-0.0057757,0,0.0058541,0,0,0,0.030438,0.0097784,0.012065,3.1325,0.017427,0.01962,3.7041e-07,0.06,0.4,0
0.0037052,0.00050465,0.030745,0.0090224,0.01193,0.0010728,0,0,0.048918,-0.0075602,0,0.0055784,0,0,0,0.030801,0.0089662,0.01193,2.8232,0.017232,0.020517,4.1274e-07,0.08,0.4,0
0.0046965,0.00063158,0.031112,0.00824,0.011806,0.00099793,0,0,0.050197,-0.0092706,0,0.0051892,0,0,0,0.031159,0.0081934,0.011806,2.4962,0.017053,0.021391,4.55e-07,0.1,0.4,0
0.0057131,0.00075593,0.031475,0.0074985,0.011692,0.00090279,0,0,0.051436,-0.010903,0,0.0046945,0,0,0,0.031512,0.0074616,0.011692,2.1556,0.016889,0.022241,4.9704e-07,0.12,0.4,0
0.006754,0.00087642,0.031834,0.0068006,0.01159,0.00078903,0,0,0.052633,-0.012453,0,0.004103,0,0,0,0.031862,0.0067729,0.01159,1.8055,0.016742,0.023062,5.3868e-07,0.14,0.4,0
0.0078184,0.000992,0.032189,0.0061497,0.011502,0.00065856,0,0,0.053788,-0.013915,0,0.0034245,0,0,0,0.032209,0.0061302,0.011502,1.4493,0.016614,0.023852,5.7979e-07,0.16,0.4,0
0.0089055,0.0011018,0.032542,0.0055494,0.011427,0.00051354,0,0,0.054898,-0.015283,0,0.0026704,0,0,0,0.032555,0.0055369,0.011427,1.0906,0.016506,0.024608,6.2024e-07,0.18,0.4,0
0.010014,0.0012053,0.032894,0.0050037,0.011369,0.00035647,0,0,0.055964,-0.01655,0,0.0018537,0,0,0,0.032901,0.0049965,0.011369,0.73265,0.016422,0.025327,6.5997e-07,0.2,0.4,0
0.011144,0.0013021,0.033246,0.0045173,0.011329,0.00019032,0,0,0.056984,-0.01771,0,0.00098964,0,0,0,0.03325,0.0045134,0.011329,0.37943,0.016364,0.026008,6.989e-07,0.22,0.4,0
0.012294,0.0013924,0.0336,0.0040958,0.011309,1.8869e-05,0,0,0.057958,-0.018754,0,9.8118e-05,0,0,0,0.033603,0.0040932,0.011309,0.035857,0.016335,0.026645,7.3701e-07,0.24,0.4,0
0.013462,0.0014767,0.03396,0.0037462,0.011312,-0.00015258,0,0,0.058885,-0.019671,0,-0.0007934,0,0,0,0.033963,0.0037428,0.011312,-0.29085,0.016339,0.027237,7.7422e-07,0.26,0.4,0
0.014649,0.0015562,0.034328,0.0034779,0.011342,-0.00031604,0,0,0.059764,-0.020446,0,-0.0016434,0,0,0,0.034334,0.003472,0.011342,-0.58918,0.016383,0.027776,8.1038e-07,0.28,0.4,0
0.015853,0.0016331,0.034708,0.0033039,0.011403,-0.00045884,0,0,0.060591,-0.021059,0,-0.002386,0,0,0,0.034717,0.0032945,0.011403,-0.83994,0.016472,0.028255,8.4521e-07,0.3,0.4,0
0.017073,0.0017106,0.035102,0.0032427,0.011504,-0.0005605,0,0,0.061357,-0.021478,0,-0.0029146,0,0,0,0.035115,0.0032302,0.011504,-1.011,0.016616,0.028658,8.7813e-07,0.32,0.4,0
0.018307,0.0017938,0.035515,0.0033218,0.011651,-0.00058862,0,0,0.062046,-0.021656,0,-0.0030608,0,0,0,0.035528,0.0033083,0.011651,-1.0499,0.016829,0.028964,9.0797e-07,0.34,0.4,0
0.019555,0.0018901,0.03593,0.003584,0.011854,-0.00049671,0,0,0.062597,-0.021502,0,-0.0025829,0,0,0,0.035941,0.0035731,0.011854,-0.8791,0.017123,0.029124,9.3147e-07,0.36,0.4,0
0.020811,0.0020091,0.036273,0.0041151,0.012116,-0.00025087,0,0,0.062806,-0.020803,0,-0.0013045,0,0,0,0.036278,0.0041092,0.012116,-0.43845,0.017501,0.029008,9.3891e-07,0.38,0.4,0
0.022067,0.002156,0.036412,0.0040498,0.012138,2.9149e-05,0,0,0.058957,-0.019027,0,0.00019758,0,0,0,0.036416,0.0040458,0.012138,0.07266,0.017533,0.029197,9.4673e-07,0.4,0.4,0
0.023169,0.0023077,0.036443,0.0024814,0.011677,0.00011218,0,0,0.047782,-0.016398,0,0.00069053,0,0,0,0.036448,0.0024764,0.011677,0.22997,0.016867,0.030472,1.0014e-06,0.42,0.4,0
0.023978,0.002422,0.036541,0.00079678,0.011201,-9.6577e-05,0,0,0.036823,-0.014528,0,-8.8029e-05,0,0,0,0.036546,0.00079188,0.011201,-0.13057,0.01618,0.03187,1.0762e-06,0.44,0.4,0
0.024642,0.0024894,0.036605,0.0002139,0.011046,-0.0004073,0,0,0.033227,-0.014081,0,-0.001059,0,0,0,0.036612,0.00020745,0.011046,-0.64114,0.015955,0.032376,1.1079e-06,0.46,0.4,0
0.025307,0.0025306,0.036598,9.5294e-05,0.011008,-0.00052781,0,0,0.033267,-0.014187,0,-0.0013723,0,0,0,0.036606,8.7514e-05,0.011008,-0.82861,0.015901,0.032466,1.1113e-06,0.48,0.4,0
0.025973,0.0025627,0.036576,4.5119e-06,0.010974,-0.00044972,0,0,0.033283,-0.014261,0,-0.0011693,0,0,0,0.036582,-1.3299e-06,0.010974,-0.70511,0.015852,0.032516,1.1117e-06,0.5,0.4,0
0.026638,0.002593,0.036525,-1.2222e-05,0.010954,-0.00032487,0,0,0.033243,-0.014256,0,-0.00084467,0,0,0,0.036528,-1.5418e-05,0.010954,-0.50985,0.015822,0.032479,1.1071e-06,0.52,0.4,0
0.027303,0.0026238,0.036458,1.9084e-05,0.010943,-0.00022442,0,0,0.03317,-0.014201,0,-0.00058349,0,0,0,0.03646,1.7523e-05,0.010943,-0.35318,0.015807,0.032392,1.0998e-06,0.54,0.4,0
0.027965,0.0026542,0.036396,4.469e-05,0.010932,-0.00017217,0,0,0.033103,-0.014154,0,-0.00044764,0,0,0,0.036397,4.3803e-05,0.010932,-0.27158,0.015791,0.032316,1.0932e-06,0.56,0.4,0
0.028627,0.0026829,0.036355,1.3325e-05,0.010911,-0.00015917,0,0,0.033078,-0.014166,0,-0.00041383,0,0,0,0.036356,1.2606e-05,0.010911,-0.25102,0.01576,0.032304,1.0905e-06,0.58,0.4,0
0.029288,0.0027092,0.036345,-0.00010215,0.010873,-0.00016095,0,0,0.033114,-0.014267,0,-0.00041848,0,0,0,0.036346,-0.00010287,0.010873,-0.25299,0.015705,0.032387,1.0933e-06,0.6,0.4,0
0.029951,0.0027331,0.036366,-0.00030266,0.010819,-0.0001487,0,0,0.033211,-0.014458,0,-0.00038663,0,0,0,0.036366,-0.0003033,0.010819,-0.23237,0.015627,0.032566,1.1015e-06,0.62,0.4,0
0.030617,0.0027558,0.036405,-0.00056223,0.010753,-9.8353e-05,0,0,0.033348,-0.01471,0,-0.00025572,0,0,0,0.036405,-0.00056261,0.010753,-0.15266,0.015532,0.032808,1.1132e-06,0.64,0.4,0
0.031285,0.002779,0.03644,-0.0008291,0.010683,-1.5452e-06,0,0,0.033483,-0.014966,0,-4.0175e-06,0,0,0,0.03644,-0.00082933,0.010683,-0.0027885,0.015431,0.033053,1.1247e-06,0.66,0.4,0
0.031956,0.0028038,0.03643,-0.0010472,0.010615,0.0001194,0,0,0.03356,-0.015161,0,0.00031044,0,0,0,0.036431,-0.0010479,0.010615,0.18211,0.015333,0.03322,1.1306e-06,0.68,0.4,0
0.032628,0.002829,0.036329,-0.0011885,0.010542,0.00020711,0,0,0.033523,-0.01525,0,0.00053847,0,0,0,0.036331,-0.00119,0.010542,0.31522,0.015228,0.033246,1.1261e-06,0.7,0.4,0
0.033297,0.0028496,0.036168,-0.0012975,0.010461,0.00014735,0,0,0.033419,-0.015286,0,0.00038311,0,0,0,0.03617,-0.0012997,0.010461,0.22439,0.01511,0.033191,1.115e-06,0.72,0.4,0
0.033964,0.0028524,0.03596,-0.0010433,0.010475,-6.6075e-05,0,0,0.037063,-0.016134,0,-0.00041548,0,0,0,0.035965,-0.001048,0.010475,-0.13273,0.015131,0.032827,1.08e-06,0.74,0.4,0
0.03478,0.0028094,0.035825,0.00033854,0.010849,-0.00018263,0,0,0.048244,-0.018848,0,-0.0010062,0,0,0,0.035833,0.00033054,0.010849,-0.34377,0.015671,0.031631,1.015e-06,0.76,0.4,0
0.035894,0.0027102,0.035911,0.0019429,0.011356,-1.4324e-05,0,0,0.059664,-0.022155,0,-0.00013865,0,0,0,0.035918,0.0019361,0.011356,-0.041217,0.016403,0.030411,9.7868e-07,0.78,0.4,0
0.037166,0.0025996,0.035984,0.0020771,0.011418,0.00035246,0,0,0.063871,-0.024287,0,0.0018328,0,0,0,0.035992,0.0020692,0.011418,0.58973,0.016493,0.030349,9.9001e-07,0.8,0.4,0
0.038449,0.0025261,0.035888,0.0012902,0.011153,0.00070076,0,0,0.06431,-0.025645,0,0.003644,0,0,0,0.035904,0.0012742,0.011153,1.1556,0.016111,0.030899,1.0092e-06,0.82,0.4,0
0.039739,0.0024923,0.035722,0.00062435,0.010904,0.00087207,0,0,0.064527,-0.026727,0,0.0045348,0,0,0,0.035744,0.00060185,0.010904,1.4237,0.01575,0.031291,1.0177e-06,0.84,0.4,0
0.04103,0.0024818,0.035518,0.00013862,0.010697,0.00088001,0,0,0.064535,-0.027452,0,0.0045761,0,0,0,0.035541,0.00011585,0.010697,1.4268,0.015451,0.031497,1.0157e-06,0.86,0.4,0
0.04232,0.0024833,0.0353,-0.00021864,0.010525,0.00080556,0,0,0.064417,-0.027932,0,0.0041889,0,0,0,0.03532,-0.0002378,0.010525,1.3013,0.015202,0.031583,1.0076e-06,0.88,0.4,0
0.043607,0.0024908,0.035099,-0.00048149,0.010385,0.00069299,0,0,0.064256,-0.028254,0,0.0036035,0,0,0,0.035113,-0.00049577,0.010385,1.1175,0.015001,0.031606,9.9765e-07,0.9,0.4,0
0.04489,0.0025002,0.034929,-0.00067304,0.010277,0.00056279,0,0,0.064095,-0.028469,0,0.0029265,0,0,0,0.034938,-0.00068256,0.010277,0.90705,0.014844,0.0316,9.882e-07,0.92,0.4,0
0.046171,0.0025094,0.034794,-0.000809,0.010196,0.00042486,0,0,0.063957,-0.028612,0,0.0022093,0,0,0,0.0348,-0.00081456,0.010196,0.68473,0.014727,0.031583,9.803e-07,0.94,0.4,0
0.047448,0.0025168,0.034698,-0.00089976,0.01014,0.00028393,0,0,0.063852,-0.028702,0,0.0014764,0,0,0,0.034701,-0.0009024,0.01014,0.45767,0.014646,0.031566,9.7443e-07,0.96,0.4,0
0.048725,0.0025215,0.03464,-0.00095184,0.010107,0.00014607,0,0,0.063788,-0.028752,0,0.00075958,0,0,0,0.034641,-0.00095272,0.010107,0.23548,0.014598,0.031553,9.7085e-07,0.98,0.4,0
0.049362,0.0025231,0.034621,-0.00096882,0.010096,7.9063e-05,0,0,0.063766,-0.028768,0,0.00041113,0,0,0,0.034621,-0.00096912,0.010096,0.12744,0.014583,0.031549,9.6965e-07,1,0.4,0
0.00043993,4.1326e-05,0.029561,0.012134,0.012509,0.00079108,0,0,0.044337,-0.00097342,0,0.0041136,0,0,0,0.029601,0.012094,0.012509,2.5911,0.018068,0.017306,2.6556e-07,0,0.42,0
0.00088673,8.4001e-05,0.029629,0.011639,0.01238,0.00078949,0,0,0.044847,-0.0019284,0,0.0041053,0,0,0,0.029668,0.0116,0.01238,2.5077,0.017883,0.017695,2.8268e-07,0.02,0.42,0
0.0017939,0.00017157,0.029882,0.010717,0.01218,0.00078194,0,0,0.046025,-0.0038026,0,0.0040661,0,0,0,0.029917,0.010682,0.01218,2.3329,0.017593,0.018536,3.2013e-07,0.04,0.42,0
0.0027277,0.00026267,0.030247,0.0098825,0.012039,0.00075775,0,0,0.047341,-0.0056062,0,0.0039403,0,0,0,0.030278,0.0098511,0.012039,2.1289,0.017389,0.019429,3.6086e-07,0.06,0.42,0
0.0036875,0.00035559,0.030606,0.009084,0.011907,0.00070987,0,0,0.048617,-0.0073397,0,0.0036913,0,0,0,0.030632,0.0090576,0.011907,1.8882,0.017199,0.020303,4.0168e-07,0.08,0.42,0
0.0046724,0.00044879,0.03096,0.0083227,0.011785,0.00064004,0,0,0.049855,-0.0090013,0,0.0033282,0,0,0,0.030981,0.0083018,0.011785,1.6195,0.017022,0.021156,4.4242e-07,0.1,0.42,0
0.0056817,0.00054094,0.031308,0.0076006,0.011673,0.00054985,0,0,0.051052,-0.010587,0,0.0028592,0,0,0,0.031324,0.0075851,0.011673,1.3291,0.016861,0.021983,4.8289e-07,0.12,0.42,0
0.0067145,0.00063086,0.031651,0.0069205,0.011572,0.00044089,0,0,0.052207,-0.012093,0,0.0022926,0,0,0,0.031662,0.00691,0.011572,1.0219,0.016714,0.022783,5.229e-07,0.14,0.42,0
0.00777,0.00071761,0.031989,0.0062854,0.011482,0.0003148,0,0,0.053317,-0.013512,0,0.001637,0,0,0,0.031995,0.006279,0.011482,0.70221,0.016586,0.023551,5.6229e-07,0.16,0.42,0
0.0088472,0.00080044,0.032322,0.0056988,0.011406,0.00017337,0,0,0.054381,-0.014839,0,0.00090151,0,0,0,0.032326,0.0056952,0.011406,0.37333,0.016476,0.024285,6.0091e-07,0.18,0.42,0
0.0099453,0.0008789,0.032651,0.0051645,0.011345,1.8625e-05,0,0,0.055396,-0.016068,0,9.6848e-05,0,0,0,0.032653,0.0051621,0.011345,0.038608,0.016387,0.024981,6.3864e-07,0.2,0.42,0
0.011063,0.00095283,0.032977,0.0046866,0.011299,-0.00014695,0,0,0.056363,-0.017193,0,-0.00076415,0,0,0,0.03298,0.0046834,0.011299,-0.29838,0.016321,0.025638,6.7539e-07,0.22,0.42,0
0.0122,0.0010225,0.033303,0.0042697,0.011272,-0.00032012,0,0,0.057281,-0.018205,0,-0.0016646,0,0,0,0.033309,0.0042638,0.011272,-0.63307,0.016281,0.026253,7.1113e-07,0.24,0.42,0
0.013354,0.0010886,0.033631,0.0039192,0.011265,-0.00049626,0,0,0.058151,-0.019099,0,-0.0025805,0,0,0,0.033641,0.0039086,0.011265,-0.95885,0.016272,0.026823,7.4586e-07,0.26,0.42,0
0.014526,0.0011526,0.033966,0.003642,0.011282,-0.00066842,0,0,0.058977,-0.019865,0,-0.0034758,0,0,0,0.033983,0.0036248,0.011282,-1.2653,0.016297,0.027346,7.7963e-07,0.28,0.42,0
0.015713,0.0012169,0.034316,0.0034462,0.011329,-0.00082572,0,0,0.059767,-0.020494,0,-0.0042937,0,0,0,0.03434,0.0034216,0.011329,-1.5354,0.016363,0.027821,8.1267e-07,0.3,0.42,0
0.016916,0.0012851,0.034694,0.0033431,0.011411,-0.00095078,0,0,0.060535,-0.020977,0,-0.0049441,0,0,0,0.034725,0.0033116,0.011411,-1.7409,0.016483,0.028249,8.4544e-07,0.32,0.42,0
0.018135,0.0013628,0.035123,0.0033496,0.011542,-0.0010153,0,0,0.061312,-0.0213,0,-0.0052798,0,0,0,0.035159,0.0033138,0.011542,-1.8349,0.016672,0.028632,8.789e-07,0.34,0.42,0
0.019369,0.0014587,0.03564,0.0034974,0.011741,-0.00097095,0,0,0.062138,-0.021434,0,-0.0050489,0,0,0,0.035675,0.0034631,0.011741,-1.7353,0.01696,0.028973,9.1445e-07,0.36,0.42,0
0.02062,0.001586,0.03624,0.00385,0.012027,-0.00073367,0,0,0.062955,-0.02126,0,-0.0038151,0,0,0,0.036265,0.0038251,0.012027,-1.2984,0.017373,0.029216,9.4899e-07,0.38,0.42,0
0.021887,0.0017652,0.036993,0.0036656,0.012197,-0.00045053,0,0,0.059919,-0.020062,0,-0.002078,0,0,0,0.03701,0.0036482,0.012197,-0.74722,0.017619,0.030032,1.0336e-06,0.4,0.42,0
0.023025,0.0019737,0.037289,0.0023216,0.011883,-0.00019879,0,0,0.04949,-0.017525,0,-0.00065105,0,0,0,0.037305,0.0023057,0.011883,-0.26545,0.017165,0.031361,1.134e-06,0.42,0.42,0
0.023877,0.0021307,0.037009,0.00099817,0.011402,-3.4227e-05,0,0,0.038621,-0.015201,0,1.1676e-05,0,0,0,0.03702,0.00098764,0.011402,-0.0074904,0.01647,0.032132,1.1536e-06,0.44,0.42,0
0.024567,0.0022067,0.037104,0.00043296,0.011261,-0.00020824,0,0,0.034316,-0.01436,0,-0.00049359,0,0,0,0.03711,0.00042672,0.011261,-0.3113,0.016266,0.032644,1.1575e-06,0.46,0.42,0
0.025244,0.0022441,0.037219,0.0001075,0.011198,-0.00039961,0,0,0.033828,-0.014418,0,-0.001039,0,0,0,0.037225,0.00010179,0.011198,-0.61875,0.016175,0.033005,1.168e-06,0.48,0.42,0
0.02592,0.0022746,0.036996,-0.00010702,0.011067,-0.00033599,0,0,0.033708,-0.014526,0,-0.00087358,0,0,0,0.037,-0.00011076,0.011067,-0.52025,0.015985,0.032975,1.1538e-06,0.5,0.42,0
0.026593,0.0023056,0.036813,-0.00012481,0.011006,-0.00021168,0,0,0.033549,-0.014471,0,-0.00055037,0,0,0,0.036815,-0.00012656,0.011006,-0.32896,0.015898,0.032823,1.137e-06,0.52,0.42,0
0.027262,0.0023382,0.036673,-3.5917e-05,0.010991,-0.00012468,0,0,0.033387,-0.014335,0,-0.00032416,0,0,0,0.036674,-3.661e-05,0.010991,-0.19496,0.015876,0.032626,1.121e-06,0.54,0.42,0
0.027928,0.0023702,0.036567,4.3542e-05,0.010983,-0.00010064,0,0,0.033259,-0.014221,0,-0.00026167,0,0,0,0.036567,4.315e-05,0.010983,-0.15818,0.015865,0.032467,1.1086e-06,0.56,0.42,0
0.028592,0.0023991,0.036502,4.0455e-05,0.010963,-0.00012497,0,0,0.033201,-0.014199,0,-0.00032491,0,0,0,0.036502,3.9969e-05,0.010963,-0.19645,0.015835,0.032412,1.1028e-06,0.58,0.42,0
0.029256,0.0024234,0.036483,-7.4949e-05,0.010922,-0.0001662,0,0,0.033229,-0.014296,0,-0.00043212,0,0,0,0.036484,-7.574e-05,0.010922,-0.26031,0.015777,0.032488,1.1049e-06,0.6,0.42,0
0.029921,0.0024432,0.036509,-0.00030395,0.010861,-0.00019074,0,0,0.033341,-0.014515,0,-0.00049593,0,0,0,0.03651,-0.00030498,0.010861,-0.2967,0.015689,0.032694,1.1146e-06,0.62,0.42,0
0.03059,0.0024603,0.036571,-0.00061853,0.010786,-0.00016534,0,0,0.033521,-0.014826,0,-0.00042989,0,0,0,0.036572,-0.00061941,0.010786,-0.25491,0.015579,0.033002,1.1303e-06,0.64,0.42,0
0.031262,0.0024777,0.036656,-0.00094499,0.010713,-7.1143e-05,0,0,0.033726,-0.015156,0,-0.00018497,0,0,0,0.036657,-0.0009455,0.010713,-0.10882,0.015475,0.033338,1.1483e-06,0.66,0.42,0
0.031939,0.0024982,0.036765,-0.0011652,0.01068,7.4726e-05,0,0,0.033911,-0.015399,0,0.00019429,0,0,0,0.036766,-0.0011658,0.01068,0.11291,0.015427,0.033613,1.1655e-06,0.68,0.42,0
0.032619,0.0025219,0.036903,-0.0011878,0.010715,0.00018979,0,0,0.034045,-0.015473,0,0.00049346,0,0,0,0.036905,-0.0011897,0.010715,0.28648,0.015477,0.033756,1.1798e-06,0.7,0.42,0
0.033301,0.0025426,0.03675,-0.0011086,0.010692,7.7471e-05,0,0,0.034608,-0.015659,0,0.00014543,0,0,0,0.036754,-0.0011125,0.010692,0.10612,0.015445,0.033559,1.1745e-06,0.72,0.42,0
0.033998,0.002527,0.03666,-0.00088359,0.010733,-4.7224e-05,0,0,0.039123,-0.017023,0,-0.00030331,0,0,0,0.036669,-0.00089289,0.010733,-0.12295,0.015503,0.033324,1.1825e-06,0.74,0.42,0
0.034863,0.0024229,0.036949,0.00014919,0.01113,8.2242e-05,0,0,0.050306,-0.020213,0,7.3997e-05,0,0,0,0.036963,0.00013578,0.01113,0.054352,0.016076,0.032781,1.1766e-06,0.76,0.42,0
0.03602,0.0022522,0.036736,0.0014934,0.011469,0.00028604,0,0,0.061064,-0.023488,0,0.0012252,0,0,0,0.036749,0.0014809,0.011469,0.42988,0.016566,0.031504,1.089e-06,0.78,0.42,0
0.037313,0.0021033,0.036117,0.0017012,0.011345,0.00061754,0,0,0.064406,-0.025075,0,0.0032112,0,0,0,0.036135,0.0016828,0.011345,1.0244,0.016388,0.030781,1.0154e-06,0.8,0.42,0
0.038597,0.0020111,0.035634,0.0011286,0.011029,0.00096865,0,0,0.063974,-0.025741,0,0.005037,0,0,0,0.035664,0.0010983,0.011029,1.6081,0.01593,0.030825,9.949e-07,0.82,0.42,0
0.039872,0.0019606,0.035264,0.00062006,0.010765,0.0011078,0,0,0.063696,-0.026377,0,0.0057607,0,0,0,0.0353,0.00058349,0.010765,1.8327,0.01555,0.030911,9.8084e-07,0.84,0.42,0
0.041144,0.0019372,0.035016,0.00021326,0.010569,0.0010974,0,0,0.063563,-0.026924,0,0.0057065,0,0,0,0.035052,0.00017789,0.010569,1.8078,0.015266,0.031013,9.7262e-07,0.86,0.42,0
0.042415,0.0019297,0.034826,-0.00010135,0.010417,0.00099996,0,0,0.063462,-0.027348,0,0.0051998,0,0,0,0.034855,-0.00013072,0.010417,1.6417,0.015047,0.031084,9.6547e-07,0.88,0.42,0
0.043683,0.0019308,0.034668,-0.00034235,0.010298,0.00085861,0,0,0.063362,-0.027664,0,0.0044648,0,0,0,0.034689,-0.00036412,0.010298,1.4066,0.014874,0.031124,9.5851e-07,0.9,0.42,0
0.044949,0.0019358,0.034538,-0.00052356,0.010204,0.00069659,0,0,0.063268,-0.027893,0,0.0036223,0,0,0,0.034553,-0.00053804,0.010204,1.1396,0.01474,0.031142,9.5214e-07,0.92,0.42,0
0.046214,0.001942,0.034437,-0.00065517,0.010135,0.00052555,0,0,0.063186,-0.028053,0,0.0027329,0,0,0,0.034445,-0.00066361,0.010135,0.85915,0.014639,0.031147,9.4681e-07,0.94,0.42,0
0.047477,0.0019474,0.034364,-0.00074445,0.010086,0.00035109,0,0,0.063124,-0.028159,0,0.0018256,0,0,0,0.034368,-0.00074846,0.010086,0.57372,0.014569,0.031147,9.4283e-07,0.96,0.42,0
0.048739,0.0019511,0.034321,-0.00079619,0.010057,0.00017882,0,0,0.063085,-0.028219,0,0.00092985,0,0,0,0.034322,-0.00079753,0.010057,0.29214,0.014527,0.031145,9.4038e-07,0.98,0.42,0
0.049369,0.0019524,0.034306,-0.00081314,0.010048,9.4201e-05,0,0,0.063072,-0.028239,0,0.00048984,0,0,0,0.034307,-0.00081359,0.010048,0.15386,0.014514,0.031144,9.3956e-07,1,0.42,0
0.00043803,2.2174e-05,0.029435,0.012098,0.01246,0.00042309,0,0,0.044135,-0.00094071,0,0.0022,0,0,0,0.029449,0.012084,0.01246,1.3941,0.017998,0.017183,2.6002e-07,0,0.44,0
0.0008827,4.6052e-05,0.029501,0.011619,0.012336,0.0004233,0,0,0.044629,-0.0018646,0,0.0022012,0,0,0,0.029514,0.011605,0.012336,1.353,0.017818,0.01756,2.7645e-07,0.02,0.44,0
0.0017851,9.6721e-05,0.029744,0.010726,0.012141,0.00042072,0,0,0.045768,-0.0036791,0,0.0021877,0,0,0,0.029756,0.010713,0.012141,1.2645,0.017537,0.018375,3.1238e-07,0.04,0.44,0
0.0027134,0.0001523,0.030095,0.009916,0.012003,0.00040265,0,0,0.047039,-0.0054274,0,0.0020938,0,0,0,0.030106,0.0099049,0.012003,1.1415,0.017338,0.019242,3.5147e-07,0.06,0.44,0
0.0036667,0.00021106,0.030441,0.0091401,0.011874,0.00036072,0,0,0.048273,-0.0071087,0,0.0018758,0,0,0,0.030449,0.0091312,0.011874,0.9695,0.017152,0.02009,3.9063e-07,0.08,0.44,0
0.0046443,0.00027153,0.030779,0.0083996,0.011754,0.00029702,0,0,0.049466,-0.0087204,0,0.0015445,0,0,0,0.030786,0.008393,0.011754,0.76015,0.016977,0.020918,4.2967e-07,0.1,0.44,0
0.0056454,0.00033244,0.03111,0.0076968,0.011642,0.00021325,0,0,0.050617,-0.010258,0,0.0011089,0,0,0,0.031115,0.0076923,0.011642,0.52183,0.016816,0.02172,4.6837e-07,0.12,0.44,0
0.006669,0.00039272,0.031434,0.0070343,0.011541,0.00011098,0,0,0.051723,-0.011716,0,0.00057709,0,0,0,0.031437,0.0070314,0.011541,0.26059,0.01667,0.022494,5.0649e-07,0.14,0.44,0
0.0077143,0.00045152,0.03175,0.0064153,0.01145,-8.3411e-06,0,0,0.052781,-0.013089,0,-4.3372e-05,0,0,0,0.031752,0.0064131,0.01145,-0.019019,0.016538,0.023235,5.4383e-07,0.16,0.44,0
0.0087803,0.00050825,0.032058,0.0058431,0.01137,-0.00014321,0,0,0.053788,-0.014371,0,-0.00074467,0,0,0,0.032061,0.0058402,0.01137,-0.3134,0.016424,0.023941,5.8019e-07,0.18,0.44,0
0.0098658,0.00056255,0.032358,0.0053211,0.011304,-0.00029197,0,0,0.054741,-0.015555,0,-0.0015182,0,0,0,0.032363,0.0053159,0.011304,-0.6194,0.016328,0.024607,6.1539e-07,0.2,0.44,0
0.01097,0.0006144,0.03265,0.0048531,0.011251,-0.00045264,0,0,0.055638,-0.016634,0,-0.0023537,0,0,0,0.032659,0.0048437,0.011251,-0.93389,0.016251,0.02523,6.4929e-07,0.22,0.44,0
0.012091,0.00066417,0.032936,0.0044428,0.011214,-0.00062266,0,0,0.056478,-0.017604,0,-0.0032378,0,0,0,0.032951,0.0044272,0.011214,-1.2531,0.016197,0.025809,6.8179e-07,0.24,0.44,0
0.013229,0.00071274,0.033217,0.0040942,0.011193,-0.00079845,0,0,0.057262,-0.018458,0,-0.0041519,0,0,0,0.033241,0.0040704,0.011193,-1.5718,0.016168,0.026342,7.1285e-07,0.26,0.44,0
0.014382,0.00076164,0.033498,0.0038116,0.011193,-0.00097482,0,0,0.057993,-0.019191,0,-0.0050691,0,0,0,0.033532,0.0037777,0.011193,-1.8822,0.016167,0.026827,7.4254e-07,0.28,0.44,0
0.015549,0.00081332,0.033785,0.0035994,0.011215,-0.0011441,0,0,0.05868,-0.019801,0,-0.0059493,0,0,0,0.03383,0.0035541,0.011215,-2.1722,0.0162,0.027265,7.7109e-07,0.3,0.44,0
0.016729,0.00087149,0.034089,0.0034622,0.011265,-0.0012947,0,0,0.059341,-0.020288,0,-0.0067322,0,0,0,0.034146,0.0034054,0.011265,-2.4226,0.016272,0.027661,7.9909e-07,0.32,0.44,0
0.017922,0.00094175,0.034432,0.0034061,0.011351,-0.001408,0,0,0.060009,-0.020658,0,-0.0073215,0,0,0,0.034498,0.0033397,0.011351,-2.6019,0.016396,0.028025,8.2771e-07,0.34,0.44,0
0.019129,0.0010327,0.034849,0.0034429,0.011488,-0.00145,0,0,0.060739,-0.020916,0,-0.0075398,0,0,0,0.034919,0.0033723,0.011488,-2.6508,0.016593,0.028374,8.5912e-07,0.36,0.44,0
0.020352,0.0011586,0.035391,0.0036017,0.011698,-0.00132,0,0,0.061602,-0.02105,0,-0.0068638,0,0,0,0.035453,0.0035396,0.011698,-2.3937,0.016897,0.028717,8.9574e-07,0.38,0.44,0
0.021593,0.0013516,0.036612,0.0033559,0.01199,-0.0011401,0,0,0.060105,-0.020781,0,-0.0056131,0,0,0,0.036662,0.0033064,0.01199,-1.9907,0.01732,0.029979,1.0453e-06,0.4,0.44,0
0.022772,0.0016043,0.037546,0.0022384,0.011935,-0.00082153,0,0,0.052954,-0.019466,0,-0.0037315,0,0,0,0.037587,0.002198,0.011935,-1.3364,0.01724,0.031677,1.2351e-06,0.42,0.44,0
0.023741,0.0018152,0.036877,0.0010745,0.011386,-0.00025124,0,0,0.043222,-0.017179,0,-0.0012045,0,0,0,0.0369,0.0010515,0.011386,-0.37493,0.016446,0.031966,1.2205e-06,0.44,0.44,0
0.024508,0.0019166,0.036484,0.00046715,0.011085,-1.6262e-05,0,0,0.03669,-0.015282,0,-0.00012129,0,0,0,0.036491,0.00046007,0.011085,-0.025907,0.016012,0.032068,1.1466e-06,0.46,0.44,0
0.025198,0.0019539,0.037011,6.9291e-05,0.011124,-0.00013108,0,0,0.034324,-0.014649,0,-0.00036549,0,0,0,0.037014,6.6589e-05,0.011124,-0.20877,0.016068,0.032846,1.1623e-06,0.48,0.44,0
0.025877,0.0019816,0.037138,-0.00021025,0.011078,-0.00014208,0,0,0.033877,-0.014675,0,-0.00036942,0,0,0,0.037139,-0.00021165,0.011078,-0.2173,0.016002,0.033179,1.1702e-06,0.5,0.44,0
0.026553,0.0020142,0.036953,-0.00022562,0.011018,-6.2585e-05,0,0,0.033715,-0.014617,0,-0.00016272,0,0,0,0.036953,-0.00022615,0.011018,-0.096372,0.015915,0.033026,1.1531e-06,0.52,0.44,0
0.027225,0.0020504,0.036815,-6.2815e-05,0.011026,-1.2717e-05,0,0,0.033526,-0.014415,0,-3.3065e-05,0,0,0,0.036815,-6.3001e-05,0.011026,-0.019923,0.015926,0.032773,1.1349e-06,0.54,0.44,0
0.027894,0.0020853,0.036722,7.3599e-05,0.011039,-3.1366e-05,0,0,0.033388,-0.014255,0,-8.1552e-05,0,0,0,0.036722,7.3479e-05,0.011039,-0.049303,0.015945,0.03258,1.1218e-06,0.56,0.44,0
0.028561,0.002115,0.036662,8.7384e-05,0.011025,-8.9295e-05,0,0,0.033328,-0.014219,0,-0.00023217,0,0,0,0.036662,8.7084e-05,0.011025,-0.13995,0.015925,0.032516,1.1158e-06,0.58,0.44,0
0.029227,0.0021373,0.036636,-2.7599e-05,0.010983,-0.00015759,0,0,0.033349,-0.014313,0,-0.00040974,0,0,0,0.036637,-2.835e-05,0.010983,-0.24609,0.015864,0.032586,1.1173e-06,0.6,0.44,0
0.029895,0.0021525,0.036644,-0.00027375,0.010911,-0.00021478,0,0,0.033453,-0.01454,0,-0.00055842,0,0,0,0.036645,-0.00027504,0.010911,-0.33302,0.01576,0.032791,1.126e-06,0.62,0.44,0
0.030565,0.0021628,0.036683,-0.0006488,0.01081,-0.0002285,0,0,0.033635,-0.014897,0,-0.00059411,0,0,0,0.036684,-0.00065027,0.01081,-0.3508,0.015615,0.033127,1.1416e-06,0.64,0.44,0
0.03124,0.0021728,0.036763,-0.001058,0.010711,-0.00016314,0,0,0.033867,-0.0153,0,-0.00042416,0,0,0,0.036764,-0.001059,0.010711,-0.24793,0.015472,0.033525,1.1618e-06,0.66,0.44,0
0.03192,0.0021878,0.03689,-0.0012948,0.010679,-4.9512e-05,0,0,0.034075,-0.015565,0,-0.00012873,0,0,0,0.036891,-0.0012955,0.010679,-0.075266,0.015425,0.033828,1.1813e-06,0.68,0.44,0
0.032603,0.0022101,0.03673,-0.0012583,0.010642,-5.3151e-06,0,0,0.034596,-0.015777,0,6.1108e-06,0,0,0,0.036732,-0.00126,0.010642,-0.0011209,0.015371,0.033658,1.1784e-06,0.7,0.44,0
0.033299,0.002225,0.03621,-0.0011161,0.010528,-7.9359e-05,0,0,0.037119,-0.01679,0,-0.00017088,0,0,0,0.036216,-0.0011221,0.010528,-0.12202,0.015207,0.033089,1.1724e-06,0.72,0.44,0
0.034077,0.0021727,0.036616,-0.00082936,0.010736,0.00012432,0,0,0.043908,-0.019323,0,0.00069558,0,0,0,0.036634,-0.00084705,0.010736,0.154,0.015508,0.033246,1.2614e-06,0.74,0.44,0
0.035063,0.0019978,0.037311,0.00010919,0.011226,0.00061727,0,0,0.053958,-0.02239,0,0.0027876,0,0,0,0.037339,8.1572e-05,0.011226,0.93714,0.016215,0.033137,1.2899e-06,0.76,0.44,0
0.036265,0.0017682,0.036448,0.0011926,0.011292,0.00090337,0,0,0.061423,-0.024352,0,0.0044237,0,0,0,0.036481,0.0011604,0.011292,1.4844,0.016311,0.031509,1.107e-06,0.78,0.44,0
0.037536,0.0015966,0.035312,0.0013557,0.011,0.0011191,0,0,0.06321,-0.025076,0,0.0058195,0,0,0,0.035355,0.0013126,0.011,1.8994,0.015889,0.03038,9.6392e-07,0.8,0.44,0
0.038793,0.0014965,0.034856,0.00096981,0.010748,0.0013159,0,0,0.062681,-0.025422,0,0.0068425,0,0,0,0.034909,0.00091649,0.010748,2.2285,0.015524,0.030298,9.3908e-07,0.82,0.44,0
0.040043,0.0014372,0.034552,0.00062306,0.010552,0.0013383,0,0,0.062398,-0.025817,0,0.0069592,0,0,0,0.034606,0.0005694,0.010552,2.2604,0.015242,0.030304,9.2472e-07,0.84,0.44,0
0.041289,0.0014048,0.034355,0.0003074,0.010399,0.001269,0,0,0.062287,-0.026238,0,0.006599,0,0,0,0.034403,0.00025951,0.010399,2.1354,0.015021,0.030371,9.1749e-07,0.86,0.44,0
0.042534,0.0013894,0.034221,3.967e-05,0.010278,0.0011393,0,0,0.062252,-0.026621,0,0.0059244,0,0,0,0.03426,1.0959e-06,0.010278,1.9099,0.014846,0.03045,9.1339e-07,0.88,0.44,0
0.043779,0.0013842,0.034121,-0.00017743,0.010183,0.00097369,0,0,0.062238,-0.026937,0,0.0050632,0,0,0,0.034149,-0.00020571,0.010183,1.6272,0.014709,0.030517,9.1029e-07,0.9,0.44,0
0.045024,0.0013845,0.034041,-0.00034716,0.010108,0.00078908,0,0,0.062225,-0.027184,0,0.0041032,0,0,0,0.03406,-0.00036592,0.010108,1.3156,0.014601,0.030566,9.0758e-07,0.92,0.44,0
0.046268,0.0013872,0.033979,-0.00047382,0.010052,0.0005954,0,0,0.062212,-0.027366,0,0.0030961,0,0,0,0.03399,-0.00048474,0.010052,0.99102,0.014519,0.030599,9.0526e-07,0.94,0.44,0
0.047512,0.0013904,0.033935,-0.00056132,0.010012,0.00039791,0,0,0.062199,-0.027491,0,0.0020691,0,0,0,0.03394,-0.00056652,0.010012,0.66159,0.014462,0.03062,9.0347e-07,0.96,0.44,0
0.048756,0.0013927,0.033908,-0.00061261,0.0099886,0.00020129,0,0,0.06219,-0.027563,0,0.0010467,0,0,0,0.03391,-0.00061435,0.0099886,0.33445,0.014428,0.030631,9.0233e-07,0.98,0.44,0
0.049378,0.0013936,0.033899,-0.00062951,0.0099808,0.00010393,0,0,0.062187,-0.027587,0,0.00054043,0,0,0,0.0339,-0.00063009,0.0099808,0.1726,0.014417,0.030635,9.0195e-07,1,0.44,0
0.00043583,3.6975e-06,0.029289,0.012054,0.012403,6.8178e-05,0,0,0.043903,-0.00090641,0,0.00035452,0,0,0,0.029292,0.01205,0.012403,0.2233,0.017915,0.017071,2.5502e-07,0,0.46,0
0.00087806,9.4176e-06,0.029352,0.011591,0.012283,7.0261e-05,0,0,0.044379,-0.0017979,0,0.00036536,0,0,0,0.029355,0.011588,0.012283,0.22251,0.017742,0.017435,2.7072e-07,0.02,0.46,0
0.0017752,2.4406e-05,0.029585,0.010728,0.012094,7.286e-05,0,0,0.045477,-0.003551,0,0.00037887,0,0,0,0.029589,0.010725,0.012094,0.21696,0.017469,0.018222,3.0503e-07,0.04,0.46,0
0.0026971,4.5575e-05,0.029923,0.0099431,0.01196,6.148e-05,0,0,0.046704,-0.0052433,0,0.0003197,0,0,0,0.029926,0.0099401,0.01196,0.17343,0.017275,0.019059,3.4236e-07,0.06,0.46,0
0.0036433,7.1237e-05,0.030253,0.0091894,0.011833,2.6601e-05,0,0,0.047892,-0.0068724,0,0.00013832,0,0,0,0.030255,0.0091867,0.011833,0.070446,0.017092,0.019881,3.7977e-07,0.08,0.46,0
0.0046128,9.9977e-05,0.030574,0.0084692,0.011713,-2.9424e-05,0,0,0.04904,-0.0084342,0,-0.000153,0,0,0,0.030577,0.0084667,0.011713,-0.07759,0.016919,0.020681,4.17e-07,0.1,0.46,0
0.0056049,0.00013062,0.030887,0.007785,0.011602,-0.00010472,0,0,0.050142,-0.0099233,0,-0.00054454,0,0,0,0.03089,0.0077823,0.011602,-0.2607,0.016758,0.021456,4.5379e-07,0.12,0.46,0
0.0066185,0.00016221,0.03119,0.0071397,0.011499,-0.00019772,0,0,0.051196,-0.011334,0,-0.0010282,0,0,0,0.031193,0.007136,0.011499,-0.47186,0.016609,0.022201,4.8986e-07,0.14,0.46,0
0.0076527,0.00019404,0.031481,0.0065364,0.011405,-0.00030705,0,0,0.052197,-0.012659,0,-0.0015967,0,0,0,0.031487,0.0065307,0.011405,-0.70598,0.016474,0.022912,5.2494e-07,0.16,0.46,0
0.0087064,0.00022561,0.03176,0.0059784,0.011322,-0.00043138,0,0,0.053141,-0.013892,0,-0.0022432,0,0,0,0.031769,0.0059694,0.011322,-0.95926,0.016353,0.023585,5.5878e-07,0.18,0.46,0
0.0097784,0.00025671,0.032026,0.0054691,0.011249,-0.00056929,0,0,0.054022,-0.015027,0,-0.0029603,0,0,0,0.03204,0.0054552,0.011249,-1.2286,0.016248,0.024215,5.9112e-07,0.2,0.46,0
0.010867,0.00028745,0.032279,0.0050115,0.011187,-0.00071915,0,0,0.054839,-0.016057,0,-0.0037396,0,0,0,0.032299,0.004991,0.011187,-1.5112,0.016159,0.024799,6.2174e-07,0.22,0.46,0
0.011972,0.00031832,0.032517,0.004609,0.011138,-0.00087886,0,0,0.055587,-0.016975,0,-0.0045701,0,0,0,0.032547,0.0045798,0.011138,-1.8038,0.016088,0.025333,6.5045e-07,0.24,0.46,0
0.013091,0.00035028,0.032742,0.0042643,0.011102,-0.0010456,0,0,0.056264,-0.017778,0,-0.0054373,0,0,0,0.032782,0.0042245,0.011102,-2.1024,0.016036,0.025815,6.7707e-07,0.26,0.46,0
0.014222,0.00038496,0.032953,0.0039797,0.01108,-0.0012155,0,0,0.05687,-0.01846,0,-0.0063207,0,0,0,0.033005,0.0039274,0.01108,-2.4012,0.016004,0.026243,7.0151e-07,0.28,0.46,0
0.015366,0.00042482,0.033152,0.0037566,0.011073,-0.0013829,0,0,0.057407,-0.019022,0,-0.0071911,0,0,0,0.033219,0.0036904,0.011073,-2.6914,0.015994,0.026616,7.2373e-07,0.3,0.46,0
0.016519,0.00047352,0.033342,0.0035946,0.011081,-0.0015395,0,0,0.057879,-0.019465,0,-0.0080052,0,0,0,0.033423,0.0035139,0.011081,-2.9597,0.016006,0.026935,7.4376e-07,0.32,0.46,0
0.017681,0.00053649,0.033525,0.0034898,0.011104,-0.0016716,0,0,0.058293,-0.019798,0,-0.0086925,0,0,0,0.033618,0.0033959,0.011104,-3.1825,0.01604,0.0272,7.6169e-07,0.34,0.46,0
0.01885,0.00062204,0.033698,0.0034305,0.011138,-0.001752,0,0,0.058654,-0.020041,0,-0.0091103,0,0,0,0.0338,0.0033283,0.011138,-3.3106,0.016089,0.027414,7.7743e-07,0.36,0.46,0
0.020027,0.00074403,0.033892,0.0033971,0.011187,-0.0017059,0,0,0.059033,-0.020253,0,-0.0088704,0,0,0,0.033989,0.0032997,0.011187,-3.2059,0.016158,0.027604,7.9306e-07,0.38,0.46,0
0.021212,0.00093001,0.034535,0.0030607,0.011279,-0.0015813,0,0,0.059026,-0.020797,0,-0.0081065,0,0,0,0.034617,0.0029782,0.011279,-2.9063,0.016291,0.028414,8.7655e-07,0.4,0.46,0
0.022396,0.0011874,0.035664,0.0020861,0.011325,-0.0013855,0,0,0.056537,-0.021264,0,-0.0068916,0,0,0,0.035734,0.0020165,0.011325,-2.4346,0.016358,0.030163,1.0567e-06,0.42,0.46,0
0.023501,0.0014416,0.035943,0.0009815,0.011077,-0.00094944,0,0,0.049819,-0.020036,0,-0.0046408,0,0,0,0.035996,0.00092881,0.011077,-1.6257,0.016001,0.031256,1.1562e-06,0.44,0.46,0
0.02442,0.0015986,0.035298,0.00029337,0.010677,-0.00043975,0,0,0.041439,-0.017374,0,-0.0021916,0,0,0,0.035326,0.00026486,0.010677,-0.7946,0.015423,0.031188,1.1046e-06,0.46,0.46,0
0.025166,0.0016596,0.035459,-0.00014934,0.010593,-0.00015589,0,0,0.035826,-0.015438,0,-0.00078397,0,0,0,0.035469,-0.00015916,0.010593,-0.32589,0.015301,0.031653,1.0757e-06,0.48,0.46,0
0.025845,0.0016876,0.036354,-0.00040326,0.010785,-6.0824e-05,0,0,0.033886,-0.014825,0,-0.00023838,0,0,0,0.036356,-0.00040513,0.010785,-0.12199,0.015579,0.032638,1.1178e-06,0.5,0.46,0
0.026517,0.001721,0.036807,-0.00031143,0.010949,-1.2828e-05,0,0,0.033616,-0.014638,0,-3.3353e-05,0,0,0,0.036808,-0.00031169,0.010949,-0.019963,0.015815,0.032965,1.1425e-06,0.52,0.46,0
0.02719,0.0017616,0.036868,-5.1356e-05,0.011045,-2.8195e-06,0,0,0.03357,-0.014425,0,-7.3308e-06,0,0,0,0.036868,-5.1618e-05,0.011045,-0.0045565,0.015954,0.032811,1.1393e-06,0.54,0.46,0
0.02786,0.0018001,0.036896,0.0001019,0.011099,-3.9992e-05,0,0,0.033536,-0.014297,0,-0.00010398,0,0,0,0.036896,0.00010167,0.011099,-0.062037,0.016033,0.032713,1.137e-06,0.56,0.46,0
0.028531,0.0018304,0.036912,0.00010272,0.011104,-7.9717e-05,0,0,0.03355,-0.014302,0,-0.00020726,0,0,0,0.036912,0.00010246,0.011104,-0.12398,0.01604,0.032726,1.1385e-06,0.58,0.46,0
0.029202,0.0018509,0.036882,-1.1837e-05,0.011061,-0.00011166,0,0,0.033567,-0.014395,0,-0.0002903,0,0,0,0.036882,-1.2333e-05,0.011061,-0.17383,0.015977,0.032792,1.1395e-06,0.6,0.46,0
0.029874,0.0018616,0.036807,-0.00024533,0.010968,-0.00015079,0,0,0.03359,-0.014578,0,-0.00039206,0,0,0,0.036808,-0.00024629,0.010968,-0.23347,0.015843,0.032912,1.1401e-06,0.62,0.46,0
0.030546,0.0018645,0.03672,-0.00064294,0.010823,-0.00018304,0,0,0.033666,-0.014906,0,-0.00047591,0,0,0,0.036722,-0.00064426,0.010823,-0.28047,0.015634,0.033155,1.1448e-06,0.64,0.46,0
0.03122,0.0018657,0.036605,-0.0011631,0.010632,-0.00015645,0,0,0.033764,-0.015334,0,-0.00040678,0,0,0,0.036606,-0.0011642,0.010632,-0.23733,0.015358,0.033469,1.1503e-06,0.66,0.46,0
0.031896,0.0018756,0.036112,-0.0015092,0.010381,-7.5171e-05,0,0,0.034104,-0.015761,0,-0.00011829,0,0,0,0.036114,-0.0015112,0.010381,-0.086982,0.014994,0.033311,1.1291e-06,0.68,0.46,0
0.03258,0.0018925,0.035207,-0.0014926,0.010114,5.0738e-05,0,0,0.036167,-0.016709,0,0.00048018,0,0,0,0.035215,-0.001501,0.010114,0.15229,0.014609,0.032504,1.093e-06,0.7,0.46,0
0.033334,0.0018747,0.035049,-0.0013256,0.010117,0.00031792,0,0,0.04199,-0.019195,0,0.0017391,0,0,0,0.035071,-0.0013477,0.010117,0.56934,0.014614,0.032253,1.1319e-06,0.72,0.46,0
0.034268,0.0017514,0.035705,-0.00092073,0.010435,0.00075714,0,0,0.050658,-0.022598,0,0.0037884,0,0,0,0.035743,-0.00095812,0.010435,1.2409,0.015073,0.032537,1.1961e-06,0.74,0.46,0
0.035393,0.0015177,0.035468,3.271e-05,0.01065,0.0011271,0,0,0.057672,-0.024493,0,0.0056305,0,0,0,0.035514,-1.2861e-05,0.01065,1.8771,0.015384,0.031578,1.1062e-06,0.76,0.46,0
0.036603,0.0012732,0.034399,0.00093167,0.010599,0.0013046,0,0,0.060413,-0.024487,0,0.0066875,0,0,0,0.034452,0.00087838,0.010599,2.2566,0.01531,0.029923,9.3159e-07,0.78,0.46,0
0.037818,0.0011003,0.033811,0.0011076,0.010476,0.0014472,0,0,0.060672,-0.024357,0,0.0075254,0,0,0,0.033877,0.001042,0.010476,2.5377,0.015132,0.029281,8.5535e-07,0.8,0.46,0
0.03903,0.00099425,0.033689,0.00089726,0.010376,0.0015232,0,0,0.060613,-0.024644,0,0.0079206,0,0,0,0.03376,0.00082617,0.010376,2.6586,0.014987,0.029348,8.5173e-07,0.82,0.46,0
0.040242,0.00092792,0.033616,0.00066263,0.010283,0.0014725,0,0,0.060663,-0.025014,0,0.007657,0,0,0,0.033682,0.00059657,0.010283,2.5569,0.014854,0.029461,8.5182e-07,0.84,0.46,0
0.041456,0.00088772,0.033559,0.00042074,0.010194,0.0013607,0,0,0.06075,-0.02541,0,0.0070756,0,0,0,0.033615,0.00036453,0.010194,2.35,0.014725,0.029587,8.5304e-07,0.86,0.46,0
0.042672,0.00086492,0.03352,0.00019603,0.010115,0.0012087,0,0,0.060853,-0.025788,0,0.0062855,0,0,0,0.033564,0.00015171,0.010115,2.0768,0.01461,0.029711,8.5485e-07,0.88,0.46,0
0.04389,0.00085331,0.03349,2.4048e-06,0.010048,0.00103,0,0,0.060951,-0.026118,0,0.0053559,0,0,0,0.033523,-2.9849e-05,0.010048,1.7617,0.014514,0.02982,8.5658e-07,0.9,0.46,0
0.04511,0.00084848,0.033467,-0.00015517,0.0099936,0.00083485,0,0,0.061031,-0.026387,0,0.0043412,0,0,0,0.033488,-0.00017653,0.0099936,1.4228,0.014435,0.029906,8.5786e-07,0.92,0.46,0
0.046332,0.00084733,0.033448,-0.00027601,0.0099516,0.00063068,0,0,0.061091,-0.026592,0,0.0032795,0,0,0,0.033461,-0.00028846,0.0099516,1.072,0.014375,0.029971,8.5867e-07,0.94,0.46,0
0.047554,0.0008478,0.033434,-0.00036103,0.0099218,0.00042202,0,0,0.061131,-0.026735,0,0.0021945,0,0,0,0.03344,-0.00036696,0.0099218,0.71598,0.014331,0.030015,8.5911e-07,0.96,0.46,0
0.048777,0.00084857,0.033424,-0.00041144,0.0099039,0.0002123,0,0,0.061153,-0.02682,0,0.001104,0,0,0,0.033426,-0.00041342,0.0099039,0.35977,0.014306,0.030041,8.5932e-07,0.98,0.46,0
0.049388,0.00084891,0.033421,-0.00042813,0.009898,0.00010763,0,0,0.061161,-0.026848,0,0.0005597,0,0,0,0.033422,-0.00042879,0.009898,0.18226,0.014297,0.030049,8.5938e-07,1,0.46,0
0.00043338,-1.4082e-05,0.029125,0.012004,0.012339,-0.0002732,0,0,0.043646,-0.00087153,0,-0.0014206,0,0,0,0.029133,0.011996,0.012339,-0.91744,0.017823,0.016971,2.5058e-07,0,0.48,0
0.00087291,-2.5865e-05,0.029186,0.011558,0.012223,-0.00026919,0,0,0.044104,-0.0017304,0,-0.0013998,0,0,0,0.029193,0.01155,0.012223,-0.88037,0.017656,0.017321,2.655e-07,0.02,0.48,0
0.0017641,-4.5319e-05,0.02941,0.010724,0.01204,-0.0002612,0,0,0.045161,-0.0034219,0,-0.0013583,0,0,0,0.029417,0.010717,0.01204,-0.80705,0.017391,0.018078,2.9814e-07,0.04,0.48,0
0.0026794,-5.7437e-05,0.029733,0.0099629,0.011909,-0.00026524,0,0,0.046343,-0.0050591,0,-0.0013792,0,0,0,0.029739,0.0099567,0.011909,-0.773,0.017201,0.018885,3.3367e-07,0.06,0.48,0
0.0036179,-6.3837e-05,0.030047,0.0092305,0.011783,-0.00029182,0,0,0.047486,-0.0066372,0,-0.0015174,0,0,0,0.030054,0.0092241,0.011783,-0.80625,0.01702,0.019678,3.6929e-07,0.08,0.48,0
0.0045788,-6.5838e-05,0.030352,0.0085296,0.011664,-0.00033834,0,0,0.048587,-0.0081507,0,-0.0017593,0,0,0,0.030359,0.0085221,0.011664,-0.8905,0.016849,0.02045,4.0467e-07,0.1,0.48,0
0.0055613,-6.4497e-05,0.030645,0.0078629,0.011552,-0.00040278,0,0,0.049641,-0.0095929,0,-0.0020944,0,0,0,0.030654,0.0078538,0.011552,-1.0145,0.016687,0.021196,4.395e-07,0.12,0.48,0
0.0065645,-6.0635e-05,0.030926,0.0072336,0.011448,-0.00048351,0,0,0.050642,-0.010957,0,-0.0025143,0,0,0,0.030937,0.007222,0.011448,-1.1703,0.016536,0.021911,4.7345e-07,0.14,0.48,0
0.007587,-5.4836e-05,0.031191,0.006645,0.011351,-0.00057915,0,0,0.051585,-0.012235,0,-0.0030116,0,0,0,0.031206,0.0066298,0.011351,-1.3523,0.016396,0.02259,5.062e-07,0.16,0.48,0
0.0086279,-4.7442e-05,0.03144,0.0061004,0.011262,-0.00068841,0,0,0.052463,-0.013421,0,-0.0035797,0,0,0,0.03146,0.0060803,0.011262,-1.5564,0.016268,0.023228,5.3741e-07,0.18,0.48,0
0.0096856,-3.8529e-05,0.031671,0.0056029,0.011182,-0.00080994,0,0,0.053271,-0.014506,0,-0.0042117,0,0,0,0.031697,0.0055765,0.011182,-1.7793,0.016152,0.023819,5.6678e-07,0.2,0.48,0
0.010759,-2.7862e-05,0.031882,0.0051554,0.011111,-0.00094221,0,0,0.054003,-0.015485,0,-0.0048995,0,0,0,0.031916,0.0051211,0.011111,-2.0181,0.016049,0.024359,5.9398e-07,0.22,0.48,0
0.011846,-1.4832e-05,0.03207,0.0047604,0.011049,-0.0010833,0,0,0.054654,-0.016351,0,-0.0056329,0,0,0,0.032114,0.0047165,0.011049,-2.2696,0.01596,0.024844,6.1873e-07,0.24,0.48,0
0.012945,1.6368e-06,0.032234,0.0044199,0.010996,-0.0012304,0,0,0.055219,-0.017098,0,-0.0063982,0,0,0,0.032289,0.0043646,0.010996,-2.5299,0.015883,0.02527,6.4073e-07,0.26,0.48,0
0.014054,2.3231e-05,0.032372,0.0041345,0.010952,-0.00138,0,0,0.055691,-0.017725,0,-0.0071758,0,0,0,0.03244,0.0040665,0.010952,-2.7933,0.015819,0.025634,6.5969e-07,0.28,0.48,0
0.015173,5.2445e-05,0.032479,0.0039035,0.010915,-0.0015264,0,0,0.056067,-0.018229,0,-0.0079374,0,0,0,0.032561,0.0038215,0.010915,-3.0513,0.015766,0.025931,6.7531e-07,0.3,0.48,0
0.016297,9.2897e-05,0.032552,0.0037224,0.010882,-0.0016612,0,0,0.056341,-0.018616,0,-0.0086385,0,0,0,0.032648,0.0036265,0.010882,-3.2894,0.015719,0.026159,6.8723e-07,0.32,0.48,0
0.017426,0.00014984,0.032583,0.0035807,0.010849,-0.0017698,0,0,0.056507,-0.018898,0,-0.009203,0,0,0,0.03269,0.0034728,0.010849,-3.4813,0.015671,0.026317,6.9503e-07,0.34,0.48,0
0.018557,0.00023107,0.032565,0.0034539,0.010806,-0.0018248,0,0,0.056575,-0.019115,0,-0.0094887,0,0,0,0.032679,0.0033399,0.010806,-3.5741,0.015608,0.02641,6.9859e-07,0.36,0.48,0
0.019689,0.00034854,0.03253,0.0032803,0.010743,-0.0017878,0,0,0.056646,-0.019403,0,-0.0092967,0,0,0,0.032639,0.0031712,0.010743,-3.4861,0.015518,0.026506,7.011e-07,0.38,0.48,0
0.020823,0.0005177,0.032544,0.002813,0.010607,-0.0016787,0,0,0.057035,-0.020264,0,-0.008729,0,0,0,0.032639,0.002718,0.010607,-3.2268,0.015321,0.026861,7.15e-07,0.4,0.48,0
0.021971,0.00074558,0.033001,0.0018638,0.010459,-0.0016345,0,0,0.057264,-0.021782,0,-0.0084384,0,0,0,0.033089,0.0017756,0.010459,-3.031,0.015108,0.028002,7.9247e-07,0.42,0.48,0
0.023123,0.001003,0.033986,0.00083801,0.010447,-0.0016353,0,0,0.054811,-0.022259,0,-0.0081752,0,0,0,0.03408,0.00074444,0.010447,-2.9092,0.01509,0.029699,9.4482e-07,0.44,0.48,0
0.024193,0.0012183,0.034322,0.00014152,0.010339,-0.0013996,0,0,0.048107,-0.020331,0,-0.0066188,0,0,0,0.034409,5.4554e-05,0.010339,-2.4635,0.014934,0.03054,1.0333e-06,0.46,0.48,0
0.025082,0.0013391,0.033945,-0.00040194,0.010063,-0.00091447,0,0,0.040136,-0.017481,0,-0.0040632,0,0,0,0.034004,-0.00046079,0.010063,-1.6838,0.014535,0.030592,1.0079e-06,0.48,0.48,0
0.025808,0.0013901,0.034532,-0.00070064,0.010149,-0.00052832,0,0,0.035075,-0.015583,0,-0.002079,0,0,0,0.034562,-0.00073116,0.010149,-1.0136,0.01466,0.031306,1.0137e-06,0.5,0.48,0
0.026477,0.0014287,0.03594,-0.00048828,0.010636,-0.00037396,0,0,0.033522,-0.014744,0,-0.0011365,0,0,0,0.035955,-0.00050306,0.010636,-0.64609,0.015363,0.032361,1.085e-06,0.52,0.48,0
0.027146,0.0014733,0.036853,-0.00012925,0.011017,-0.00030207,0,0,0.033587,-0.01449,0,-0.00078537,0,0,0,0.036861,-0.00013646,0.011017,-0.46797,0.015914,0.032872,1.142e-06,0.54,0.48,0
0.027821,0.0015134,0.037255,1.8843e-05,0.011182,-0.00022647,0,0,0.033895,-0.014512,0,-0.00058883,0,0,0,0.037258,1.5716e-05,0.011182,-0.34488,0.016152,0.033103,1.1743e-06,0.56,0.48,0
0.028502,0.0015429,0.037453,3.7641e-06,0.011237,-0.00012622,0,0,0.034081,-0.014603,0,-0.00032817,0,0,0,0.037454,2.7078e-06,0.011237,-0.19207,0.016231,0.033288,1.1936e-06,0.58,0.48,0
0.029184,0.0015616,0.037421,-0.00011053,0.011193,-4.0061e-06,0,0,0.034096,-0.014695,0,-1.0416e-05,0,0,0,0.037422,-0.00011135,0.011193,-0.0087713,0.016168,0.03335,1.1944e-06,0.6,0.48,0
0.029865,0.0015694,0.037161,-0.00032835,0.01105,9.5821e-05,0,0,0.033945,-0.014792,0,0.00024913,0,0,0,0.037164,-0.00033087,0.01105,0.14174,0.015961,0.033297,1.1769e-06,0.62,0.48,0
0.030542,0.0015666,0.036701,-0.00072553,0.010792,0.00017408,0,0,0.03368,-0.014973,0,0.00045261,0,0,0,0.036707,-0.00073189,0.010792,0.26597,0.015589,0.033212,1.1466e-06,0.64,0.48,0
0.031213,0.0015594,0.035739,-0.0013463,0.010318,0.00025999,0,0,0.033679,-0.015467,0,0.00083974,0,0,0,0.035752,-0.00136,0.010318,0.4593,0.014903,0.032869,1.092e-06,0.66,0.48,0
0.031885,0.001559,0.034303,-0.0018098,0.0097479,0.00043208,0,0,0.035336,-0.016626,0,0.0018105,0,0,0,0.03433,-0.0018375,0.0097479,0.83732,0.01408,0.03199,1.024e-06,0.68,0.48,0
0.032619,0.0015448,0.033702,-0.0017727,0.0095788,0.00080441,0,0,0.040565,-0.019009,0,0.0036745,0,0,0,0.033752,-0.0018225,0.0095788,1.4526,0.013836,0.031464,1.0242e-06,0.7,0.48,0
0.033518,0.0014536,0.034074,-0.0015024,0.0097716,0.0012316,0,0,0.048777,-0.022528,0,0.0058907,0,0,0,0.034143,-0.0015707,0.0097716,2.0942,0.014115,0.031608,1.0576e-06,0.72,0.48,0
0.034605,0.0012563,0.033763,-0.0010016,0.0098283,0.0014,0,0,0.055755,-0.025127,0,0.0070304,0,0,0,0.03383,-0.0010689,0.0098283,2.3812,0.014196,0.030926,9.7644e-07,0.74,0.48,0
0.035779,0.0010083,0.032822,-9.3082e-05,0.0098185,0.0013528,0,0,0.058445,-0.025134,0,0.006992,0,0,0,0.032879,-0.00015073,0.0098185,2.3758,0.014182,0.029346,8.3087e-07,0.76,0.48,0
0.036952,0.00078626,0.032404,0.00071296,0.009935,0.0013743,0,0,0.058418,-0.023977,0,0.0071462,0,0,0,0.032463,0.0006531,0.009935,2.4805,0.014351,0.028334,7.613e-07,0.78,0.48,0
0.038116,0.00062234,0.032431,0.00097534,0.010022,0.0014772,0,0,0.058264,-0.023521,0,0.0076813,0,0,0,0.032501,0.00090588,0.010022,2.6811,0.014476,0.028166,7.5683e-07,0.8,0.48,0
0.039282,0.00051073,0.03253,0.00090005,0.010029,0.0015158,0,0,0.058502,-0.023735,0,0.0078819,0,0,0,0.032602,0.00082746,0.010029,2.736,0.014486,0.028318,7.6605e-07,0.82,0.48,0
0.040456,0.00043665,0.032634,0.00073687,0.010011,0.0014627,0,0,0.058819,-0.024113,0,0.0076061,0,0,0,0.032701,0.00066971,0.010011,2.6198,0.014461,0.028532,7.7717e-07,0.84,0.48,0
0.041635,0.00038835,0.032714,0.00054618,0.0099779,0.0013498,0,0,0.059113,-0.024522,0,0.0070191,0,0,0,0.03277,0.00048927,0.0099779,2.399,0.014413,0.028737,7.8681e-07,0.86,0.48,0
0.04282,0.00035786,0.032773,0.00035656,0.0099388,0.0011996,0,0,0.059368,-0.024914,0,0.0062379,0,0,0,0.032818,0.00031175,0.0099388,2.117,0.014356,0.02892,7.9483e-07,0.88,0.48,0
0.04401,0.00033947,0.032817,0.00018494,0.0099006,0.0010244,0,0,0.059583,-0.025261,0,0.0053269,0,0,0,0.03285,0.00015225,0.0099006,1.7969,0.014301,0.029076,8.0132e-07,0.9,0.48,0
0.045204,0.00032904,0.03285,4.0259e-05,0.009867,0.00083279,0,0,0.059755,-0.025549,0,0.0043305,0,0,0,0.032871,1.851e-05,0.009867,1.4537,0.014252,0.029202,8.0635e-07,0.92,0.48,0
0.0464,0.00032357,0.032872,-7.3477e-05,0.0098396,0.00063096,0,0,0.059885,-0.025774,0,0.003281,0,0,0,0.032885,-8.6213e-05,0.0098396,1.0973,0.014213,0.029298,8.1004e-07,0.94,0.48,0
0.047599,0.00032099,0.032887,-0.00015486,0.0098195,0.00042318,0,0,0.059974,-0.025933,0,0.0022005,0,0,0,0.032893,-0.00016095,0.0098195,0.73401,0.014184,0.029364,8.1253e-07,0.96,0.48,0
0.048799,0.00031995,0.032895,-0.00020362,0.0098073,0.00021177,0,0,0.060027,-0.026028,0,0.0011012,0,0,0,0.032897,-0.00020566,0.0098073,0.36671,0.014166,0.029404,8.1396e-07,0.98,0.48,0
0.049399,0.00031968,0.032897,-0.00021985,0.0098032,0.0001053,0,0,0.060044,-0.02606,0,0.00054754,0,0,0,0.032898,-0.00022053,0.0098032,0.18216,0.01416,0.029417,8.1443e-07,1,0.48,0
0.00043073,-3.1164e-05,0.028949,0.011947,0.012269,-0.00060103,0,0,0.043369,-0.00083716,0,-0.0031253,0,0,0,0.028974,0.011923,0.012269,-2.0256,0.017722,0.016883,2.467e-07,0,0.5,0
0.00086739,-5.9798e-05,0.029007,0.011517,0.012157,-0.00059505,0,0,0.04381,-0.0016641,0,-0.0030943,0,0,0,0.029031,0.011494,0.012157,-1.9533,0.017561,0.017219,2.6085e-07,0.02,0.5,0
0.0017524,-0.00011247,0.029222,0.010713,0.01198,-0.00058148,0,0,0.044828,-0.0032958,0,-0.0030237,0,0,0,0.029243,0.010692,0.01198,-1.8056,0.017305,0.017945,2.918e-07,0.04,0.5,0
0.0026605,-0.00015679,0.02953,0.0099745,0.011851,-0.00057753,0,0,0.045965,-0.0048802,0,-0.0030031,0,0,0,0.02955,0.009955,0.011851,-1.696,0.017119,0.018722,3.2555e-07,0.06,0.5,0
0.003591,-0.00019425,0.02983,0.0092621,0.011728,-0.00059449,0,0,0.047066,-0.0064102,0,-0.0030913,0,0,0,0.029849,0.0092427,0.011728,-1.6587,0.01694,0.019485,3.5939e-07,0.08,0.5,0
0.0045431,-0.00022605,0.030117,0.0085787,0.011609,-0.00062959,0,0,0.048122,-0.0078784,0,-0.0032739,0,0,0,0.030138,0.0085583,0.011609,-1.6764,0.016768,0.020229,3.9294e-07,0.1,0.5,0
0.0055159,-0.0002531,0.030392,0.0079278,0.011496,-0.00068067,0,0,0.049129,-0.009277,0,-0.0035395,0,0,0,0.030414,0.0079055,0.011496,-1.7368,0.016605,0.020947,4.2583e-07,0.12,0.5,0
0.0065083,-0.00027606,0.03065,0.0073128,0.011389,-0.00074601,0,0,0.050079,-0.010598,0,-0.0038792,0,0,0,0.030676,0.0072875,0.011389,-1.8314,0.016451,0.021632,4.577e-07,0.14,0.5,0
0.0075191,-0.00029537,0.03089,0.0067372,0.011288,-0.00082414,0,0,0.050966,-0.011833,0,-0.0042855,0,0,0,0.03092,0.0067078,0.011288,-1.954,0.016305,0.022279,4.8815e-07,0.16,0.5,0
0.0085469,-0.00031122,0.03111,0.0062042,0.011194,-0.00091373,0,0,0.051781,-0.012974,0,-0.0047514,0,0,0,0.031144,0.0061696,0.011194,-2.1,0.016169,0.022881,5.168e-07,0.18,0.5,0
0.0095903,-0.00032353,0.031306,0.0057168,0.011107,-0.0010134,0,0,0.052518,-0.014014,0,-0.0052695,0,0,0,0.031347,0.0056758,0.011107,-2.2659,0.016043,0.023433,5.4327e-07,0.2,0.5,0
0.010648,-0.00033194,0.031476,0.0052777,0.011026,-0.0011214,0,0,0.053169,-0.014946,0,-0.0058311,0,0,0,0.031525,0.005229,0.011026,-2.448,0.015927,0.02393,5.672e-07,0.22,0.5,0
0.011717,-0.0003357,0.031616,0.0048886,0.010951,-0.0012356,0,0,0.053729,-0.015763,0,-0.0064251,0,0,0,0.031674,0.004831,0.010951,-2.6426,0.015819,0.024367,5.8821e-07,0.24,0.5,0
0.012797,-0.00033365,0.031724,0.0045506,0.010882,-0.0013531,0,0,0.054188,-0.016463,0,-0.0070361,0,0,0,0.031792,0.004483,0.010882,-2.8449,0.015719,0.024738,6.0594e-07,0.26,0.5,0
0.013885,-0.00032404,0.031795,0.0042632,0.010817,-0.0014696,0,0,0.054541,-0.017041,0,-0.007642,0,0,0,0.031873,0.0041846,0.010817,-3.0478,0.015625,0.02504,6.2002e-07,0.28,0.5,0
0.014978,-0.00030436,0.031823,0.0040231,0.010754,-0.0015789,0,0,0.05478,-0.0175,0,-0.0082101,0,0,0,0.031913,0.0039335,0.010754,-3.2407,0.015533,0.025269,6.3009e-07,0.3,0.5,0
0.016076,-0.00027111,0.031804,0.003823,0.010688,-0.0016713,0,0,0.054901,-0.017849,0,-0.0086909,0,0,0,0.031903,0.0037234,0.010688,-3.406,0.015438,0.025424,6.3586e-07,0.32,0.5,0
0.017174,-0.00021941,0.031733,0.0036471,0.010614,-0.0017322,0,0,0.05491,-0.018114,0,-0.0090075,0,0,0,0.03184,0.0035406,0.010614,-3.5146,0.015331,0.025509,6.3735e-07,0.34,0.5,0
0.018272,-0.00014256,0.031621,0.003463,0.010525,-0.0017417,0,0,0.054849,-0.018362,0,-0.0090571,0,0,0,0.031728,0.0033555,0.010525,-3.5238,0.015203,0.025554,6.3578e-07,0.36,0.5,0
0.019368,-3.209e-05,0.031497,0.0031923,0.010407,-0.0016896,0,0,0.054834,-0.018757,0,-0.0087857,0,0,0,0.031598,0.0030915,0.010407,-3.4018,0.015032,0.025644,6.3516e-07,0.38,0.5,0
0.020466,0.00011944,0.031377,0.0026784,0.010216,-0.001613,0,0,0.055016,-0.019599,0,-0.0083876,0,0,0,0.031467,0.0025877,0.010216,-3.207,0.014757,0.025922,6.4107e-07,0.4,0.5,0
0.021569,0.0003132,0.031284,0.0018213,0.0099315,-0.0016293,0,0,0.055516,-0.021086,0,-0.0084722,0,0,0,0.031374,0.0017312,0.0099315,-3.1527,0.014345,0.026513,6.5875e-07,0.42,0.5,0
0.022686,0.00054044,0.031621,0.00084721,0.0097405,-0.0018336,0,0,0.055597,-0.022567,0,-0.0094196,0,0,0,0.031733,0.00073527,0.0097405,-3.4117,0.01407,0.027621,7.2483e-07,0.44,0.5,0
0.023802,0.00077265,0.03248,9.2282e-05,0.0097716,-0.0020657,0,0,0.052867,-0.02245,0,-0.010115,0,0,0,0.032624,-5.1621e-05,0.0097716,-3.7204,0.014115,0.029039,8.5149e-07,0.46,0.5,0
0.024831,0.00095686,0.032705,-0.00054272,0.0096487,-0.0019878,0,0,0.046163,-0.020237,0,-0.0089993,0,0,0,0.032856,-0.00069365,0.0096487,-3.5925,0.013937,0.029759,9.2207e-07,0.48,0.5,0
0.025683,0.0010669,0.032667,-0.00094772,0.0095158,-0.0016327,0,0,0.038717,-0.017433,0,-0.0066107,0,0,0,0.032791,-0.0010718,0.0095158,-3.0445,0.013745,0.030007,9.2309e-07,0.5,0.5,0
0.026394,0.0011325,0.033759,-0.00076357,0.0098987,-0.0012829,0,0,0.034745,-0.015658,0,-0.0045388,0,0,0,0.033843,-0.00084759,0.0098987,-2.3937,0.014298,0.030763,9.7967e-07,0.52,0.5,0
0.027073,0.001182,0.035058,-0.00038953,0.010401,-0.00094747,0,0,0.034336,-0.01519,0,-0.0030953,0,0,0,0.035104,-0.00043497,0.010401,-1.7171,0.015023,0.031552,1.0671e-06,0.54,0.5,0
0.027767,0.0012196,0.035735,-0.0002415,0.010648,-0.00058404,0,0,0.034908,-0.015287,0,-0.001868,0,0,0,0.035753,-0.00025905,0.010648,-1.0346,0.015381,0.031986,1.1231e-06,0.56,0.5,0
0.02847,0.0012463,0.036043,-0.00025371,0.010737,-0.00021947,0,0,0.035204,-0.015415,0,-0.0006759,0,0,0,0.036047,-0.00025829,0.010737,-0.37561,0.015508,0.032247,1.1518e-06,0.58,0.5,0
0.029175,0.0012631,0.036012,-0.00036746,0.010693,0.00015011,0,0,0.035223,-0.015518,0,0.00051283,0,0,0,0.036017,-0.00037168,0.010693,0.27702,0.015446,0.032311,1.1527e-06,0.6,0.5,0
0.029879,0.0012699,0.035645,-0.00058774,0.010517,0.00051359,0,0,0.034966,-0.015601,0,0.0017022,0,0,0,0.035661,-0.00060414,0.010517,0.92595,0.015191,0.032182,1.1257e-06,0.62,0.5,0
0.030574,0.0012655,0.034913,-0.00098368,0.010179,0.0008759,0,0,0.034444,-0.015734,0,0.0029255,0,0,0,0.034956,-0.0010267,0.010179,1.5882,0.014703,0.031895,1.0718e-06,0.64,0.5,0
0.031256,0.0012485,0.033572,-0.0016216,0.0095851,0.0012114,0,0,0.034939,-0.016493,0,0.0043556,0,0,0,0.033651,-0.0017004,0.0095851,2.2355,0.013845,0.03128,9.8633e-07,0.66,0.5,0
0.031972,0.0012136,0.032449,-0.0020799,0.0091107,0.0015465,0,0,0.039049,-0.018696,0,0.0063242,0,0,0,0.032561,-0.0021923,0.0091107,2.8244,0.01316,0.030707,9.3214e-07,0.68,0.5,0
0.032833,0.0011283,0.032467,-0.0019352,0.0091596,0.0018543,0,0,0.04669,-0.022083,0,0.0084328,0,0,0,0.032597,-0.0020647,0.0091596,3.2528,0.013231,0.030633,9.3592e-07,0.7,0.5,0
0.033875,0.00095937,0.032251,-0.001496,0.0092264,0.0018705,0,0,0.053623,-0.024905,0,0.0091699,0,0,0,0.032366,-0.001611,0.0092264,3.2404,0.013327,0.030061,8.7103e-07,0.72,0.5,0
0.035008,0.00073415,0.031419,-0.00088466,0.0091604,0.0015844,0,0,0.056566,-0.025503,0,0.0081404,0,0,0,0.0315,-0.00096553,0.0091604,2.8108,0.013232,0.028773,7.5014e-07,0.74,0.5,0
0.036146,0.00050896,0.031104,-6.8503e-05,0.0093107,0.0013344,0,0,0.056663,-0.024386,0,0.0069388,0,0,0,0.031162,-0.00012602,0.0093107,2.4418,0.013449,0.027799,6.914e-07,0.76,0.5,0
0.037275,0.0003141,0.031219,0.00059883,0.0095453,0.0012819,0,0,0.056351,-0.023261,0,0.006666,0,0,0,0.031273,0.00054495,0.0095453,2.391,0.013788,0.027362,6.8211e-07,0.78,0.5,0
0.0384,0.00015945,0.031374,0.00089581,0.009681,0.0013325,0,0,0.056402,-0.022841,0,0.006929,0,0,0,0.031433,0.00083721,0.009681,2.4944,0.013984,0.027271,6.8532e-07,0.8,0.5,0
0.039531,4.4844e-05,0.031551,0.00091579,0.0097401,0.0013639,0,0,0.056709,-0.022943,0,0.0070925,0,0,0,0.031612,0.00085474,0.0097401,2.5399,0.014069,0.027417,6.9677e-07,0.82,0.5,0
0.040669,-3.6614e-05,0.031738,0.00081293,0.0097652,0.0013331,0,0,0.057128,-0.023276,0,0.006932,0,0,0,0.031795,0.00075514,0.0097652,2.4607,0.014105,0.027659,7.1155e-07,0.84,0.5,0
0.041816,-9.3181e-05,0.031903,0.00066536,0.0097704,0.0012456,0,0,0.057544,-0.023673,0,0.0064771,0,0,0,0.031953,0.00061532,0.0097704,2.278,0.014113,0.02791,7.2577e-07,0.86,0.5,0
0.042971,-0.00013163,0.032037,0.00050722,0.0097632,0.0011177,0,0,0.057911,-0.024065,0,0.0058119,0,0,0,0.032077,0.00046715,0.0097632,2.0267,0.014102,0.028138,7.3804e-07,0.88,0.5,0
0.044132,-0.00015712,0.032142,0.00035752,0.0097497,0.00096184,0,0,0.058219,-0.02442,0,0.0050016,0,0,0,0.032171,0.00032789,0.0097497,1.7313,0.014083,0.028333,7.4811e-07,0.9,0.5,0
0.045299,-0.0001735,0.032221,0.00022725,0.0097346,0.00078686,0,0,0.058466,-0.024719,0,0.0040917,0,0,0,0.032241,0.00020732,0.0097346,1.4078,0.014061,0.028491,7.5607e-07,0.92,0.5,0
0.046471,-0.00018363,0.03228,0.00012248,0.0097207,0.00059913,0,0,0.058654,-0.024955,0,0.0031155,0,0,0,0.032292,0.00011071,0.0097207,1.067,0.014041,0.028613,7.6204e-07,0.94,0.5,0
0.047646,-0.00018953,0.032319,4.633e-05,0.0097097,0.00040328,0,0,0.058785,-0.025125,0,0.002097,0,0,0,0.032325,4.0664e-05,0.0097097,0.71583,0.014025,0.028699,7.6616e-07,0.96,0.5,0
0.048822,-0.00019256,0.032342,2.4976e-07,0.0097027,0.00020063,0,0,0.058862,-0.025226,0,0.0010433,0,0,0,0.032344,-1.6576e-06,0.0097027,0.35541,0.014015,0.028749,7.6858e-07,0.98,0.5,0
0.049411,-0.00019349,0.03235,-1.5163e-05,0.0097003,9.7454e-05,0,0,0.058888,-0.02526,0,0.00050676,0,0,0,0.03235,-1.5803e-05,0.0097003,0.17241,0.014012,0.028766,7.6937e-07,1,0.5,0
0.00042796,-4.7568e-05,0.028765,0.011886,0.012195,-0.00091572,0,0,0.043081,-0.00080439,0,-0.0047617,0,0,0,0.028817,0.011833,0.012195,-3.0999,0.017615,0.016808,2.4339e-07,0,0.52,0
0.00086161,-9.2427e-05,0.02882,0.011472,0.012088,-0.00090776,0,0,0.043505,-0.0016011,0,-0.0047204,0,0,0,0.02887,0.011422,0.012088,-2.9951,0.01746,0.017129,2.5679e-07,0.02,0.52,0
0.0017402,-0.00017715,0.029026,0.010694,0.011916,-0.00088847,0,0,0.044485,-0.0031766,0,-0.00462,0,0,0,0.029071,0.010648,0.011916,-2.7776,0.017212,0.017826,2.8613e-07,0.04,0.52,0
0.002641,-0.00025264,0.029321,0.0099769,0.011789,-0.00087593,0,0,0.045582,-0.0047122,0,-0.0045549,0,0,0,0.029363,0.009935,0.011789,-2.5946,0.017029,0.018573,3.1815e-07,0.06,0.52,0
0.0035635,-0.00032024,0.029606,0.0092824,0.011666,-0.00088202,0,0,0.046642,-0.0061984,0,-0.0045865,0,0,0,0.029646,0.0092421,0.011666,-2.486,0.016851,0.019308,3.5027e-07,0.08,0.52,0
0.0045067,-0.00038097,0.029878,0.0086145,0.011548,-0.00090384,0,0,0.047658,-0.0076262,0,-0.0047,0,0,0,0.029918,0.0085743,0.011548,-2.4341,0.01668,0.020025,3.8207e-07,0.1,0.52,0
0.0054698,-0.00043558,0.030134,0.0079771,0.011433,-0.00093912,0,0,0.048622,-0.0089862,0,-0.0048834,0,0,0,0.030175,0.0079358,0.011433,-2.4263,0.016515,0.020715,4.1313e-07,0.12,0.52,0
0.0064516,-0.00048455,0.030372,0.0073741,0.011324,-0.00098606,0,0,0.049525,-0.010269,0,-0.0051275,0,0,0,0.030415,0.0073306,0.011324,-2.4536,0.016357,0.021371,4.4301e-07,0.14,0.52,0
0.0074508,-0.00052815,0.030588,0.006809,0.011219,-0.0010431,0,0,0.05036,-0.011467,0,-0.0054242,0,0,0,0.030635,0.0067623,0.011219,-2.5094,0.016206,0.021987,4.7129e-07,0.16,0.52,0
0.008466,-0.0005664,0.030781,0.0062852,0.01112,-0.0011088,0,0,0.051118,-0.01257,0,-0.0057658,0,0,0,0.030831,0.0062343,0.01112,-2.5886,0.016062,0.022556,4.9756e-07,0.18,0.52,0
0.0094955,-0.00059909,0.030945,0.0058055,0.011025,-0.0011816,0,0,0.051792,-0.013571,0,-0.0061444,0,0,0,0.031001,0.0057494,0.011025,-2.6869,0.015925,0.023071,5.2139e-07,0.2,0.52,0
0.010538,-0.00062569,0.031078,0.005372,0.010935,-0.0012596,0,0,0.052373,-0.014464,0,-0.0065501,0,0,0,0.03114,0.00531,0.010935,-2.8,0.015795,0.023528,5.4238e-07,0.22,0.52,0
0.01159,-0.00064537,0.031177,0.004986,0.010849,-0.0013404,0,0,0.052853,-0.015244,0,-0.0069701,0,0,0,0.031246,0.0049173,0.010849,-2.9232,0.015671,0.023921,5.6015e-07,0.24,0.52,0
0.012652,-0.00065687,0.031237,0.0046475,0.010765,-0.0014206,0,0,0.053226,-0.015906,0,-0.0073869,0,0,0,0.031313,0.0045716,0.010765,-3.0501,0.01555,0.024245,5.7433e-07,0.26,0.52,0
0.013719,-0.0006584,0.031254,0.0043545,0.010683,-0.0014953,0,0,0.053486,-0.016453,0,-0.0077757,0,0,0,0.031337,0.0042715,0.010683,-3.1721,0.01543,0.024498,5.8459e-07,0.28,0.52,0
0.014791,-0.00064755,0.031223,0.0041018,0.010598,-0.0015581,0,0,0.053627,-0.016889,0,-0.0081019,0,0,0,0.031313,0.0040125,0.010598,-3.2764,0.015308,0.024676,5.9071e-07,0.3,0.52,0
0.015865,-0.00062107,0.031142,0.0038791,0.010506,-0.0015996,0,0,0.053653,-0.017231,0,-0.0083181,0,0,0,0.031236,0.0037854,0.010506,-3.3447,0.015176,0.024783,5.9266e-07,0.32,0.52,0
0.016937,-0.00057473,0.031012,0.0036667,0.010404,-0.0016089,0,0,0.053582,-0.017516,0,-0.0083664,0,0,0,0.031107,0.0035721,0.010404,-3.3528,0.015027,0.024834,5.9097e-07,0.34,0.52,0
0.018008,-0.00050339,0.030843,0.0034276,0.010281,-0.0015773,0,0,0.053461,-0.017819,0,-0.0082018,0,0,0,0.030934,0.0033367,0.010281,-3.2781,0.014851,0.024863,5.8719e-07,0.36,0.52,0
0.019076,-0.00040176,0.030649,0.003096,0.010123,-0.0015113,0,0,0.053366,-0.018271,0,-0.0078588,0,0,0,0.030732,0.0030127,0.010123,-3.1264,0.014623,0.024937,5.8397e-07,0.38,0.52,0
0.020142,-0.00026626,0.030438,0.0025948,0.0099099,-0.0014517,0,0,0.053374,-0.019019,0,-0.0075486,0,0,0,0.030514,0.0025187,0.0099099,-2.9721,0.014314,0.02513,5.8414e-07,0.4,0.52,0
0.021211,-9.7871e-05,0.030194,0.001883,0.0096232,-0.001469,0,0,0.053485,-0.020125,0,-0.0076388,0,0,0,0.030271,0.0018062,0.0096232,-2.9548,0.0139,0.025474,5.8788e-07,0.42,0.52,0
0.022282,9.7104e-05,0.029912,0.0010149,0.0092781,-0.0016408,0,0,0.053649,-0.021485,0,-0.008532,0,0,0,0.030007,0.00091978,0.0092781,-3.2216,0.013402,0.02594,5.9422e-07,0.44,0.52,0
0.023357,0.00030963,0.02994,0.00017623,0.0090348,-0.0019965,0,0,0.053102,-0.022473,0,-0.010193,0,0,0,0.030079,3.6631e-05,0.0090348,-3.8073,0.01305,0.026707,6.3487e-07,0.46,0.52,0
0.024414,0.00051855,0.030241,-0.00059832,0.0088927,-0.0023578,0,0,0.049652,-0.021923,0,-0.011289,0,0,0,0.030432,-0.00078978,0.0088927,-4.4147,0.012845,0.027683,7.121e-07,0.48,0.52,0
0.025372,0.00069002,0.030133,-0.0011016,0.0087095,-0.0023908,0,0,0.043463,-0.019859,0,-0.010525,0,0,0,0.030338,-0.0013067,0.0087095,-4.571,0.01258,0.028018,7.5595e-07,0.5,0.52,0
0.026186,0.00080312,0.029826,-0.0010183,0.0086424,-0.002026,0,0,0.038764,-0.017967,0,-0.0084763,0,0,0,0.02999,-0.0011817,0.0086424,-4.0824,0.012483,0.02761,7.6228e-07,0.52,0.52,0
0.026935,0.00086574,0.029866,-0.00074095,0.0087374,-0.001472,0,0,0.0374,-0.01717,0,-0.0060758,0,0,0,0.02996,-0.00083572,0.0087374,-3.0753,0.012621,0.027304,7.7751e-07,0.54,0.52,0
0.027682,0.00090196,0.030072,-0.00063897,0.0088299,-0.00087396,0,0,0.037403,-0.017008,0,-0.003572,0,0,0,0.03011,-0.0006766,0.0088299,-1.8313,0.012754,0.027307,7.9957e-07,0.56,0.52,0
0.028431,0.0009263,0.030186,-0.00065777,0.0088583,-0.00028847,0,0,0.037476,-0.017044,0,-0.0011486,0,0,0,0.030195,-0.0006673,0.0088583,-0.59353,0.012795,0.027375,8.1257e-07,0.58,0.52,0
0.029181,0.00094084,0.030157,-0.00077044,0.0088161,0.00027747,0,0,0.037502,-0.017181,0,0.0011849,0,0,0,0.030167,-0.0007802,0.0088161,0.60014,0.012734,0.027441,8.1337e-07,0.6,0.52,0
0.029931,0.00094536,0.029989,-0.00098166,0.0087021,0.00086099,0,0,0.037486,-0.017426,0,0.0036002,0,0,0,0.030026,-0.0010195,0.0087021,1.8163,0.01257,0.027509,8.0199e-07,0.62,0.52,0
0.03068,0.00093721,0.029736,-0.0013262,0.0085228,0.0014512,0,0,0.037558,-0.017891,0,0.006072,0,0,0,0.029829,-0.0014194,0.0085228,3.0089,0.012311,0.027658,7.8205e-07,0.64,0.52,0
0.031433,0.00090053,0.029658,-0.0018781,0.0083338,0.0019817,0,0,0.039033,-0.019049,0,0.008363,0,0,0,0.029813,-0.0020334,0.0083338,3.925,0.012038,0.028142,7.6852e-07,0.66,0.52,0
0.032254,0.00080815,0.029928,-0.0022394,0.0083067,0.0023024,0,0,0.043882,-0.021401,0,0.010173,0,0,0,0.030115,-0.0024261,0.0083067,4.2918,0.011999,0.028725,7.6338e-07,0.68,0.52,0
0.033222,0.0006493,0.030022,-0.0019389,0.008425,0.0022152,0,0,0.050247,-0.023978,0,0.010607,0,0,0,0.030187,-0.0021039,0.008425,4.0115,0.012169,0.028525,7.2274e-07,0.7,0.52,0
0.034294,0.00044547,0.029731,-0.0013121,0.0085256,0.0017995,0,0,0.05387,-0.024969,0,0.0091828,0,0,0,0.029842,-0.0014231,0.0085256,3.2931,0.012315,0.027667,6.5058e-07,0.72,0.52,0
0.035385,0.00023259,0.029711,-0.00063892,0.0087216,0.001389,0,0,0.054573,-0.024337,0,0.0072229,0,0,0,0.029777,-0.00070518,0.0087216,2.5979,0.012598,0.027032,6.1601e-07,0.74,0.52,0
0.036476,3.283e-05,0.029999,4.1123e-05,0.0090121,0.001164,0,0,0.054566,-0.023324,0,0.0060529,0,0,0,0.030045,-5.0143e-06,0.0090121,2.2136,0.013017,0.026709,6.1674e-07,0.76,0.52,0
0.037568,-0.00014417,0.030257,0.00055126,0.0092426,0.001099,0,0,0.054639,-0.022598,0,0.005715,0,0,0,0.030299,0.00050995,0.0092426,2.1103,0.01335,0.026524,6.2059e-07,0.78,0.52,0
0.038662,-0.00029132,0.030495,0.00082909,0.0093973,0.0011163,0,0,0.054855,-0.022277,0,0.005805,0,0,0,0.030538,0.00078634,0.0093973,2.1466,0.013574,0.026516,6.2888e-07,0.8,0.52,0
0.039762,-0.000407,0.030733,0.00090885,0.0094924,0.0011422,0,0,0.055224,-0.022317,0,0.0059395,0,0,0,0.030777,0.00086438,0.0094924,2.1848,0.013711,0.026667,6.4199e-07,0.82,0.52,0
0.040871,-0.00049438,0.030963,0.00086447,0.0095481,0.0011323,0,0,0.055678,-0.022578,0,0.0058879,0,0,0,0.031006,0.00082124,0.0095481,2.1471,0.013792,0.026905,6.5761e-07,0.84,0.52,0
0.041989,-0.00055857,0.031172,0.00076059,0.0095799,0.0010765,0,0,0.05614,-0.02293,0,0.0055977,0,0,0,0.031211,0.00072194,0.0095799,2.0215,0.013838,0.027166,6.7329e-07,0.86,0.52,0
0.043117,-0.00060476,0.031351,0.00063502,0.0095959,0.00098067,0,0,0.056564,-0.023298,0,0.0050995,0,0,0,0.031383,0.00060319,0.0095959,1.8246,0.013861,0.027413,6.8749e-07,0.88,0.52,0
0.044252,-0.00063732,0.031497,0.0005091,0.0096018,0.00085423,0,0,0.056927,-0.023641,0,0.004442,0,0,0,0.031521,0.00048504,0.0096018,1.5765,0.013869,0.02763,6.9955e-07,0.9,0.52,0
0.045394,-0.00065973,0.031611,0.0003956,0.0096019,0.00070544,0,0,0.057223,-0.023936,0,0.0036683,0,0,0,0.031627,0.00037913,0.0096019,1.2931,0.013869,0.027808,7.0929e-07,0.92,0.52,0
0.046541,-0.00067465,0.031696,0.00030211,0.0095993,0.00054093,0,0,0.057451,-0.024173,0,0.0028129,0,0,0,0.031706,0.00029225,0.0095993,0.98633,0.013866,0.027947,7.1674e-07,0.94,0.52,0
0.047692,-0.000684,0.031754,0.00023304,0.0095962,0.0003659,0,0,0.057611,-0.024344,0,0.0019027,0,0,0,0.031759,0.00022825,0.0095962,0.66469,0.013861,0.028046,7.2196e-07,0.96,0.52,0
0.048845,-0.00068911,0.031789,0.00019082,0.0095939,0.00018072,0,0,0.057707,-0.024448,0,0.00093972,0,0,0,0.03179,0.0001892,0.0095939,0.32752,0.013858,0.028105,7.2505e-07,0.98,0.52,0
0.049422,-0.00069073,0.0318,0.00017663,0.009593,8.5104e-05,0,0,0.057738,-0.024483,0,0.00044254,0,0,0,0.031801,0.00017608,0.009593,0.154,0.013857,0.028124,7.2608e-07,1,0.52,0
0.00042512,-6.3339e-05,0.028575,0.011821,0.012119,-0.0012181,0,0,0.042786,-0.00077431,0,-0.0063342,0,0,0,0.028666,0.01173,0.012119,-4.1402,0.017505,0.016747,2.4069e-07,0,0.54,0
0.00085572,-0.00012384,0.028629,0.011421,0.012015,-0.0012082,0,0,0.043195,-0.0015434,0,-0.0062826,0,0,0,0.028716,0.011334,0.012015,-4.0054,0.017355,0.017055,2.5338e-07,0.02,0.54,0
0.0017278,-0.00023954,0.028826,0.010668,0.011848,-0.0011831,0,0,0.044142,-0.0030683,0,-0.0061522,0,0,0,0.028905,0.010589,0.011848,-3.7226,0.017114,0.017723,2.812e-07,0.04,0.54,0
0.0026214,-0.00034528,0.029109,0.0099693,0.011723,-0.0011615,0,0,0.045202,-0.0045606,0,-0.0060399,0,0,0,0.029181,0.0098968,0.011723,-3.4684,0.016934,0.018442,3.1161e-07,0.06,0.54,0
0.0035359,-0.00044219,0.029381,0.00929,0.011601,-0.0011556,0,0,0.046226,-0.006009,0,-0.0060091,0,0,0,0.029449,0.0092218,0.011601,-3.2878,0.016757,0.019151,3.4214e-07,0.08,0.54,0
0.0044705,-0.0005311,0.029638,0.0086348,0.011482,-0.0011624,0,0,0.047207,-0.0074025,0,-0.0060447,0,0,0,0.029704,0.008569,0.011482,-3.1635,0.016585,0.019841,3.7231e-07,0.1,0.54,0
0.0054241,-0.00061254,0.029879,0.0080082,0.011366,-0.0011797,0,0,0.048133,-0.0087304,0,-0.0061346,0,0,0,0.029944,0.0079434,0.011366,-3.0831,0.016418,0.020506,4.0166e-07,0.12,0.54,0
0.0063958,-0.00068683,0.030098,0.0074144,0.011254,-0.0012056,0,0,0.048996,-0.0099826,0,-0.0062691,0,0,0,0.030163,0.0073493,0.011254,-3.0374,0.016255,0.021135,4.2973e-07,0.14,0.54,0
0.007384,-0.00075403,0.030294,0.006857,0.011145,-0.0012384,0,0,0.049786,-0.01115,0,-0.0064399,0,0,0,0.03036,0.0067909,0.011145,-3.0194,0.016099,0.021723,4.5606e-07,0.16,0.54,0
0.0083872,-0.00081401,0.030462,0.0063394,0.01104,-0.0012767,0,0,0.050496,-0.012223,0,-0.006639,0,0,0,0.03053,0.0062714,0.01104,-3.0237,0.015947,0.022261,4.8021e-07,0.18,0.54,0
0.0094038,-0.00086637,0.0306,0.0058642,0.010939,-0.0013188,0,0,0.051117,-0.013195,0,-0.0068578,0,0,0,0.03067,0.0057937,0.010939,-3.0453,0.015801,0.022745,5.0174e-07,0.2,0.54,0
0.010432,-0.0009105,0.030703,0.0054332,0.010841,-0.0013626,0,0,0.051641,-0.01406,0,-0.0070854,0,0,0,0.030776,0.0053597,0.010841,-3.0791,0.015659,0.023168,5.2027e-07,0.22,0.54,0
0.011469,-0.00094545,0.030768,0.0050468,0.010744,-0.0014054,0,0,0.052061,-0.014814,0,-0.0073082,0,0,0,0.030844,0.0049701,0.010744,-3.1193,0.01552,0.023525,5.3543e-07,0.24,0.54,0
0.012514,-0.00096991,0.030791,0.004704,0.010649,-0.0014437,0,0,0.05237,-0.015456,0,-0.0075072,0,0,0,0.030871,0.0046243,0.010649,-3.1583,0.015381,0.023813,5.4692e-07,0.26,0.54,0
0.013564,-0.00098216,0.030769,0.0044016,0.010551,-0.0014726,0,0,0.052567,-0.015989,0,-0.0076577,0,0,0,0.030851,0.0043195,0.010551,-3.1864,0.015241,0.02403,5.5452e-07,0.28,0.54,0
0.014617,-0.00097992,0.030699,0.0041324,0.01045,-0.001486,0,0,0.05265,-0.016425,0,-0.0077274,0,0,0,0.030782,0.0040495,0.01045,-3.1903,0.015094,0.024177,5.5818e-07,0.3,0.54,0
0.01567,-0.00096035,0.030581,0.0038844,0.01034,-0.0014767,0,0,0.052628,-0.016784,0,-0.0076787,0,0,0,0.030663,0.0038027,0.01034,-3.1541,0.014935,0.024262,5.5813e-07,0.32,0.54,0
0.016722,-0.00092005,0.030417,0.0036365,0.010216,-0.0014379,0,0,0.052522,-0.017107,0,-0.0074772,0,0,0,0.030495,0.003559,0.010216,-3.0615,0.014757,0.024301,5.5507e-07,0.34,0.54,0
0.017771,-0.00085533,0.030213,0.0033558,0.010071,-0.0013685,0,0,0.05237,-0.017458,0,-0.0071164,0,0,0,0.030283,0.0032854,0.010071,-2.9058,0.014546,0.024326,5.5023e-07,0.36,0.54,0
0.018817,-0.00076294,0.029974,0.0029984,0.0098918,-0.0012801,0,0,0.052214,-0.017923,0,-0.0066565,0,0,0,0.030036,0.0029367,0.0098918,-2.7066,0.014288,0.024378,5.4519e-07,0.38,0.54,0
0.01986,-0.00064133,0.029696,0.0025218,0.0096655,-0.0012024,0,0,0.05208,-0.018573,0,-0.0062524,0,0,0,0.029751,0.0024674,0.0096655,-2.5232,0.013961,0.024492,5.4084e-07,0.4,0.54,0
0.0209,-0.00049179,0.029359,0.0019126,0.0093815,-0.0011798,0,0,0.051942,-0.019419,0,-0.006135,0,0,0,0.029412,0.00186,0.0093815,-2.4476,0.013551,0.024667,5.3645e-07,0.42,0.54,0
0.021937,-0.00031894,0.02891,0.00119,0.0090299,-0.0012501,0,0,0.051687,-0.020384,0,-0.0065007,0,0,0,0.02897,0.0011301,0.0090299,-2.5607,0.013043,0.024851,5.285e-07,0.44,0.54,0
0.022968,-0.00012914,0.028287,0.00038625,0.0086021,-0.001436,0,0,0.051182,-0.021361,0,-0.0074674,0,0,0,0.02837,0.00030365,0.0086021,-2.9066,0.012425,0.024975,5.136e-07,0.46,0.54,0
0.023985,7.1814e-05,0.027726,-0.0004752,0.0081753,-0.0017477,0,0,0.049692,-0.021925,0,-0.0088316,0,0,0,0.027852,-0.00060073,0.0081753,-3.4882,0.011809,0.025238,5.1376e-07,0.48,0.54,0
0.024963,0.00026496,0.027127,-0.0011383,0.0077966,-0.0019612,0,0,0.046843,-0.02164,0,-0.0095319,0,0,0,0.027285,-0.0012961,0.0077966,-3.9666,0.011262,0.025294,5.209e-07,0.5,0.54,0
0.025874,0.00041147,0.02612,-0.0013019,0.0074455,-0.0018094,0,0,0.044005,-0.020785,0,-0.0087194,0,0,0,0.02626,-0.0014416,0.0074455,-3.8566,0.010755,0.024502,4.9149e-07,0.52,0.54,0
0.026732,0.0004952,0.025201,-0.0011887,0.0072037,-0.0013866,0,0,0.042232,-0.019927,0,-0.0067343,0,0,0,0.025288,-0.001276,0.0072037,-3.1113,0.010405,0.023504,4.5079e-07,0.54,0.54,0
0.027564,0.00053924,0.024751,-0.0011247,0.007088,-0.00084824,0,0,0.041334,-0.019421,0,-0.0041175,0,0,0,0.024789,-0.0011624,0.007088,-1.9459,0.010238,0.022968,4.3177e-07,0.56,0.54,0
0.028385,0.00056448,0.024567,-0.0011533,0.0070241,-0.00026584,0,0,0.040998,-0.019308,0,-0.0012797,0,0,0,0.024577,-0.0011633,0.0070241,-0.61274,0.010146,0.02278,4.2526e-07,0.58,0.54,0
0.029204,0.00057584,0.024541,-0.0012644,0.006983,0.00031074,0,0,0.041035,-0.019478,0,0.0015378,0,0,0,0.024552,-0.0012754,0.006983,0.72205,0.010087,0.022848,4.2577e-07,0.6,0.54,0
0.030026,0.00057293,0.024677,-0.0014612,0.0069646,0.00088808,0,0,0.041451,-0.01994,0,0.0043499,0,0,0,0.024716,-0.0015012,0.0069646,2.0233,0.01006,0.023177,4.334e-07,0.62,0.54,0
0.030862,0.00054988,0.025086,-0.0017615,0.0069974,0.0014108,0,0,0.042451,-0.020819,0,0.0068902,0,0,0,0.025174,-0.0018498,0.0069974,3.1183,0.010107,0.023867,4.5396e-07,0.64,0.54,0
0.031724,0.00048392,0.02597,-0.0021328,0.0071512,0.0017968,0,0,0.044349,-0.02208,0,0.0086938,0,0,0,0.026104,-0.0022672,0.0071512,3.7482,0.010329,0.025033,4.9615e-07,0.66,0.54,0
0.032644,0.00034906,0.026946,-0.0022082,0.0074213,0.0018928,0,0,0.047319,-0.023341,0,0.0092111,0,0,0,0.02709,-0.0023522,0.0074213,3.721,0.01072,0.025976,5.2702e-07,0.68,0.54,0
0.033633,0.00016019,0.02753,-0.0017213,0.0077425,0.0016194,0,0,0.050296,-0.023998,0,0.0081769,0,0,0,0.027637,-0.0018283,0.0077425,3.1187,0.011184,0.026035,5.2297e-07,0.7,0.54,0
0.034664,-4.2601e-05,0.028082,-0.0010234,0.0081176,0.0012482,0,0,0.051907,-0.023766,0,0.0064908,0,0,0,0.028144,-0.0010859,0.0081176,2.4222,0.011725,0.025887,5.2761e-07,0.72,0.54,0
0.03571,-0.00023935,0.028696,-0.00040378,0.0084876,0.0010014,0,0,0.052541,-0.023118,0,0.0052071,0,0,0,0.028734,-0.00044206,0.0084876,1.9532,0.01226,0.025894,5.4803e-07,0.74,0.54,0
0.036765,-0.00042402,0.029143,0.00012569,0.0087807,0.00087084,0,0,0.052943,-0.022503,0,0.0045284,0,0,0,0.029171,9.7593e-05,0.0087807,1.708,0.012683,0.025851,5.6205e-07,0.76,0.54,0
0.037827,-0.00058981,0.029488,0.00052848,0.0090048,0.00083521,0,0,0.053255,-0.022038,0,0.0043431,0,0,0,0.029513,0.00050307,0.0090048,1.6442,0.013007,0.025831,5.7317e-07,0.78,0.54,0
0.038895,-0.00073165,0.029784,0.0007787,0.0091688,0.00085625,0,0,0.053599,-0.021814,0,0.0044525,0,0,0,0.02981,0.00075226,0.0091688,1.6839,0.013244,0.025897,5.8515e-07,0.8,0.54,0
0.039971,-0.00084785,0.030055,0.00088469,0.009282,0.00088782,0,0,0.054011,-0.021833,0,0.0046167,0,0,0,0.030083,0.00085664,0.009282,1.7365,0.013407,0.026056,5.991e-07,0.82,0.54,0
0.041056,-0.00093972,0.030308,0.00088563,0.009358,0.00089775,0,0,0.05447,-0.022028,0,0.0046683,0,0,0,0.030336,0.00085739,0.009358,1.7416,0.013517,0.026281,6.1449e-07,0.84,0.54,0
0.04215,-0.0010104,0.030537,0.00082382,0.0094083,0.00087201,0,0,0.054935,-0.02232,0,0.0045344,0,0,0,0.030563,0.00079754,0.0094083,1.6759,0.01359,0.02653,6.2997e-07,0.86,0.54,0
0.043253,-0.0010636,0.030737,0.00073212,0.0094407,0.00080993,0,0,0.05537,-0.022642,0,0.0042117,0,0,0,0.030759,0.00070969,0.0094407,1.5424,0.013637,0.026774,6.4439e-07,0.88,0.54,0
0.044365,-0.0011028,0.030904,0.00063223,0.0094609,0.00071681,0,0,0.055752,-0.022954,0,0.0037274,0,0,0,0.030922,0.00061476,0.0094609,1.3537,0.013666,0.026994,6.5699e-07,0.9,0.54,0
0.045483,-0.001131,0.031038,0.00053795,0.0094727,0.00059934,0,0,0.056069,-0.02323,0,0.0031166,0,0,0,0.03105,0.00052571,0.0094727,1.124,0.013683,0.027179,6.6742e-07,0.92,0.54,0
0.046608,-0.0011505,0.031139,0.00045802,0.0094792,0.00046383,0,0,0.056316,-0.023455,0,0.0024119,0,0,0,0.031147,0.00045057,0.0094792,0.86502,0.013692,0.027325,6.7552e-07,0.94,0.54,0
0.047736,-0.0011633,0.03121,0.00039785,0.0094825,0.00031575,0,0,0.056493,-0.02362,0,0.0016419,0,0,0,0.031214,0.00039419,0.0094825,0.58652,0.013697,0.027429,6.8129e-07,0.96,0.54,0
0.048867,-0.0011705,0.031252,0.00036065,0.0094839,0.00015436,0,0,0.056598,-0.023721,0,0.00080267,0,0,0,0.031254,0.0003594,0.0094839,0.28601,0.013699,0.027492,6.8474e-07,0.98,0.54,0
0.049433,-0.0011728,0.031266,0.00034808,0.0094843,6.9522e-05,0,0,0.056633,-0.023754,0,0.00036151,0,0,0,0.031267,0.00034765,0.0094843,0.12859,0.0137,0.027513,6.8588e-07,1,0.54,0
0.00042227,-7.8541e-05,0.028385,0.011754,0.012042,-0.0015095,0,0,0.042492,-0.00074789,0,-0.0078493,0,0,0,0.028523,0.011616,0.012042,-5.1476,0.017394,0.016701,2.3862e-07,0,0.56,0
0.00084985,-0.00015416,0.028437,0.011367,0.011941,-0.0014976,0,0,0.042888,-0.001493,0,-0.0077876,0,0,0,0.02857,0.011234,0.011941,-4.9852,0.017248,0.016997,2.5067e-07,0.02,0.56,0
0.0017155,-0.00029988,0.028627,0.010634,0.011778,-0.0014668,0,0,0.043806,-0.0029743,0,-0.0076272,0,0,0,0.028748,0.010513,0.011778,-4.6412,0.017013,0.017639,2.7711e-07,0.04,0.56,0
0.0026021,-0.00043507,0.028899,0.0099509,0.011655,-0.0014358,0,0,0.044834,-0.0044306,0,-0.0074659,0,0,0,0.029009,0.0098404,0.011655,-4.3177,0.016835,0.018332,3.0607e-07,0.06,0.56,0
0.0035089,-0.00056061,0.02916,0.0092836,0.011533,-0.0014169,0,0,0.04583,-0.0058484,0,-0.0073679,0,0,0,0.029262,0.0091812,0.011533,-4.0645,0.016659,0.019017,3.3515e-07,0.08,0.56,0
0.0044353,-0.00067707,0.029405,0.008638,0.011413,-0.0014073,0,0,0.04678,-0.0072151,0,-0.0073181,0,0,0,0.029502,0.0085414,0.011413,-3.8653,0.016485,0.019684,3.6386e-07,0.1,0.56,0
0.0053801,-0.00078479,0.029632,0.008019,0.011295,-0.0014047,0,0,0.047676,-0.0085186,0,-0.0073046,0,0,0,0.029724,0.0079267,0.011295,-3.7083,0.016315,0.020325,3.9169e-07,0.12,0.56,0
0.0063423,-0.00088385,0.029836,0.007431,0.01118,-0.0014073,0,0,0.048506,-0.0097479,0,-0.007318,0,0,0,0.029925,0.007342,0.01118,-3.5844,0.016149,0.020931,4.1816e-07,0.14,0.56,0
0.0073204,-0.00097413,0.030014,0.0068781,0.011068,-0.0014135,0,0,0.049261,-0.010893,0,-0.00735,0,0,0,0.030101,0.0067914,0.011068,-3.4866,0.015987,0.021494,4.4278e-07,0.16,0.56,0
0.0083127,-0.0010553,0.030163,0.0063636,0.010958,-0.0014217,0,0,0.049933,-0.011945,0,-0.0073928,0,0,0,0.030248,0.0062784,0.010958,-3.4093,0.015828,0.022007,4.6512e-07,0.18,0.56,0
0.0093177,-0.0011269,0.030279,0.0058897,0.010851,-0.0014303,0,0,0.050513,-0.012898,0,-0.0074375,0,0,0,0.030363,0.0058058,0.010851,-3.347,0.015673,0.022464,4.8475e-07,0.2,0.56,0
0.010333,-0.0011881,0.030358,0.0054577,0.010745,-0.0014372,0,0,0.050995,-0.013746,0,-0.0074735,0,0,0,0.030441,0.0053749,0.010745,-3.294,0.01552,0.02286,5.0132e-07,0.22,0.56,0
0.011357,-0.0012379,0.030398,0.0050675,0.01064,-0.0014398,0,0,0.051372,-0.014488,0,-0.007487,0,0,0,0.03048,0.0049859,0.01064,-3.2438,0.015369,0.02319,5.1452e-07,0.24,0.56,0
0.012388,-0.0012751,0.030396,0.0047171,0.010534,-0.0014346,0,0,0.051642,-0.015124,0,-0.0074601,0,0,0,0.030476,0.0046372,0.010534,-3.1881,0.015216,0.023453,5.2414e-07,0.26,0.56,0
0.013423,-0.001298,0.03035,0.004402,0.010425,-0.0014174,0,0,0.051803,-0.015661,0,-0.0073703,0,0,0,0.030427,0.0043247,0.010425,-3.117,0.015059,0.02365,5.3009e-07,0.28,0.56,0
0.01446,-0.0013045,0.030257,0.0041142,0.010311,-0.0013829,0,0,0.051859,-0.016113,0,-0.007191,0,0,0,0.030331,0.004041,0.010311,-3.0184,0.014894,0.023783,5.3248e-07,0.3,0.56,0
0.015498,-0.0012924,0.03012,0.0038407,0.010188,-0.0013261,0,0,0.051823,-0.016504,0,-0.0068959,0,0,0,0.030187,0.0037735,0.010188,-2.8797,0.014716,0.023862,5.3167e-07,0.32,0.56,0
0.016533,-0.001259,0.029941,0.0035624,0.010051,-0.0012439,0,0,0.051713,-0.01687,0,-0.0064682,0,0,0,0.03,0.003503,0.010051,-2.6914,0.014518,0.023905,5.2833e-07,0.34,0.56,0
0.017566,-0.0012017,0.029722,0.0032533,0.0098926,-0.0011378,0,0,0.051557,-0.017262,0,-0.0059167,0,0,0,0.029772,0.0032032,0.0098926,-2.4542,0.014289,0.023936,5.2339e-07,0.36,0.56,0
0.018595,-0.0011187,0.029466,0.002884,0.009705,-0.0010179,0,0,0.051379,-0.017735,0,-0.0052933,0,0,0,0.029506,0.0028435,0.009705,-2.1869,0.014018,0.02398,5.1773e-07,0.38,0.56,0
0.019621,-0.0010092,0.029166,0.0024307,0.0094789,-0.00090332,0,0,0.051185,-0.018325,0,-0.0046972,0,0,0,0.029198,0.0023983,0.0094789,-1.9293,0.013692,0.024055,5.1161e-07,0.4,0.56,0
0.020643,-0.00087464,0.028802,0.0018847,0.009206,-0.00081649,0,0,0.05095,-0.019035,0,-0.0042457,0,0,0,0.028829,0.0018573,0.009206,-1.7306,0.013298,0.024152,5.0415e-07,0.42,0.56,0
0.021659,-0.00071824,0.028345,0.001257,0.0088806,-0.00077384,0,0,0.050607,-0.019821,0,-0.004024,0,0,0,0.028371,0.0012306,0.0088806,-1.6274,0.012828,0.02424,4.9336e-07,0.44,0.56,0
0.022667,-0.00054482,0.027752,0.00055574,0.0084922,-0.00077298,0,0,0.050075,-0.020635,0,-0.0040195,0,0,0,0.027781,0.00052633,0.0084922,-1.6189,0.012267,0.024274,4.7668e-07,0.46,0.56,0
0.023662,-0.00036026,0.027013,-0.0002469,0.0080298,-0.00083167,0,0,0.049356,-0.021519,0,-0.0043247,0,0,0,0.027053,-0.0002869,0.0080298,-1.7439,0.011599,0.024276,4.5441e-07,0.48,0.56,0
0.024641,-0.00017919,0.0262,-0.0010483,0.0075454,-0.00093471,0,0,0.048501,-0.022344,0,-0.0048605,0,0,0,0.026253,-0.0011015,0.0075454,-1.9765,0.010899,0.024219,4.2869e-07,0.5,0.56,0
0.025602,-3.0067e-05,0.025391,-0.0015301,0.0071584,-0.0009693,0,0,0.047406,-0.02259,0,-0.0050403,0,0,0,0.025444,-0.0015828,0.0071584,-2.0943,0.01034,0.023888,3.9863e-07,0.52,0.56,0
0.026538,6.8668e-05,0.024662,-0.0016146,0.0069142,-0.00084554,0,0,0.046144,-0.022175,0,-0.0043968,0,0,0,0.0247,-0.0016525,0.0069142,-1.8814,0.0099872,0.023283,3.6719e-07,0.54,0.56,0
0.027448,0.0001251,0.024121,-0.0015854,0.0067607,-0.0005559,0,0,0.045137,-0.0217,0,-0.0028907,0,0,0,0.02414,-0.001604,0.0067607,-1.2662,0.0097654,0.022746,3.4309e-07,0.56,0.56,0
0.028343,0.00015398,0.02384,-0.0016201,0.006666,-0.00016174,0,0,0.044652,-0.021544,0,-0.00084103,0,0,0,0.023845,-0.0016256,0.006666,-0.37541,0.0096286,0.022502,3.3124e-07,0.58,0.56,0
0.029234,0.00016171,0.023818,-0.001728,0.0066269,0.00025708,0,0,0.044696,-0.021723,0,0.0013368,0,0,0,0.023825,-0.0017348,0.0066269,0.58099,0.0095722,0.022572,3.3168e-07,0.6,0.56,0
0.030131,0.00014776,0.024057,-0.0019117,0.0066435,0.00064161,0,0,0.045274,-0.022244,0,0.0033364,0,0,0,0.024078,-0.0019333,0.0066435,1.4363,0.0095962,0.022958,3.4447e-07,0.62,0.56,0
0.031045,0.00010444,0.024561,-0.0021661,0.0067184,0.00090811,0,0,0.04639,-0.0231,0,0.0047222,0,0,0,0.024601,-0.0022064,0.0067184,1.9801,0.0097044,0.023644,3.6969e-07,0.64,0.56,0
0.031987,1.53e-05,0.025258,-0.0023087,0.0068847,0.00099007,0,0,0.047769,-0.023903,0,0.0051483,0,0,0,0.02531,-0.0023607,0.0068847,2.0871,0.0099445,0.024399,4.0258e-07,0.66,0.56,0
0.032956,-0.00012958,0.026037,-0.0020342,0.0072007,0.00089649,0,0,0.048973,-0.024011,0,0.0046617,0,0,0,0.026085,-0.0020827,0.0072007,1.8401,0.010401,0.024863,4.3487e-07,0.68,0.56,0
0.033946,-0.00031266,0.026824,-0.0014144,0.007623,0.00072699,0,0,0.049924,-0.023497,0,0.0037803,0,0,0,0.026857,-0.0014469,0.007623,1.4713,0.011011,0.025034,4.6377e-07,0.7,0.56,0
0.034953,-0.00050519,0.02754,-0.00078899,0.0080254,0.00060162,0,0,0.050739,-0.022917,0,0.0031284,0,0,0,0.02756,-0.00080861,0.0080254,1.2082,0.011592,0.025144,4.8986e-07,0.72,0.56,0
0.035975,-0.00069211,0.028116,-0.00027235,0.008353,0.00053584,0,0,0.051383,-0.022426,0,0.0027864,0,0,0,0.02813,-0.00028644,0.008353,1.073,0.012065,0.025232,5.1095e-07,0.74,0.56,0
0.037008,-0.00086729,0.028562,0.00016158,0.0086172,0.00051094,0,0,0.051857,-0.021985,0,0.0026569,0,0,0,0.028574,0.00015003,0.0086172,1.0242,0.012447,0.025278,5.2682e-07,0.76,0.56,0
0.038049,-0.0010257,0.028924,0.00049986,0.0088273,0.00052943,0,0,0.052253,-0.021651,0,0.002753,0,0,0,0.028936,0.0004883,0.0088273,1.0618,0.012751,0.02533,5.4011e-07,0.78,0.56,0
0.039098,-0.0011639,0.029234,0.00072667,0.0089882,0.00057461,0,0,0.052639,-0.02148,0,0.002988,0,0,0,0.029247,0.0007137,0.0089882,1.1498,0.012983,0.025427,5.5297e-07,0.8,0.56,0
0.040155,-0.0012803,0.029513,0.00084658,0.0091077,0.00062285,0,0,0.053053,-0.021479,0,0.0032388,0,0,0,0.029527,0.00083188,0.0091077,1.2398,0.013156,0.025582,5.6655e-07,0.82,0.56,0
0.04122,-0.0013755,0.029767,0.00088023,0.0091943,0.00065353,0,0,0.05349,-0.021616,0,0.0033984,0,0,0,0.029783,0.0008645,0.0091943,1.2914,0.013281,0.025783,5.8084e-07,0.84,0.56,0
0.042295,-0.0014514,0.029998,0.00085515,0.009256,0.00065511,0,0,0.053929,-0.021842,0,0.0034066,0,0,0,0.030014,0.00083968,0.009256,1.2836,0.01337,0.026008,5.9517e-07,0.86,0.56,0
0.043377,-0.0015105,0.030202,0.00079648,0.0092994,0.00062461,0,0,0.054346,-0.022108,0,0.003248,0,0,0,0.030215,0.00078263,0.0092994,1.2135,0.013432,0.026233,6.0872e-07,0.88,0.56,0
0.044468,-0.0015555,0.030375,0.00072361,0.0093295,0.0005645,0,0,0.054717,-0.022375,0,0.0029354,0,0,0,0.030386,0.0007124,0.0093295,1.0881,0.013476,0.02644,6.2082e-07,0.9,0.56,0
0.045566,-0.0015889,0.030516,0.00065023,0.0093498,0.00047968,0,0,0.055031,-0.022619,0,0.0024943,0,0,0,0.030524,0.00064214,0.0093498,0.91834,0.013505,0.026618,6.3104e-07,0.92,0.56,0
0.04667,-0.0016129,0.030624,0.0005856,0.009363,0.00037568,0,0,0.05528,-0.022821,0,0.0019535,0,0,0,0.030629,0.00058056,0.009363,0.71532,0.013524,0.026761,6.3912e-07,0.94,0.56,0
0.047777,-0.0016288,0.030701,0.00053578,0.0093711,0.00025784,0,0,0.055459,-0.022972,0,0.0013408,0,0,0,0.030704,0.00053327,0.0093711,0.48901,0.013536,0.026865,6.4494e-07,0.96,0.56,0
0.048888,-0.0016379,0.030747,0.00050455,0.0093755,0.00012409,0,0,0.055566,-0.023065,0,0.00064528,0,0,0,0.030748,0.00050367,0.0093755,0.23475,0.013542,0.026928,6.4845e-07,0.98,0.56,0
0.049444,-0.0016409,0.030762,0.00049392,0.0093769,5.2078e-05,0,0,0.055602,-0.023096,0,0.00027081,0,0,0,0.030763,0.00049361,0.0093769,0.098314,0.013544,0.026949,6.4962e-07,1,0.56,0
0.00041947,-9.3255e-05,0.028198,0.011686,0.011965,-0.0017914,0,0,0.042205,-0.00072598,0,-0.0093154,0,0,0,0.028393,0.011491,0.011965,-6.1242,0.017283,0.016671,2.3723e-07,0,0.58,0
0.0008441,-0.00018356,0.028248,0.011309,0.011867,-0.0017777,0,0,0.042591,-0.0014516,0,-0.0092438,0,0,0,0.028435,0.011121,0.011867,-5.9361,0.017141,0.016956,2.4872e-07,0.02,0.58,0
0.0017036,-0.00035851,0.028432,0.010593,0.011708,-0.0017412,0,0,0.043485,-0.002898,0,-0.009054,0,0,0,0.028603,0.010422,0.011708,-5.5343,0.016911,0.017577,2.7395e-07,0.04,0.58,0
0.0025835,-0.0005225,0.028696,0.0099211,0.011585,-0.0017005,0,0,0.044489,-0.0043267,0,-0.0088427,0,0,0,0.028851,0.009766,0.011585,-5.1435,0.016734,0.018246,3.0164e-07,0.06,0.58,0
0.0034832,-0.00067613,0.028948,0.0092622,0.011463,-0.001668,0,0,0.045461,-0.0057223,0,-0.0086735,0,0,0,0.02909,0.0091199,0.011463,-4.8172,0.016558,0.01891,3.2946e-07,0.08,0.58,0
0.0044019,-0.0008197,0.029184,0.0086224,0.011342,-0.0016408,0,0,0.046389,-0.0070706,0,-0.0085322,0,0,0,0.029316,0.0084907,0.011342,-4.5409,0.016383,0.019557,3.5689e-07,0.1,0.58,0
0.0053387,-0.00095329,0.0294,0.0080074,0.011222,-0.0016168,0,0,0.047262,-0.0083583,0,-0.0084076,0,0,0,0.029522,0.0078846,0.011222,-4.3038,0.01621,0.020179,3.8341e-07,0.12,0.58,0
0.0062924,-0.0010767,0.029592,0.0074219,0.011104,-0.0015944,0,0,0.048067,-0.0095735,0,-0.0082908,0,0,0,0.029707,0.0073069,0.011104,-4.0974,0.016039,0.020764,4.085e-07,0.14,0.58,0
0.0072614,-0.0011898,0.029756,0.0068702,0.010988,-0.001572,0,0,0.048797,-0.010706,0,-0.0081743,0,0,0,0.029864,0.006762,0.010988,-3.9152,0.015871,0.021307,4.3169e-07,0.16,0.58,0
0.0082443,-0.0012918,0.029889,0.0063554,0.010873,-0.0015483,0,0,0.049442,-0.011747,0,-0.0080512,0,0,0,0.029991,0.0062535,0.010873,-3.7513,0.015706,0.021799,4.5253e-07,0.18,0.58,0
0.0092391,-0.0013823,0.029989,0.0058796,0.010761,-0.0015218,0,0,0.049994,-0.01269,0,-0.0079136,0,0,0,0.030085,0.0057836,0.010761,-3.6003,0.015543,0.022235,4.7066e-07,0.2,0.58,0
0.010244,-0.0014604,0.030051,0.0054437,0.010649,-0.0014908,0,0,0.050447,-0.013533,0,-0.0077519,0,0,0,0.030142,0.0053536,0.010649,-3.4562,0.015381,0.022611,4.8574e-07,0.22,0.58,0
0.011257,-0.001525,0.030075,0.0050469,0.010536,-0.0014527,0,0,0.050799,-0.014273,0,-0.007554,0,0,0,0.030159,0.0049628,0.010536,-3.3121,0.015219,0.022923,4.9757e-07,0.24,0.58,0
0.012276,-0.0015749,0.030057,0.0046864,0.010423,-0.0014047,0,0,0.051048,-0.014915,0,-0.0073044,0,0,0,0.030134,0.0046087,0.010423,-3.1601,0.015055,0.023172,5.0601e-07,0.26,0.58,0
0.013299,-0.0016086,0.029997,0.0043569,0.010306,-0.0013432,0,0,0.051196,-0.015468,0,-0.0069848,0,0,0,0.030067,0.0042865,0.010306,-2.9907,0.014887,0.02336,5.1111e-07,0.28,0.58,0
0.014324,-0.0016244,0.029895,0.00405,0.010183,-0.0012645,0,0,0.05125,-0.015947,0,-0.0065755,0,0,0,0.029957,0.0039878,0.010183,-2.7939,0.014709,0.023492,5.1307e-07,0.3,0.58,0
0.015349,-0.0016205,0.029753,0.0037532,0.010052,-0.0011654,0,0,0.051222,-0.016376,0,-0.0060599,0,0,0,0.029806,0.0037004,0.010052,-2.5603,0.014519,0.02358,5.1233e-07,0.32,0.58,0
0.016373,-0.0015949,0.029573,0.00345,0.0099069,-0.0010445,0,0,0.051132,-0.016788,0,-0.0054313,0,0,0,0.029616,0.0034073,0.0099069,-2.2848,0.01431,0.023639,5.0949e-07,0.34,0.58,0
0.017394,-0.0015458,0.029359,0.0031204,0.0097437,-0.0009042,0,0,0.050999,-0.017221,0,-0.0047018,0,0,0,0.029391,0.0030878,0.0097437,-1.9702,0.014074,0.023688,5.053e-07,0.36,0.58,0
0.018413,-0.0014723,0.029111,0.0027438,0.0095563,-0.00075175,0,0,0.050841,-0.017713,0,-0.0039091,0,0,0,0.029134,0.0027206,0.0095563,-1.6309,0.013804,0.023745,5.0035e-07,0.38,0.58,0
0.019428,-0.0013743,0.028827,0.0023043,0.0093393,-0.00059839,0,0,0.050667,-0.018291,0,-0.0031116,0,0,0,0.028842,0.0022887,0.0093393,-1.2912,0.01349,0.023824,4.9488e-07,0.4,0.58,0
0.020439,-0.0012532,0.0285,0.0017948,0.0090885,-0.00045593,0,0,0.05047,-0.018964,0,-0.0023709,0,0,0,0.02851,0.0017845,0.0090885,-0.97753,0.013128,0.023926,4.8862e-07,0.42,0.58,0
0.021447,-0.0011118,0.028124,0.0012158,0.0088021,-0.00033145,0,0,0.050238,-0.019724,0,-0.0017235,0,0,0,0.028132,0.0012085,0.0088021,-0.70624,0.012714,0.024044,4.8104e-07,0.44,0.58,0
0.022449,-0.00095454,0.027709,0.0005698,0.0084836,-0.00023011,0,0,0.049986,-0.020576,0,-0.0011966,0,0,0,0.027715,0.00056381,0.0084836,-0.48873,0.012254,0.024185,4.7236e-07,0.46,0.58,0
0.023446,-0.00078896,0.027262,-0.00016559,0.008129,-0.00016886,0,0,0.049746,-0.021566,0,-0.00087805,0,0,0,0.027268,-0.00017113,0.008129,-0.35828,0.011742,0.024374,4.6315e-07,0.48,0.58,0
0.024439,-0.00062879,0.026777,-0.00094586,0.0077494,-0.00018279,0,0,0.049472,-0.022608,0,-0.00095049,0,0,0,0.026783,-0.00095203,0.0077494,-0.38523,0.011194,0.02457,4.5216e-07,0.5,0.58,0
0.025425,-0.00049214,0.026288,-0.0015384,0.0074249,-0.00025934,0,0,0.049045,-0.023305,0,-0.0013486,0,0,0,0.026296,-0.0015462,0.0074249,-0.54653,0.010725,0.024615,4.3767e-07,0.52,0.58,0
0.0264,-0.00039179,0.025847,-0.0018006,0.0072138,-0.00029608,0,0,0.048445,-0.023437,0,-0.0015396,0,0,0,0.025854,-0.0018081,0.0072138,-0.6305,0.01042,0.024434,4.2053e-07,0.54,0.58,0
0.027363,-0.00032875,0.025487,-0.0018807,0.007082,-0.00021485,0,0,0.047854,-0.023303,0,-0.0011172,0,0,0,0.025492,-0.0018851,0.007082,-0.46416,0.01023,0.024175,4.0484e-07,0.56,0.58,0
0.028315,-0.00029726,0.025272,-0.0019478,0.0069972,-3.5635e-05,0,0,0.047514,-0.023257,0,-0.0001853,0,0,0,0.025273,-0.0019494,0.0069972,-0.081533,0.010107,0.024033,3.9576e-07,0.58,0.58,0
0.029263,-0.00029307,0.025252,-0.0020508,0.0069605,0.00017439,0,0,0.047559,-0.023429,0,0.00090683,0,0,0,0.025255,-0.0020533,0.0069605,0.36909,0.010054,0.024101,3.9624e-07,0.6,0.58,0
0.030217,-0.00031682,0.02543,-0.0021911,0.0069718,0.00034034,0,0,0.047992,-0.023824,0,0.0017697,0,0,0,0.025437,-0.0021975,0.0069718,0.71752,0.01007,0.024379,4.0633e-07,0.62,0.58,0
0.031183,-0.00037411,0.025754,-0.0023202,0.00703,0.000393,0,0,0.048681,-0.024311,0,0.0020436,0,0,0,0.025763,-0.0023296,0.00703,0.8172,0.010154,0.024776,4.2311e-07,0.64,0.58,0
0.032164,-0.00047219,0.026161,-0.0022642,0.0071689,0.00031081,0,0,0.049378,-0.024526,0,0.0016162,0,0,0,0.026169,-0.0022725,0.0071689,0.63776,0.010355,0.025091,4.4168e-07,0.66,0.58,0
0.033158,-0.00061137,0.026616,-0.0018652,0.0074253,0.00017455,0,0,0.049896,-0.024155,0,0.00090764,0,0,0,0.026622,-0.0018707,0.0074253,0.35666,0.010725,0.025167,4.5825e-07,0.68,0.58,0
0.03416,-0.00077971,0.027069,-0.001265,0.0077412,9.3063e-05,0,0,0.050252,-0.023416,0,0.00048393,0,0,0,0.027073,-0.0012691,0.0077412,0.19126,0.011182,0.025082,4.7194e-07,0.7,0.58,0
0.035168,-0.0009593,0.027486,-0.00070649,0.0080339,8.3722e-05,0,0,0.050576,-0.022725,0,0.00043535,0,0,0,0.02749,-0.00071002,0.0080339,0.17089,0.011604,0.025002,4.8424e-07,0.72,0.58,0
0.036183,-0.0011364,0.027876,-0.00024293,0.0082899,0.00011235,0,0,0.050924,-0.022185,0,0.00058424,0,0,0,0.027879,-0.00024596,0.0082899,0.22761,0.011974,0.024976,4.965e-07,0.74,0.58,0
0.037205,-0.0013034,0.028233,0.00014378,0.008513,0.00016164,0,0,0.051272,-0.02176,0,0.00084054,0,0,0,0.028236,0.00014087,0.008513,0.32751,0.012297,0.024984,5.0833e-07,0.76,0.58,0
0.038234,-0.0014559,0.02855,0.00044707,0.008699,0.00022617,0,0,0.051612,-0.021455,0,0.0011761,0,0,0,0.028553,0.00044367,0.008699,0.45854,0.012565,0.025025,5.1959e-07,0.78,0.58,0
0.03927,-0.0015908,0.028834,0.00066241,0.0088489,0.00029851,0,0,0.051961,-0.021285,0,0.0015522,0,0,0,0.028838,0.00065791,0.0088489,0.60419,0.012782,0.025108,5.3096e-07,0.8,0.58,0
0.040312,-0.001707,0.029093,0.00079308,0.008966,0.0003661,0,0,0.052331,-0.021249,0,0.0019037,0,0,0,0.029099,0.00078723,0.008966,0.73796,0.012951,0.025237,5.4287e-07,0.82,0.58,0
0.041363,-0.0018044,0.029332,0.00085223,0.0090554,0.00041673,0,0,0.05272,-0.021328,0,0.002167,0,0,0,0.029339,0.00084523,0.0090554,0.83505,0.01308,0.025404,5.5531e-07,0.84,0.58,0
0.042421,-0.0018841,0.02955,0.00085823,0.0091226,0.00044225,0,0,0.053112,-0.021487,0,0.0022997,0,0,0,0.029558,0.0008507,0.0091226,0.87998,0.013177,0.025594,5.6784e-07,0.86,0.58,0
0.043487,-0.0019479,0.029745,0.0008299,0.0091723,0.0004396,0,0,0.053488,-0.02169,0,0.0022859,0,0,0,0.029752,0.00082268,0.0091723,0.8683,0.013249,0.025789,5.7987e-07,0.88,0.58,0
0.044561,-0.0019978,0.029912,0.00078344,0.0092086,0.00040978,0,0,0.053829,-0.021906,0,0.0021309,0,0,0,0.029918,0.00077726,0.0092086,0.80377,0.013301,0.025973,5.908e-07,0.9,0.58,0
0.045641,-0.0020357,0.03005,0.00073139,0.0092346,0.00035627,0,0,0.054121,-0.022108,0,0.0018526,0,0,0,0.030055,0.00072675,0.0092346,0.6945,0.013339,0.026135,6.0019e-07,0.92,0.58,0
0.046726,-0.0020634,0.030159,0.0006829,0.0092525,0.00028366,0,0,0.054356,-0.022281,0,0.001475,0,0,0,0.030162,0.00067992,0.0092525,0.55017,0.013365,0.026266,6.0774e-07,0.94,0.58,0
0.047815,-0.0020822,0.030236,0.00064428,0.0092641,0.00019686,0,0,0.054527,-0.022411,0,0.0010237,0,0,0,0.030237,0.00064276,0.0092641,0.3804,0.013381,0.026363,6.1323e-07,0.96,0.58,0
0.048907,-0.0020931,0.030282,0.0006196,0.0092706,9.2295e-05,0,0,0.05463,-0.022492,0,0.00047994,0,0,0,0.030283,0.00061906,0.0092706,0.17791,0.013391,0.026423,6.1656e-07,0.98,0.58,0
0.049453,-0.0020966,0.030298,0.00061113,0.0092726,3.4061e-05,0,0,0.054665,-0.02252,0,0.00017712,0,0,0,0.030298,0.00061093,0.0092726,0.065483,0.013394,0.026442,6.1768e-07,1,0.58,0
0.00041678,-0.00010758,0.028018,0.011618,0.011891,-0.0020658,0,0,0.04193,-0.00070929,0,-0.010742,0,0,0,0.028276,0.011359,0.011891,-7.0729,0.017175,0.016659,2.3656e-07,0,0.6,0
0.0008386,-0.00021223,0.028067,0.011248,0.011794,-0.0020503,0,0,0.042308,-0.0014205,0,-0.010661,0,0,0,0.028316,0.010999,0.011794,-6.8605,0.017036,0.016936,2.4758e-07,0.02,0.6,0
0.0016923,-0.0004158,0.028247,0.010544,0.011637,-0.0020083,0,0,0.043185,-0.0028419,0,-0.010443,0,0,0,0.028474,0.010317,0.011637,-6.4038,0.01681,0.017537,2.7181e-07,0.04,0.6,0
0.002566,-0.00060813,0.028504,0.0098794,0.011515,-0.0019579,0,0,0.044172,-0.0042526,0,-0.010181,0,0,0,0.02871,0.0096735,0.011515,-5.9471,0.016633,0.018188,2.9843e-07,0.06,0.6,0
0.0034592,-0.0007895,0.028749,0.0092247,0.011392,-0.0019112,0,0,0.045129,-0.0056356,0,-0.0099381,0,0,0,0.028937,0.0090374,0.011392,-5.5472,0.016455,0.018834,3.252e-07,0.08,0.6,0
0.0043711,-0.0009599,0.028978,0.0085869,0.011269,-0.0018655,0,0,0.046042,-0.0069748,0,-0.0097004,0,0,0,0.029149,0.0084159,0.011269,-5.192,0.016278,0.019465,3.5155e-07,0.1,0.6,0
0.0053009,-0.0011191,0.029186,0.007972,0.011147,-0.0018189,0,0,0.0469,-0.0082558,0,-0.0094584,0,0,0,0.029342,0.0078159,0.011147,-4.872,0.016102,0.02007,3.7697e-07,0.12,0.6,0
0.0062471,-0.0012668,0.029369,0.0073855,0.011026,-0.0017701,0,0,0.04769,-0.0094659,0,-0.0092046,0,0,0,0.029511,0.0072428,0.011026,-4.5798,0.015927,0.020639,4.0091e-07,0.14,0.6,0
0.0072085,-0.0014024,0.029523,0.0068315,0.010906,-0.0017179,0,0,0.048403,-0.010594,0,-0.008933,0,0,0,0.029653,0.0067015,0.010906,-4.3097,0.015754,0.021166,4.2292e-07,0.16,0.6,0
0.0081832,-0.0015252,0.029645,0.0063134,0.010788,-0.0016612,0,0,0.04903,-0.011633,0,-0.0086385,0,0,0,0.029764,0.0061952,0.010788,-4.0561,0.015582,0.021641,4.4258e-07,0.18,0.6,0
0.0091697,-0.0016345,0.029734,0.005833,0.01067,-0.0015991,0,0,0.049565,-0.012576,0,-0.0083151,0,0,0,0.02984,0.0057262,0.01067,-3.8139,0.015412,0.022062,4.5954e-07,0.2,0.6,0
0.010166,-0.0017294,0.029785,0.0053908,0.010553,-0.0015299,0,0,0.050004,-0.013421,0,-0.0079557,0,0,0,0.029881,0.005295,0.010553,-3.5772,0.015243,0.022425,4.7355e-07,0.22,0.6,0
0.01117,-0.0018088,0.029798,0.0049854,0.010435,-0.0014521,0,0,0.050344,-0.014169,0,-0.0075509,0,0,0,0.029883,0.0049005,0.010435,-3.3397,0.015073,0.022727,4.8447e-07,0.24,0.6,0
0.01218,-0.0018717,0.029772,0.0046135,0.010316,-0.0013633,0,0,0.050587,-0.014826,0,-0.0070892,0,0,0,0.029846,0.0045395,0.010316,-3.0938,0.014901,0.02297,4.9228e-07,0.26,0.6,0
0.013193,-0.0019167,0.029708,0.0042694,0.010193,-0.001261,0,0,0.050738,-0.015402,0,-0.0065574,0,0,0,0.029771,0.0042066,0.010193,-2.8317,0.014723,0.023159,4.9709e-07,0.28,0.6,0
0.014209,-0.0019424,0.029606,0.0039446,0.010065,-0.0011428,0,0,0.050806,-0.015913,0,-0.0059425,0,0,0,0.029657,0.0038932,0.010065,-2.5452,0.014538,0.0233,4.9919e-07,0.3,0.6,0
0.015226,-0.0019475,0.029468,0.0036277,0.0099289,-0.0010068,0,0,0.050803,-0.016383,0,-0.0052355,0,0,0,0.029509,0.0035877,0.0099289,-2.228,0.014342,0.023404,4.9905e-07,0.32,0.6,0
0.016241,-0.0019305,0.0293,0.0033047,0.0097813,-0.00085302,0,0,0.050748,-0.016839,0,-0.0044357,0,0,0,0.029329,0.0032756,0.0097813,-1.8776,0.014129,0.023486,4.9723e-07,0.34,0.6,0
0.017255,-0.0018906,0.029103,0.0029596,0.0096187,-0.00068379,0,0,0.050659,-0.017314,0,-0.0035557,0,0,0,0.029122,0.0029403,0.0096187,-1.4978,0.013894,0.023564,4.9439e-07,0.36,0.6,0
0.018268,-0.0018272,0.028881,0.0025769,0.0094374,-0.00050451,0,0,0.050554,-0.017837,0,-0.0026235,0,0,0,0.028893,0.0025655,0.0094374,-1.0995,0.013632,0.023652,4.9109e-07,0.38,0.6,0
0.019278,-0.0017408,0.028637,0.0021441,0.0092344,-0.0003229,0,0,0.050447,-0.018435,0,-0.0016791,0,0,0,0.028643,0.0021383,0.0092344,-0.7,0.013339,0.023765,4.8769e-07,0.4,0.6,0
0.020286,-0.0016332,0.028373,0.0016533,0.0090079,-0.00014751,0,0,0.050349,-0.019122,0,-0.00076706,0,0,0,0.028376,0.0016505,0.0090079,-0.31898,0.013011,0.023912,4.8442e-07,0.42,0.6,0
0.021292,-0.0015072,0.028095,0.0011006,0.0087587,1.2375e-05,0,0,0.050275,-0.019911,0,6.4348e-05,0,0,0,0.028097,0.0010986,0.0087587,0.022604,0.012652,0.0241,4.8149e-07,0.44,0.6,0
0.022296,-0.0013679,0.027812,0.00048055,0.0084878,0.00014294,0,0,0.050243,-0.020819,0,0.00074329,0,0,0,0.027815,0.00047797,0.0084878,0.2953,0.01226,0.024342,4.7919e-07,0.46,0.6,0
0.023301,-0.0012229,0.027525,-0.00020157,0.0081969,0.00021932,0,0,0.050252,-0.021836,0,0.0011405,0,0,0,0.027528,-0.0002049,0.0081969,0.44924,0.01184,0.024632,4.7716e-07,0.48,0.6,0
0.024307,-0.0010835,0.027231,-0.00088193,0.0079049,0.00021838,0,0,0.050249,-0.022846,0,0.0011356,0,0,0,0.027235,-0.00088527,0.0079049,0.44168,0.011418,0.024917,4.7399e-07,0.5,0.6,0
0.025311,-0.00096226,0.02694,-0.0014387,0.0076504,0.00015301,0,0,0.050153,-0.023632,0,0.00079565,0,0,0,0.026943,-0.0014413,0.0076504,0.30439,0.011051,0.025105,4.6819e-07,0.52,0.6,0
0.026313,-0.00086883,0.026669,-0.0017947,0.0074622,7.8148e-05,0,0,0.049937,-0.024068,0,0.00040637,0,0,0,0.026671,-0.0017965,0.0074622,0.15094,0.010779,0.02515,4.5998e-07,0.54,0.6,0
0.027309,-0.00080702,0.026447,-0.0019872,0.0073379,4.7525e-05,0,0,0.049684,-0.024245,0,0.00024713,0,0,0,0.026448,-0.0019882,0.0073379,0.089768,0.010599,0.025108,4.5174e-07,0.56,0.6,0
0.0283,-0.0007763,0.026311,-0.0021048,0.0072619,6.9478e-05,0,0,0.049528,-0.024354,0,0.00036129,0,0,0,0.026312,-0.0021054,0.0072619,0.13722,0.010489,0.025082,4.4669e-07,0.58,0.6,0
0.02929,-0.00077546,0.026292,-0.0022015,0.0072273,0.0001088,0,0,0.049569,-0.024515,0,0.00056575,0,0,0,0.026293,-0.0022021,0.0072273,0.22025,0.010439,0.025144,4.4708e-07,0.6,0.6,0
0.030283,-0.00080518,0.02639,-0.0022772,0.0072339,0.00011563,0,0,0.049807,-0.024729,0,0.00060129,0,0,0,0.026391,-0.0022784,0.0072339,0.23601,0.010449,0.025293,4.5294e-07,0.62,0.6,0
0.031282,-0.00086799,0.026575,-0.0022774,0.0072892,5.4259e-05,0,0,0.050142,-0.024873,0,0.00028215,0,0,0,0.026576,-0.0022789,0.0072892,0.11333,0.010529,0.025457,4.621e-07,0.64,0.6,0
0.032288,-0.00096574,0.026808,-0.0021103,0.0074094,-6.6696e-05,0,0,0.050437,-0.024751,0,-0.00034682,0,0,0,0.02681,-0.0021121,0.0074094,-0.12853,0.010702,0.02553,4.7152e-07,0.66,0.6,0
0.0333,-0.0010958,0.027063,-0.0017354,0.0075982,-0.00019112,0,0,0.050608,-0.024267,0,-0.00099382,0,0,0,0.027065,-0.0017381,0.0075982,-0.37841,0.010975,0.025454,4.7899e-07,0.68,0.6,0
0.034313,-0.0012493,0.027319,-0.0012304,0.0078266,-0.00026016,0,0,0.05068,-0.023548,0,-0.0013528,0,0,0,0.027323,-0.001234,0.0078266,-0.52038,0.011305,0.025276,4.8434e-07,0.7,0.6,0
0.035327,-0.0014142,0.027571,-0.00072239,0.0080547,-0.00025767,0,0,0.050744,-0.02282,0,-0.0013399,0,0,0,0.027575,-0.00072598,0.0080547,-0.52003,0.011635,0.025091,4.8898e-07,0.72,0.6,0
0.036343,-0.0015795,0.027823,-0.00028138,0.0082626,-0.00020534,0,0,0.050858,-0.022214,0,-0.0010678,0,0,0,0.027826,-0.00028419,0.0082626,-0.41759,0.011935,0.02496,4.9435e-07,0.74,0.6,0
0.037361,-0.0017377,0.028075,8.2553e-05,0.0084474,-0.00012787,0,0,0.051033,-0.021749,0,-0.00066494,0,0,0,0.028077,8.0692e-05,0.0084474,-0.26162,0.012202,0.024891,5.009e-07,0.76,0.6,0
0.038384,-0.0018839,0.028322,0.00037074,0.0086077,-3.9276e-05,0,0,0.051256,-0.021416,0,-0.00020424,0,0,0,0.028323,0.0003695,0.0086077,-0.081199,0.012433,0.024879,5.0848e-07,0.78,0.6,0
0.039411,-0.0020153,0.028557,0.00058338,0.0087422,5.0816e-05,0,0,0.051519,-0.021213,0,0.00026424,0,0,0,0.028558,0.00058221,0.0087422,0.10274,0.012628,0.024919,5.17e-07,0.8,0.6,0
0.040445,-0.0021303,0.028781,0.00072503,0.0088517,0.00013335,0,0,0.051815,-0.021129,0,0.00069343,0,0,0,0.028782,0.00072346,0.0088517,0.2705,0.012786,0.025006,5.2641e-07,0.82,0.6,0
0.041484,-0.0022286,0.028991,0.00080535,0.0089388,0.00020004,0,0,0.052135,-0.021147,0,0.0010402,0,0,0,0.028993,0.00080314,0.0089388,0.40451,0.012912,0.02513,5.3649e-07,0.84,0.6,0
0.04253,-0.0023109,0.029185,0.00083762,0.0090069,0.00024502,0,0,0.052464,-0.02124,0,0.0012741,0,0,0,0.029188,0.00083488,0.0090069,0.49301,0.01301,0.025278,5.4684e-07,0.86,0.6,0
0.043583,-0.0023781,0.029361,0.00083616,0.0090592,0.00026561,0,0,0.052785,-0.02138,0,0.0013812,0,0,0,0.029364,0.00083322,0.0090592,0.53141,0.013086,0.025436,5.5696e-07,0.88,0.6,0
0.044641,-0.0024317,0.029515,0.00081418,0.0090988,0.00026209,0,0,0.053082,-0.02154,0,0.0013629,0,0,0,0.029518,0.00081144,0.0090988,0.52139,0.013143,0.02559,5.6634e-07,0.9,0.6,0
0.045706,-0.0024733,0.029644,0.00078269,0.009128,0.00023688,0,0,0.053341,-0.021698,0,0.0012318,0,0,0,0.029646,0.0007805,0.009128,0.46879,0.013185,0.025728,5.7453e-07,0.92,0.6,0
0.046775,-0.0025041,0.029746,0.00075022,0.0091487,0.00019366,0,0,0.053552,-0.021836,0,0.001007,0,0,0,0.029747,0.00074875,0.0091487,0.38159,0.013215,0.025843,5.812e-07,0.94,0.6,0
0.047848,-0.0025253,0.029819,0.00072295,0.0091625,0.00013674,0,0,0.053706,-0.021943,0,0.00071104,0,0,0,0.02982,0.00072218,0.0091625,0.26856,0.013235,0.025929,5.8612e-07,0.96,0.6,0
0.048923,-0.0025376,0.029863,0.00070502,0.0091704,6.0985e-05,0,0,0.053801,-0.02201,0,0.00031712,0,0,0,0.029863,0.00070473,0.0091704,0.11949,0.013246,0.025982,5.8912e-07,0.98,0.6,0
0.049462,-0.0025417,0.029878,0.00069879,0.009173,1.6555e-05,0,0,0.053833,-0.022033,0,8.6086e-05,0,0,0,0.029878,0.00069867,0.009173,0.032282,0.01325,0.025999,5.9013e-07,1,0.6,0
0.00041423,-0.00012163,0.027847,0.011551,0.011819,-0.0023349,0,0,0.041672,-0.00069842,0,-0.012141,0,0,0,0.028177,0.011221,0.011819,-7.9972,0.017072,0.016667,2.3667e-07,0,0.62,0
0.00083345,-0.00024038,0.027896,0.011186,0.011724,-0.0023176,0,0,0.042045,-0.0014008,0,-0.012052,0,0,0,0.028214,0.010867,0.011724,-7.7614,0.016935,0.016937,2.4733e-07,0.02,0.62,0
0.0016818,-0.00047218,0.028073,0.010488,0.011568,-0.0022704,0,0,0.042912,-0.0028084,0,-0.011806,0,0,0,0.028364,0.010197,0.011568,-7.2517,0.01671,0.017524,2.7076e-07,0.04,0.62,0
0.0025499,-0.00069261,0.028326,0.0098257,0.011446,-0.0022103,0,0,0.04389,-0.0042119,0,-0.011494,0,0,0,0.028589,0.0095628,0.011446,-6.7301,0.016533,0.01816,2.9655e-07,0.06,0.62,0
0.0034374,-0.00090155,0.028567,0.0091705,0.011321,-0.0021489,0,0,0.04484,-0.0055923,0,-0.011174,0,0,0,0.028805,0.0089332,0.011321,-6.2562,0.016353,0.018793,3.2247e-07,0.08,0.62,0
0.0043435,-0.0010987,0.028792,0.0085303,0.011197,-0.0020839,0,0,0.045747,-0.0069323,0,-0.010837,0,0,0,0.029005,0.0083164,0.011197,-5.8204,0.016173,0.019411,3.4797e-07,0.1,0.62,0
0.0052673,-0.0012835,0.028994,0.0079117,0.011072,-0.0020139,0,0,0.046598,-0.008216,0,-0.010472,0,0,0,0.029186,0.0077196,0.011072,-5.4153,0.015992,0.020003,3.7249e-07,0.12,0.62,0
0.0062074,-0.0014554,0.029171,0.0073204,0.010947,-0.0019377,0,0,0.047381,-0.0094299,0,-0.010076,0,0,0,0.029342,0.0071488,0.010947,-5.0351,0.015813,0.02056,3.955e-07,0.14,0.62,0
0.0071625,-0.0016135,0.029318,0.0067611,0.010824,-0.0018548,0,0,0.048085,-0.010563,0,-0.0096449,0,0,0,0.029471,0.0066088,0.010824,-4.6748,0.015634,0.021074,4.1657e-07,0.16,0.62,0
0.0081309,-0.0017571,0.029434,0.006237,0.010701,-0.0017646,0,0,0.048704,-0.011607,0,-0.0091761,0,0,0,0.029568,0.0061029,0.010701,-4.33,0.015457,0.021538,4.3529e-07,0.18,0.62,0
0.0091107,-0.0018853,0.029514,0.0057498,0.010579,-0.0016667,0,0,0.049232,-0.012557,0,-0.008667,0,0,0,0.029631,0.0056329,0.010579,-3.9961,0.015281,0.021948,4.5138e-07,0.2,0.62,0
0.0101,-0.0019972,0.02956,0.0052996,0.010458,-0.0015603,0,0,0.049665,-0.013411,0,-0.0081138,0,0,0,0.02966,0.0051992,0.010458,-3.668,0.015106,0.022302,4.6464e-07,0.22,0.62,0
0.011097,-0.0020917,0.029568,0.0048846,0.010336,-0.0014444,0,0,0.050004,-0.014173,0,-0.007511,0,0,0,0.029653,0.0047999,0.010336,-3.34,0.014929,0.022599,4.75e-07,0.24,0.62,0
0.0121,-0.0021679,0.02954,0.0045012,0.010212,-0.0013177,0,0,0.050252,-0.014849,0,-0.0068518,0,0,0,0.02961,0.0044316,0.010212,-3.0059,0.014751,0.022843,4.8252e-07,0.26,0.62,0
0.013107,-0.0022247,0.029477,0.0041435,0.010086,-0.0011786,0,0,0.050416,-0.015451,0,-0.0061285,0,0,0,0.029532,0.0040882,0.010086,-2.6593,0.014569,0.023038,4.874e-07,0.28,0.62,0
0.014117,-0.002261,0.02938,0.0038033,0.0099551,-0.0010258,0,0,0.050506,-0.015995,0,-0.0053344,0,0,0,0.029422,0.0037614,0.0099551,-2.2943,0.01438,0.023193,4.8998e-07,0.3,0.62,0
0.015128,-0.0022758,0.029255,0.0034702,0.0098175,-0.00085894,0,0,0.050537,-0.016503,0,-0.0044665,0,0,0,0.029284,0.0034406,0.0098175,-1.907,0.014181,0.023319,4.9072e-07,0.32,0.62,0
0.016138,-0.0022684,0.029104,0.0031321,0.0096708,-0.00067859,0,0,0.050526,-0.017,0,-0.0035287,0,0,0,0.029123,0.0031132,0.0096708,-1.497,0.013969,0.02343,4.902e-07,0.34,0.62,0
0.017149,-0.0022384,0.028932,0.002776,0.0095124,-0.00048744,0,0,0.050491,-0.017515,0,-0.0025347,0,0,0,0.028942,0.0027655,0.0095124,-1.069,0.01374,0.02354,4.89e-07,0.36,0.62,0
0.018158,-0.0021858,0.028745,0.0023892,0.0093402,-0.00029027,0,0,0.050452,-0.018072,0,-0.0015094,0,0,0,0.028749,0.0023845,0.0093402,-0.63332,0.013491,0.023667,4.8769e-07,0.38,0.62,0
0.019167,-0.0021117,0.028547,0.0019613,0.0091525,-9.3917e-05,0,0,0.050426,-0.018697,0,-0.00048837,0,0,0,0.028549,0.0019595,0.0091525,-0.20545,0.01322,0.023822,4.8674e-07,0.4,0.62,0
0.020175,-0.0020181,0.028345,0.0014847,0.008949,9.2757e-05,0,0,0.05043,-0.019407,0,0.00048234,0,0,0,0.028347,0.0014829,0.008949,0.19424,0.012926,0.024018,4.8652e-07,0.42,0.62,0
0.021184,-0.0019082,0.028146,0.00095481,0.0087303,0.00025801,0,0,0.050481,-0.020216,0,0.0013417,0,0,0,0.02815,0.00095122,0.0087303,0.53975,0.01261,0.024264,4.8729e-07,0.44,0.62,0
0.022194,-0.0017873,0.027955,0.00037345,0.0084984,0.00038537,0,0,0.050586,-0.021125,0,0.0020039,0,0,0,0.027961,0.00036723,0.0084984,0.79693,0.012276,0.02456,4.8903e-07,0.46,0.62,0
0.023207,-0.0016624,0.027771,-0.00024009,0.0082592,0.00045528,0,0,0.05073,-0.022098,0,0.0023675,0,0,0,0.027779,-0.00024809,0.0082592,0.92865,0.01193,0.024889,4.9112e-07,0.48,0.62,0
0.024223,-0.0015426,0.027592,-0.00083592,0.0080269,0.0004555,0,0,0.05087,-0.023043,0,0.0023686,0,0,0,0.0276,-0.0008438,0.0080269,0.91649,0.011594,0.025208,4.9238e-07,0.5,0.62,0
0.025242,-0.0014374,0.027418,-0.0013446,0.0078222,0.00039506,0,0,0.05095,-0.023834,0,0.0020543,0,0,0,0.027425,-0.0013507,0.0078222,0.78556,0.011299,0.02546,4.9174e-07,0.52,0.62,0
0.026262,-0.0013545,0.027258,-0.0017195,0.0076615,0.00030475,0,0,0.05095,-0.024391,0,0.0015847,0,0,0,0.027262,-0.0017234,0.0076615,0.60067,0.011067,0.025616,4.892e-07,0.54,0.62,0
0.02728,-0.0012986,0.027125,-0.0019651,0.0075481,0.00021691,0,0,0.050901,-0.024734,0,0.0011279,0,0,0,0.027127,-0.0019672,0.0075481,0.42529,0.010903,0.025694,4.8596e-07,0.56,0.62,0
0.028298,-0.0012714,0.027042,-0.0021177,0.0074772,0.0001438,0,0,0.050868,-0.024947,0,0.00074778,0,0,0,0.027043,-0.0021186,0.0074772,0.28162,0.0108,0.025742,4.8382e-07,0.58,0.62,0
0.029315,-0.0012737,0.027022,-0.0022069,0.0074445,7.3779e-05,0,0,0.050901,-0.025094,0,0.00038365,0,0,0,0.027022,-0.0022073,0.0074445,0.14517,0.010753,0.025795,4.8404e-07,0.6,0.62,0
0.030334,-0.001306,0.027066,-0.0022325,0.00745,-1.4973e-05,0,0,0.051001,-0.025174,0,-7.7861e-05,0,0,0,0.027066,-0.0022328,0.00745,-0.027716,0.010761,0.025855,4.8667e-07,0.62,0.62,0
0.031355,-0.001369,0.027158,-0.0021637,0.0074983,-0.00013392,0,0,0.051115,-0.025121,0,-0.00069637,0,0,0,0.027159,-0.0021649,0.0074983,-0.26021,0.010831,0.025883,4.9051e-07,0.64,0.62,0
0.032378,-0.0014622,0.027278,-0.0019629,0.0075946,-0.00026993,0,0,0.051177,-0.02485,0,-0.0014036,0,0,0,0.027281,-0.0019661,0.0075946,-0.52826,0.01097,0.02583,4.939e-07,0.66,0.62,0
0.033402,-0.0015821,0.027411,-0.0016247,0.0077359,-0.00038873,0,0,0.051155,-0.024337,0,-0.0020214,0,0,0,0.027417,-0.0016304,0.0077359,-0.76682,0.011174,0.025679,4.9578e-07,0.68,0.62,0
0.034424,-0.0017216,0.027549,-0.0011967,0.0079057,-0.00045697,0,0,0.051073,-0.023666,0,-0.0023763,0,0,0,0.027557,-0.0012043,0.0079057,-0.91008,0.011419,0.02546,4.9623e-07,0.7,0.62,0
0.035445,-0.0018721,0.027693,-0.00075184,0.0080824,-0.00046334,0,0,0.050988,-0.022969,0,-0.0024094,0,0,0,0.027701,-0.0007598,0.0080824,-0.93192,0.011675,0.02523,4.9628e-07,0.72,0.62,0
0.036464,-0.002025,0.027848,-0.00034452,0.0082512,-0.00041872,0,0,0.050953,-0.022349,0,-0.0021773,0,0,0,0.027855,-0.0003513,0.0082512,-0.84951,0.011918,0.025039,4.9713e-07,0.74,0.62,0
0.037483,-0.0021733,0.028016,1.5794e-06,0.0084052,-0.00034217,0,0,0.050987,-0.021849,0,-0.0017793,0,0,0,0.028021,-3.296e-06,0.0084052,-0.69883,0.012141,0.024908,4.9946e-07,0.76,0.62,0
0.038503,-0.0023125,0.028192,0.0002809,0.008542,-0.00025019,0,0,0.051091,-0.021479,0,-0.001301,0,0,0,0.028195,0.00027789,0.008542,-0.51324,0.012338,0.024839,5.0339e-07,0.78,0.62,0
0.039527,-0.0024394,0.028373,0.00049432,0.0086601,-0.00015473,0,0,0.051253,-0.021231,0,-0.00080461,0,0,0,0.028374,0.00049269,0.0086601,-0.31833,0.012509,0.024827,5.0878e-07,0.8,0.62,0
0.040554,-0.0025522,0.028552,0.00064614,0.0087596,-6.4988e-05,0,0,0.051461,-0.021095,0,-0.00033794,0,0,0,0.028553,0.00064527,0.0087596,-0.13431,0.012653,0.024865,5.1541e-07,0.82,0.62,0
0.041585,-0.0026503,0.028727,0.00074406,0.0088413,1.1906e-05,0,0,0.051703,-0.021053,0,6.1911e-05,0,0,0,0.028728,0.00074344,0.0088413,0.023114,0.012771,0.024941,5.2294e-07,0.84,0.62,0
0.042622,-0.0027337,0.028892,0.00079825,0.0089071,7.0992e-05,0,0,0.051961,-0.021083,0,0.00036916,0,0,0,0.028893,0.00079757,0.0089071,0.14332,0.012866,0.025045,5.3098e-07,0.86,0.62,0
0.043664,-0.0028031,0.029044,0.00081984,0.0089592,0.00010974,0,0,0.052221,-0.021162,0,0.00057064,0,0,0,0.029045,0.00081902,0.0089592,0.22128,0.012941,0.025164,5.3906e-07,0.88,0.62,0
0.04471,-0.0028594,0.029179,0.00081959,0.0089996,0.00012789,0,0,0.052467,-0.021268,0,0.00066505,0,0,0,0.02918,0.00081873,0.0089996,0.25701,0.012999,0.025284,5.4671e-07,0.9,0.62,0
0.045762,-0.0029036,0.029294,0.00080692,0.0090302,0.00012704,0,0,0.052685,-0.02138,0,0.00066061,0,0,0,0.029294,0.00080617,0.0090302,0.25435,0.013044,0.025395,5.5351e-07,0.92,0.62,0
0.046818,-0.0029368,0.029385,0.0007895,0.0090523,0.00011002,0,0,0.052865,-0.021483,0,0.00057212,0,0,0,0.029386,0.00078895,0.0090523,0.21954,0.013076,0.02549,5.5914e-07,0.94,0.62,0
0.047877,-0.0029599,0.029451,0.0007731,0.0090673,8.0458e-05,0,0,0.052999,-0.021565,0,0.00041838,0,0,0,0.029452,0.00077279,0.0090673,0.16013,0.013097,0.025562,5.6333e-07,0.96,0.62,0
0.048938,-0.0029735,0.029492,0.00076171,0.009076,3.1703e-05,0,0,0.053081,-0.021617,0,0.00016485,0,0,0,0.029492,0.00076158,0.009076,0.062922,0.01311,0.025606,5.6591e-07,0.98,0.62,0
0.049469,-0.0029779,0.029505,0.00075765,0.0090789,3.7988e-07,0,0,0.053109,-0.021635,0,1.9754e-06,0,0,0,0.029505,0.00075758,0.0090789,0.00057458,0.013114,0.025621,5.6678e-07,1,0.62,0
0.00041188,-0.00013552,0.02769,0.011486,0.011753,-0.0026009,0,0,0.041436,-0.00069382,0,-0.013525,0,0,0,0.028099,0.011076,0.011753,-8.9009,0.016976,0.016696,2.3764e-07,0,0.64,0
0.00082872,-0.00026826,0.027738,0.011122,0.011658,-0.0025821,0,0,0.041808,-0.0013935,0,-0.013427,0,0,0,0.028133,0.010727,0.011658,-8.6422,0.016839,0.016962,2.4803e-07,0.02,0.64,0
0.0016723,-0.00052813,0.027914,0.010425,0.011502,-0.0025298,0,0,0.042672,-0.0027993,0,-0.013155,0,0,0,0.028276,0.010064,0.011502,-8.0803,0.016614,0.01754,2.7091e-07,0.04,0.64,0
0.0025356,-0.00077661,0.028166,0.0097595,0.011378,-0.0024601,0,0,0.04365,-0.0042071,0,-0.012792,0,0,0,0.028492,0.0094339,0.011378,-7.4943,0.016434,0.018166,2.9609e-07,0.06,0.64,0
0.0034183,-0.0010132,0.028405,0.009099,0.011251,-0.0023837,0,0,0.044601,-0.0055961,0,-0.012395,0,0,0,0.028698,0.0088068,0.011251,-6.9456,0.016252,0.01879,3.214e-07,0.08,0.64,0
0.0043196,-0.0012372,0.028627,0.0084517,0.011124,-0.0022988,0,0,0.045509,-0.0069472,0,-0.011954,0,0,0,0.028888,0.0081912,0.011124,-6.4278,0.016068,0.019399,3.4624e-07,0.1,0.64,0
0.0052387,-0.0014478,0.028827,0.0078253,0.010996,-0.0022044,0,0,0.046361,-0.0082431,0,-0.011463,0,0,0,0.029057,0.0075948,0.010996,-5.9359,0.015883,0.019982,3.7006e-07,0.12,0.64,0
0.0061741,-0.001644,0.029,0.0072258,0.010868,-0.0021,0,0,0.047144,-0.0094692,0,-0.01092,0,0,0,0.029202,0.0070238,0.010868,-5.4658,0.015698,0.020529,3.9234e-07,0.14,0.64,0
0.0071244,-0.0018249,0.029144,0.0066582,0.010741,-0.0019858,0,0,0.047848,-0.010614,0,-0.010326,0,0,0,0.029319,0.0064831,0.010741,-5.0144,0.015514,0.021033,4.1265e-07,0.16,0.64,0
0.008088,-0.0019895,0.029255,0.0061258,0.010614,-0.0018619,0,0,0.048465,-0.01167,0,-0.0096817,0,0,0,0.029404,0.005976,0.010614,-4.5782,0.015332,0.021489,4.3064e-07,0.18,0.64,0
0.0090631,-0.0021368,0.029332,0.0056302,0.010489,-0.0017286,0,0,0.048992,-0.012632,0,-0.0089888,0,0,0,0.029458,0.0055041,0.010489,-4.1538,0.01515,0.021892,4.4605e-07,0.2,0.64,0
0.010048,-0.0022658,0.029373,0.0051712,0.010363,-0.0015861,0,0,0.049426,-0.0135,0,-0.0082478,0,0,0,0.029478,0.0050671,0.010363,-3.7372,0.014969,0.022241,4.5878e-07,0.22,0.64,0
0.01104,-0.0023758,0.02938,0.0047468,0.010238,-0.0014342,0,0,0.04977,-0.014278,0,-0.0074579,0,0,0,0.029464,0.0046629,0.010238,-3.3239,0.014789,0.022537,4.688e-07,0.24,0.64,0
0.012038,-0.0024657,0.029354,0.004353,0.010112,-0.0012726,0,0,0.050029,-0.014974,0,-0.0066174,0,0,0,0.029419,0.0042876,0.010112,-2.9089,0.014606,0.022785,4.7625e-07,0.26,0.64,0
0.013041,-0.0025347,0.029296,0.0039838,0.0099838,-0.0011008,0,0,0.050211,-0.0156,0,-0.005724,0,0,0,0.029344,0.0039352,0.0099838,-2.4876,0.014421,0.02299,4.8139e-07,0.28,0.64,0
0.014047,-0.0025822,0.029209,0.0036315,0.0098521,-0.00091859,0,0,0.050328,-0.016174,0,-0.0047766,0,0,0,0.029243,0.0035976,0.0098521,-2.0562,0.014231,0.023161,4.8458e-07,0.3,0.64,0
0.015054,-0.0026076,0.029098,0.0032866,0.0097153,-0.00072646,0,0,0.050394,-0.016715,0,-0.0037776,0,0,0,0.029119,0.0032651,0.0097153,-1.6129,0.014033,0.023309,4.863e-07,0.32,0.64,0
0.016063,-0.0026105,0.028967,0.0029386,0.0095717,-0.00052591,0,0,0.050428,-0.017246,0,-0.0027348,0,0,0,0.028979,0.0029267,0.0095717,-1.1593,0.013826,0.023447,4.8709e-07,0.34,0.64,0
0.017071,-0.0025911,0.028823,0.0025763,0.0094197,-0.00032,0,0,0.050448,-0.017793,0,-0.001664,0,0,0,0.028828,0.0025711,0.0094197,-0.70101,0.013606,0.02359,4.8751e-07,0.36,0.64,0
0.018081,-0.0025501,0.02867,0.0021895,0.0092578,-0.0001136,0,0,0.050471,-0.018378,0,-0.00059071,0,0,0,0.028672,0.0021877,0.0092578,-0.24879,0.013372,0.023752,4.881e-07,0.38,0.64,0
0.01909,-0.0024887,0.028515,0.0017693,0.0090854,8.6384e-05,0,0,0.050518,-0.019022,0,0.0004492,0,0,0,0.028517,0.0017679,0.0090854,0.18168,0.013123,0.023944,4.8931e-07,0.4,0.64,0
0.020101,-0.0024095,0.028365,0.0013099,0.0089026,0.0002707,0,0,0.050603,-0.019741,0,0.0014076,0,0,0,0.028369,0.0013062,0.0089026,0.56969,0.012859,0.024177,4.9147e-07,0.42,0.64,0
0.021114,-0.0023159,0.028225,0.00080974,0.0087104,0.00042732,0,0,0.050738,-0.020542,0,0.0022221,0,0,0,0.028232,0.00080242,0.0087104,0.88961,0.012582,0.024455,4.9473e-07,0.44,0.64,0
0.022131,-0.0022129,0.028097,0.00027562,0.0085118,0.00054187,0,0,0.050922,-0.021414,0,0.0028177,0,0,0,0.028108,0.00026468,0.0085118,1.113,0.012295,0.024772,4.9888e-07,0.46,0.64,0
0.023151,-0.0021068,0.027981,-0.00027203,0.0083126,0.00060055,0,0,0.051137,-0.02232,0,0.0031229,0,0,0,0.027994,-0.00028501,0.0083126,1.216,0.012007,0.02511,5.0329e-07,0.48,0.64,0
0.024176,-0.0020052,0.027873,-0.00079673,0.0081229,0.00059657,0,0,0.05135,-0.023191,0,0.0031021,0,0,0,0.027886,-0.00080937,0.0081229,1.1913,0.011733,0.025434,5.0706e-07,0.5,0.64,0
0.025205,-0.0019156,0.027772,-0.0012553,0.0079549,0.00053598,0,0,0.051523,-0.023946,0,0.0027871,0,0,0,0.027782,-0.0012655,0.0079549,1.0577,0.01149,0.025709,5.0941e-07,0.52,0.64,0
0.026237,-0.0018445,0.027679,-0.0016165,0.0078186,0.00043666,0,0,0.051636,-0.024531,0,0.0022706,0,0,0,0.027685,-0.0016234,0.0078186,0.85382,0.011294,0.025912,5.1019e-07,0.54,0.64,0
0.027271,-0.0017964,0.027601,-0.0018733,0.0077183,0.00031881,0,0,0.051695,-0.024938,0,0.0016578,0,0,0,0.027605,-0.0018771,0.0077183,0.61952,0.011149,0.026045,5.0993e-07,0.56,0.64,0
0.028305,-0.0017742,0.027548,-0.0020365,0.0076534,0.00019442,0,0,0.051726,-0.025194,0,0.001011,0,0,0,0.02755,-0.0020381,0.0076534,0.37644,0.011055,0.026127,5.0948e-07,0.58,0.64,0
0.02934,-0.0017792,0.027527,-0.002118,0.0076226,6.4293e-05,0,0,0.051751,-0.025326,0,0.00033432,0,0,0,0.027527,-0.0021184,0.0076226,0.12441,0.01101,0.026172,5.095e-07,0.6,0.64,0
0.030375,-0.0018122,0.027537,-0.0021173,0.0076259,-7.5641e-05,0,0,0.051769,-0.025332,0,-0.00039333,0,0,0,0.027538,-0.0021179,0.0076259,-0.14596,0.011015,0.026181,5.1004e-07,0.62,0.64,0
0.031411,-0.0018728,0.027572,-0.0020222,0.0076648,-0.00022419,0,0,0.051758,-0.025186,0,-0.0011658,0,0,0,0.027574,-0.0020244,0.0076648,-0.43414,0.011071,0.026137,5.1052e-07,0.64,0.64,0
0.032445,-0.0019597,0.027621,-0.0018212,0.0077399,-0.00036844,0,0,0.051691,-0.024859,0,-0.0019159,0,0,0,0.027626,-0.0018262,0.0077399,-0.71744,0.01118,0.026023,5.102e-07,0.66,0.64,0
0.033478,-0.0020693,0.027678,-0.0015214,0.007847,-0.00048673,0,0,0.051561,-0.024358,0,-0.002531,0,0,0,0.027686,-0.0015298,0.007847,-0.9554,0.011335,0.025837,5.0864e-07,0.68,0.64,0
0.034508,-0.002196,0.027741,-0.0011553,0.0079758,-0.00055939,0,0,0.051391,-0.023741,0,-0.0029088,0,0,0,0.027752,-0.0011663,0.0079758,-1.1088,0.011521,0.025603,5.061e-07,0.7,0.64,0
0.035534,-0.002333,0.027814,-0.00076885,0.0081136,-0.00057871,0,0,0.051222,-0.023095,0,-0.0030093,0,0,0,0.027826,-0.00078068,0.0081136,-1.159,0.01172,0.025358,5.0335e-07,0.72,0.64,0
0.036557,-0.0024735,0.027901,-0.00040198,0.0082497,-0.0005504,0,0,0.051094,-0.022494,0,-0.0028621,0,0,0,0.027912,-0.00041289,0.0082497,-1.1129,0.011916,0.025139,5.0131e-07,0.74,0.64,0
0.037578,-0.0026117,0.028004,-7.8921e-05,0.0083776,-0.00048769,0,0,0.051029,-0.021987,0,-0.002536,0,0,0,0.028013,-8.7719e-05,0.0083776,-0.99376,0.012101,0.024969,5.0065e-07,0.76,0.64,0
0.038598,-0.0027431,0.028122,0.00018996,0.0084937,-0.00040485,0,0,0.051034,-0.02159,0,-0.0021052,0,0,0,0.028129,0.00018366,0.0084937,-0.82962,0.012269,0.024855,5.0164e-07,0.78,0.64,0
0.039619,-0.0028645,0.028252,0.00040266,0.0085963,-0.00031399,0,0,0.051104,-0.021303,0,-0.0016327,0,0,0,0.028256,0.00039863,0.0085963,-0.6457,0.012417,0.024796,5.0425e-07,0.8,0.64,0
0.040642,-0.0029741,0.028388,0.0005619,0.0086848,-0.00022453,0,0,0.051227,-0.02112,0,-0.0011675,0,0,0,0.02839,0.0005596,0.0086848,-0.46255,0.012545,0.024787,5.0826e-07,0.82,0.64,0
0.041668,-0.0030708,0.028525,0.00067347,0.0087595,-0.00014351,0,0,0.05139,-0.021024,0,-0.00074626,0,0,0,0.028526,0.00067228,0.0087595,-0.29585,0.012653,0.024819,5.1335e-07,0.84,0.64,0
0.042698,-0.0031542,0.028659,0.00074517,0.0088211,-7.5759e-05,0,0,0.051578,-0.020998,0,-0.00039394,0,0,0,0.028659,0.00074458,0.0088211,-0.15639,0.012742,0.02488,5.1915e-07,0.86,0.64,0
0.043731,-0.0032246,0.028784,0.00078576,0.0088711,-2.3973e-05,0,0,0.051775,-0.021022,0,-0.00012466,0,0,0,0.028785,0.00078544,0.0088711,-0.050055,0.012814,0.024959,5.2521e-07,0.88,0.64,0
0.044769,-0.0032824,0.028898,0.00080397,0.0089106,1.1082e-05,0,0,0.051967,-0.021077,0,5.7628e-05,0,0,0,0.028898,0.00080375,0.0089106,0.021614,0.012871,0.025045,5.3113e-07,0.9,0.64,0
0.04581,-0.0033285,0.028996,0.00080774,0.008941,3.0255e-05,0,0,0.052142,-0.021146,0,0.00015733,0,0,0,0.028996,0.00080756,0.008941,0.060616,0.012915,0.025129,5.3651e-07,0.92,0.64,0
0.046854,-0.0033634,0.029074,0.00080376,0.0089634,3.5606e-05,0,0,0.052288,-0.021215,0,0.00018515,0,0,0,0.029074,0.00080362,0.0089634,0.071454,0.012947,0.025202,5.4104e-07,0.94,0.64,0
0.047901,-0.0033879,0.029132,0.00079723,0.0089788,3.0026e-05,0,0,0.052399,-0.021272,0,0.00015614,0,0,0,0.029132,0.00079715,0.0089788,0.060224,0.012969,0.025258,5.4444e-07,0.96,0.64,0
0.04895,-0.0034023,0.029167,0.00079185,0.0089878,5.4934e-06,0,0,0.052467,-0.021309,0,2.8566e-05,0,0,0,0.029167,0.0007918,0.0089878,0.010849,0.012982,0.025294,5.4656e-07,0.98,0.64,0
0.049475,-0.0034071,0.029179,0.00078981,0.0089907,-1.3919e-05,0,0,0.05249,-0.021322,0,-7.2379e-05,0,0,0,0.029179,0.00078977,0.0089907,-0.028229,0.012987,0.025306,5.4728e-07,1,0.64,0
0.00040977,-0.00014938,0.027547,0.011424,0.011691,-0.0028664,0,0,0.041225,-0.00069585,0,-0.014905,0,0,0,0.028044,0.010927,0.011691,-9.7881,0.016887,0.016749,2.3955e-07,0,0.66,0
0.00082451,-0.00029612,0.027596,0.011058,0.011596,-0.0028461,0,0,0.041599,-0.0013995,0,-0.0148,0,0,0,0.028075,0.010579,0.011596,-9.5063,0.01675,0.017013,2.4978e-07,0.02,0.66,0
0.001664,-0.00058416,0.027773,0.010355,0.011438,-0.0027891,0,0,0.04247,-0.0028163,0,-0.014503,0,0,0,0.028212,0.0099165,0.011438,-8.8921,0.016522,0.017586,2.7234e-07,0.04,0.66,0
0.0025233,-0.00086089,0.028026,0.0096809,0.011312,-0.0027097,0,0,0.043455,-0.0042407,0,-0.014091,0,0,0,0.02842,0.0092862,0.011312,-8.2412,0.016339,0.018208,2.9716e-07,0.06,0.66,0
0.0034022,-0.0011254,0.028266,0.0090095,0.011183,-0.002618,0,0,0.044416,-0.00565,0,-0.013613,0,0,0,0.028618,0.0086575,0.011183,-7.6167,0.016153,0.018827,3.2207e-07,0.08,0.66,0
0.0042999,-0.0013766,0.028488,0.0083504,0.011052,-0.0025125,0,0,0.045335,-0.0070228,0,-0.013065,0,0,0,0.028799,0.0080395,0.011052,-7.0153,0.015963,0.019431,3.4646e-07,0.1,0.66,0
0.0052156,-0.0016132,0.028687,0.0077118,0.01092,-0.0023928,0,0,0.046195,-0.0083403,0,-0.012442,0,0,0,0.028958,0.0074405,0.01092,-6.4349,0.015773,0.020008,3.6975e-07,0.12,0.66,0
0.0061478,-0.0018342,0.028859,0.0071007,0.010788,-0.0022594,0,0,0.046985,-0.0095866,0,-0.011749,0,0,0,0.029093,0.006867,0.010788,-5.8739,0.015582,0.020549,3.9146e-07,0.14,0.66,0
0.007095,-0.0020381,0.029,0.0065222,0.010657,-0.0021131,0,0,0.047693,-0.01075,0,-0.010988,0,0,0,0.029198,0.006324,0.010657,-5.3309,0.015393,0.021046,4.1116e-07,0.16,0.66,0
0.0080555,-0.0022239,0.029109,0.0059798,0.010527,-0.0019553,0,0,0.048314,-0.011821,0,-0.010168,0,0,0,0.029274,0.0058145,0.010527,-4.8043,0.015205,0.021495,4.2854e-07,0.18,0.66,0
0.0090275,-0.0023906,0.029183,0.005475,0.010397,-0.0017872,0,0,0.048843,-0.012798,0,-0.0092935,0,0,0,0.029318,0.0053401,0.010397,-4.2918,0.015019,0.021893,4.4342e-07,0.2,0.66,0
0.010009,-0.0025372,0.029224,0.0050074,0.010269,-0.0016099,0,0,0.049282,-0.013681,0,-0.0083714,0,0,0,0.029331,0.0048999,0.010269,-3.791,0.014834,0.022239,4.5572e-07,0.22,0.66,0
0.010999,-0.0026628,0.029232,0.0045745,0.010142,-0.0014242,0,0,0.049633,-0.014475,0,-0.0074058,0,0,0,0.029314,0.0044916,0.010142,-3.2984,0.014649,0.022536,4.655e-07,0.24,0.66,0
0.011995,-0.0027668,0.029208,0.0041723,0.010014,-0.0012308,0,0,0.049904,-0.015189,0,-0.0064,0,0,0,0.029269,0.004111,0.010014,-2.8108,0.014465,0.022788,4.7296e-07,0.26,0.66,0
0.012995,-0.0028487,0.029156,0.0037947,0.0098852,-0.0010302,0,0,0.050104,-0.015835,0,-0.0053569,0,0,0,0.029199,0.0037519,0.0098852,-2.325,0.014279,0.023002,4.7839e-07,0.28,0.66,0
0.013999,-0.0029079,0.02908,0.0034343,0.0097542,-0.00082317,0,0,0.050246,-0.016432,0,-0.0042805,0,0,0,0.029107,0.0034068,0.0097542,-1.8392,0.014089,0.023188,4.8217e-07,0.3,0.66,0
0.015005,-0.0029444,0.028984,0.0030825,0.0096199,-0.00061104,0,0,0.050346,-0.016997,0,-0.0031774,0,0,0,0.028999,0.003067,0.0096199,-1.3533,0.013895,0.023356,4.8478e-07,0.32,0.66,0
0.016013,-0.0029583,0.028873,0.00273,0.009481,-0.00039596,0,0,0.05042,-0.017553,0,-0.002059,0,0,0,0.02888,0.0027228,0.009481,-0.87026,0.013695,0.023519,4.8673e-07,0.34,0.66,0
0.017022,-0.0029501,0.028754,0.0023672,0.0093364,-0.00018141,0,0,0.050486,-0.01812,0,-0.00094333,0,0,0,0.028756,0.0023648,0.0093364,-0.39683,0.013486,0.023688,4.8852e-07,0.36,0.66,0
0.018032,-0.0029209,0.028632,0.0019857,0.0091853,2.7557e-05,0,0,0.050561,-0.018719,0,0.00014329,0,0,0,0.028633,0.0019846,0.0091853,0.056118,0.013268,0.023877,4.9065e-07,0.38,0.66,0
0.019044,-0.0028726,0.028513,0.0015785,0.0090275,0.00022405,0,0,0.050663,-0.019367,0,0.0011651,0,0,0,0.028516,0.0015757,0.0090275,0.47336,0.01304,0.024095,4.9348e-07,0.4,0.66,0
0.020058,-0.0028077,0.028403,0.0011418,0.0088634,0.0003992,0,0,0.050803,-0.020076,0,0.0020758,0,0,0,0.028409,0.0011353,0.0088634,0.83578,0.012803,0.024348,4.9726e-07,0.42,0.66,0
0.021076,-0.0027299,0.028305,0.00067681,0.0086945,0.00054233,0,0,0.050987,-0.020846,0,0.0028201,0,0,0,0.028316,0.00066577,0.0086945,1.1217,0.012559,0.024638,5.0201e-07,0.44,0.66,0
0.022098,-0.0026439,0.02822,0.00019182,0.0085237,0.00064207,0,0,0.051212,-0.021663,0,0.0033388,0,0,0,0.028235,0.00017694,0.0085237,1.3101,0.012312,0.024955,5.0747e-07,0.46,0.66,0
0.023125,-0.0025552,0.028148,-0.00029528,0.0083558,0.00068891,0,0,0.05146,-0.022493,0,0.0035823,0,0,0,0.028165,-0.00031204,0.0083558,1.3861,0.01207,0.025283,5.1307e-07,0.48,0.66,0
0.024156,-0.0024703,0.028085,-0.00075799,0.008198,0.00067884,0,0,0.051705,-0.023286,0,0.00353,0,0,0,0.028101,-0.00077406,0.008198,1.3478,0.011842,0.025597,5.1813e-07,0.5,0.66,0
0.025193,-0.0023953,0.028027,-0.0011671,0.008058,0.00061597,0,0,0.05192,-0.023985,0,0.003203,0,0,0,0.02804,-0.0011803,0.008058,1.2089,0.011639,0.02587,5.2206e-07,0.52,0.66,0
0.026233,-0.0023358,0.027974,-0.0014998,0.0079424,0.00051156,0,0,0.052083,-0.02455,0,0.0026601,0,0,0,0.027984,-0.001509,0.0079424,0.99476,0.011472,0.026085,5.246e-07,0.54,0.66,0
0.027276,-0.0022961,0.027929,-0.0017456,0.0078549,0.00037937,0,0,0.052192,-0.024961,0,0.0019727,0,0,0,0.027934,-0.0017508,0.0078549,0.73286,0.011346,0.026236,5.2589e-07,0.56,0.66,0
0.028321,-0.0022792,0.027893,-0.001904,0.0077968,0.00023056,0,0,0.052251,-0.025222,0,0.0011989,0,0,0,0.027895,-0.0019062,0.0077968,0.44357,0.011262,0.026327,5.2629e-07,0.58,0.66,0
0.029366,-0.0022867,0.027871,-0.0019777,0.0077679,7.1804e-05,0,0,0.052267,-0.025339,0,0.00037338,0,0,0,0.027871,-0.0019783,0.0077679,0.13785,0.01122,0.026364,5.2611e-07,0.6,0.66,0
0.030411,-0.0023193,0.027861,-0.0019667,0.0077682,-9.2205e-05,0,0,0.052241,-0.025311,0,-0.00047947,0,0,0,0.027861,-0.0019674,0.0077682,-0.17741,0.011221,0.026347,5.2539e-07,0.62,0.66,0
0.031456,-0.0023765,0.027861,-0.0018678,0.0077978,-0.0002544,0,0,0.052163,-0.025131,0,-0.0013229,0,0,0,0.027863,-0.0018704,0.0077978,-0.49093,0.011264,0.02627,5.2391e-07,0.64,0.66,0
0.032498,-0.0024566,0.027867,-0.0016816,0.0078555,-0.00040287,0,0,0.052029,-0.024796,0,-0.0020949,0,0,0,0.027872,-0.0016874,0.0078555,-0.78194,0.011347,0.02613,5.2142e-07,0.66,0.66,0
0.033537,-0.0025564,0.027877,-0.0014191,0.0079373,-0.00052273,0,0,0.051843,-0.024327,0,-0.0027182,0,0,0,0.027886,-0.0014287,0.0079373,-1.0228,0.011465,0.025933,5.1786e-07,0.68,0.66,0
0.034572,-0.0026713,0.027893,-0.0011046,0.0080364,-0.00060147,0,0,0.051626,-0.023767,0,-0.0031277,0,0,0,0.027905,-0.0011172,0.0080364,-1.1884,0.011608,0.025699,5.1356e-07,0.7,0.66,0
0.035602,-0.0027959,0.027918,-0.00076956,0.0081445,-0.00063382,0,0,0.051411,-0.023177,0,-0.0032959,0,0,0,0.027932,-0.00078359,0.0081445,-1.2651,0.011764,0.025454,5.0913e-07,0.72,0.66,0
0.036628,-0.0029247,0.027957,-0.00044338,0.0082541,-0.00062294,0,0,0.051228,-0.022613,0,-0.0032393,0,0,0,0.027971,-0.0004571,0.0082541,-1.2555,0.011923,0.025227,5.053e-07,0.74,0.66,0
0.037651,-0.0030528,0.028013,-0.00014724,0.0083596,-0.00057786,0,0,0.051098,-0.022118,0,-0.0030049,0,0,0,0.028025,-0.00015923,0.0083596,-1.1745,0.012075,0.025036,5.0264e-07,0.76,0.66,0
0.038672,-0.0031761,0.028085,0.0001071,0.0084575,-0.00050979,0,0,0.05103,-0.021711,0,-0.0026509,0,0,0,0.028094,9.7594e-05,0.0084575,-1.043,0.012216,0.024893,5.0147e-07,0.78,0.66,0
0.039692,-0.0032915,0.028171,0.00031527,0.0085458,-0.00042945,0,0,0.051025,-0.021399,0,-0.0022332,0,0,0,0.028178,0.00030836,0.0085458,-0.88269,0.012344,0.024799,5.0184e-07,0.8,0.66,0
0.040713,-0.003397,0.028267,0.00047783,0.0086236,-0.00034579,0,0,0.051074,-0.021179,0,-0.0017981,0,0,0,0.028272,0.00047321,0.0086236,-0.71273,0.012456,0.024751,5.0363e-07,0.82,0.66,0
0.041735,-0.0034912,0.02837,0.00059856,0.0086905,-0.00026573,0,0,0.051166,-0.021039,0,-0.0013818,0,0,0,0.028373,0.00059571,0.0086905,-0.54839,0.012553,0.024743,5.0658e-07,0.84,0.66,0
0.04276,-0.0035736,0.028473,0.00068323,0.0087468,-0.00019414,0,0,0.051288,-0.020965,0,-0.0010095,0,0,0,0.028474,0.00068159,0.0087468,-0.4007,0.012634,0.024766,5.1035e-07,0.86,0.66,0
0.043787,-0.0036439,0.028572,0.00073862,0.0087933,-0.00013401,0,0,0.051426,-0.020942,0,-0.00069683,0,0,0,0.028573,0.00073775,0.0087933,-0.27644,0.012701,0.024809,5.1457e-07,0.88,0.66,0
0.044817,-0.0037024,0.028664,0.00077175,0.0088307,-8.6594e-05,0,0,0.051566,-0.020953,0,-0.00045029,0,0,0,0.028664,0.0007713,0.0088307,-0.17853,0.012755,0.024863,5.1887e-07,0.9,0.66,0
0.045849,-0.0037495,0.028744,0.00078917,0.0088599,-5.1718e-05,0,0,0.051698,-0.020984,0,-0.00026893,0,0,0,0.028744,0.00078896,0.0088599,-0.10661,0.012798,0.02492,5.2289e-07,0.92,0.66,0
0.046885,-0.0037854,0.028809,0.0007966,0.0088818,-2.8047e-05,0,0,0.051812,-0.021021,0,-0.00014585,0,0,0,0.028809,0.0007965,0.0088818,-0.05788,0.012829,0.024972,5.2635e-07,0.94,0.66,0
0.047922,-0.0038108,0.028858,0.0007986,0.0088969,-1.3416e-05,0,0,0.051898,-0.021056,0,-6.9765e-05,0,0,0,0.028858,0.00079856,0.0088969,-0.027762,0.012851,0.025013,5.2899e-07,0.96,0.66,0
0.048961,-0.0038258,0.028887,0.00079847,0.0089057,-1.7046e-05,0,0,0.051952,-0.021079,0,-8.8641e-05,0,0,0,0.028887,0.00079844,0.0089057,-0.034953,0.012864,0.02504,5.3064e-07,0.98,0.66,0
0.04948,-0.0038308,0.028897,0.00079821,0.0089087,-2.6046e-05,0,0,0.051971,-0.021087,0,-0.00013544,0,0,0,0.028897,0.00079816,0.0089087,-0.053206,0.012868,0.025049,5.3121e-07,1,0.66,0
0.00040792,-0.00016335,0.027423,0.011365,0.011636,-0.003134,0,0,0.041044,-0.00070483,0,-0.016297,0,0,0,0.028015,0.010773,0.011636,-10.663,0.016808,0.016828,2.425e-07,0,0.68,0
0.00082088,-0.00032424,0.027472,0.010994,0.01154,-0.0031124,0,0,0.041424,-0.0014193,0,-0.016184,0,0,0,0.028043,0.010423,0.01154,-10.357,0.016668,0.017092,2.5269e-07,0.02,0.68,0
0.0016569,-0.00064079,0.027652,0.010279,0.011379,-0.0030507,0,0,0.042309,-0.002861,0,-0.015864,0,0,0,0.028175,0.0097554,0.011379,-9.6892,0.016436,0.017666,2.7516e-07,0.04,0.68,0
0.0025132,-0.00094624,0.027908,0.0095893,0.011249,-0.0029617,0,0,0.043312,-0.0043154,0,-0.015401,0,0,0,0.028378,0.0091194,0.011249,-8.9722,0.016249,0.018289,2.9989e-07,0.06,0.68,0
0.0033894,-0.0012392,0.028151,0.0089013,0.011116,-0.002854,0,0,0.044292,-0.0057573,0,-0.014841,0,0,0,0.028568,0.0084844,0.011116,-8.2699,0.016056,0.018908,3.2461e-07,0.08,0.68,0
0.0042849,-0.0015181,0.028375,0.0082252,0.01098,-0.0027269,0,0,0.045227,-0.0071629,0,-0.01418,0,0,0,0.02874,0.0078602,0.01098,-7.5831,0.01586,0.01951,3.4873e-07,0.1,0.68,0
0.0051985,-0.0017814,0.028576,0.0075702,0.010844,-0.0025809,0,0,0.046103,-0.0085111,0,-0.01342,0,0,0,0.02889,0.0072556,0.010844,-6.9126,0.015663,0.020084,3.7165e-07,0.12,0.68,0
0.006129,-0.0020275,0.028747,0.0069441,0.010707,-0.0024173,0,0,0.046904,-0.0097846,0,-0.01257,0,0,0,0.029014,0.0066774,0.010707,-6.2597,0.015466,0.02062,3.9289e-07,0.14,0.68,0
0.0070747,-0.0022549,0.028888,0.0063526,0.010572,-0.0022383,0,0,0.047621,-0.010971,0,-0.011639,0,0,0,0.029109,0.0061307,0.010572,-5.6253,0.015271,0.021112,4.1207e-07,0.16,0.68,0
0.0080338,-0.0024623,0.028995,0.0057991,0.010438,-0.0020463,0,0,0.048247,-0.012061,0,-0.010641,0,0,0,0.029175,0.0056185,0.010438,-5.0096,0.015077,0.021556,4.289e-07,0.18,0.68,0
0.0090046,-0.0026487,0.029068,0.005285,0.010306,-0.0018437,0,0,0.048781,-0.013054,0,-0.0095875,0,0,0,0.029211,0.0051416,0.010306,-4.4123,0.014886,0.021948,4.4327e-07,0.2,0.68,0
0.0099851,-0.0028131,0.029107,0.0048096,0.010175,-0.0016328,0,0,0.049224,-0.01395,0,-0.0084905,0,0,0,0.029218,0.0046992,0.010175,-3.8321,0.014697,0.022292,4.5517e-07,0.22,0.68,0
0.010974,-0.0029547,0.029116,0.0043703,0.010046,-0.0014153,0,0,0.049582,-0.014756,0,-0.0073598,0,0,0,0.029198,0.0042884,0.010046,-3.2671,0.014511,0.022588,4.6471e-07,0.24,0.68,0
0.011968,-0.0030732,0.029095,0.0039625,0.0099173,-0.001193,0,0,0.049862,-0.015483,0,-0.0062036,0,0,0,0.029153,0.0039048,0.0099173,-2.7152,0.014325,0.022844,4.7213e-07,0.26,0.68,0
0.012968,-0.0031681,0.029049,0.0035802,0.0097889,-0.00096722,0,0,0.050077,-0.016142,0,-0.0050296,0,0,0,0.029087,0.0035424,0.0097889,-2.175,0.014139,0.023065,4.7776e-07,0.28,0.68,0
0.013971,-0.0032395,0.028983,0.0032164,0.0096597,-0.00073953,0,0,0.05024,-0.016753,0,-0.0038456,0,0,0,0.029005,0.003194,0.0096597,-1.6457,0.013953,0.023263,4.82e-07,0.3,0.68,0
0.014978,-0.0032875,0.0289,0.002863,0.0095289,-0.00051188,0,0,0.050365,-0.017331,0,-0.0026618,0,0,0,0.028911,0.0028518,0.0095289,-1.1288,0.013764,0.023446,4.853e-07,0.32,0.68,0
0.015986,-0.0033126,0.028807,0.0025117,0.0093956,-0.00028694,0,0,0.05047,-0.017898,0,-0.0014921,0,0,0,0.028811,0.0025074,0.0093956,-0.62809,0.013571,0.023626,4.8813e-07,0.34,0.68,0
0.016996,-0.0033159,0.028709,0.0021543,0.009259,-6.8419e-05,0,0,0.05057,-0.018472,0,-0.00035578,0,0,0,0.02871,0.002153,0.009259,-0.15063,0.013374,0.023814,4.9095e-07,0.36,0.68,0
0.018009,-0.0032988,0.028612,0.0017837,0.0091188,0.00013865,0,0,0.050683,-0.019071,0,0.000721,0,0,0,0.028614,0.0017821,0.0091188,0.29312,0.013172,0.024019,4.9416e-07,0.38,0.68,0
0.019024,-0.0032634,0.028521,0.0013949,0.0089748,0.0003278,0,0,0.05082,-0.019708,0,0.0017046,0,0,0,0.028526,0.0013902,0.0089748,0.68942,0.012964,0.02425,4.9804e-07,0.4,0.68,0
0.020042,-0.0032125,0.02844,0.00098579,0.0088278,0.00049115,0,0,0.050992,-0.020389,0,0.002554,0,0,0,0.028449,0.00097654,0.0088278,1.0221,0.012751,0.02451,5.0276e-07,0.42,0.68,0
0.021063,-0.0031497,0.028372,0.00055877,0.0086792,0.00061989,0,0,0.051201,-0.021113,0,0.0032234,0,0,0,0.028386,0.00054471,0.0086792,1.2743,0.012537,0.024796,5.0826e-07,0.44,0.68,0
0.02209,-0.0030794,0.028316,0.00012206,0.0085315,0.00070544,0,0,0.051441,-0.021865,0,0.0036683,0,0,0,0.028334,0.00010432,0.0085315,1.4314,0.012323,0.025101,5.1427e-07,0.46,0.68,0
0.023121,-0.0030065,0.028272,-0.00030973,0.0083887,0.00074127,0,0,0.051697,-0.022616,0,0.0038546,0,0,0,0.028291,-0.00032897,0.0083887,1.4845,0.012117,0.025409,5.2033e-07,0.48,0.68,0
0.024158,-0.0029366,0.028236,-0.00071693,0.0082557,0.00072504,0,0,0.051949,-0.023329,0,0.0037702,0,0,0,0.028254,-0.00073515,0.0082557,1.4341,0.011925,0.025702,5.2588e-07,0.5,0.68,0
0.025199,-0.002875,0.028204,-0.0010786,0.0081378,0.00065981,0,0,0.052173,-0.023962,0,0.003431,0,0,0,0.028219,-0.0010936,0.0081378,1.291,0.011755,0.025959,5.3046e-07,0.52,0.68,0
0.026245,-0.0028264,0.028175,-0.0013772,0.0080394,0.00055345,0,0,0.052353,-0.024483,0,0.002878,0,0,0,0.028186,-0.0013878,0.0080394,1.0734,0.011612,0.026166,5.3376e-07,0.54,0.68,0
0.027293,-0.0027948,0.028147,-0.0016017,0.0079637,0.00041635,0,0,0.052478,-0.02487,0,0.002165,0,0,0,0.028154,-0.001608,0.0079637,0.80237,0.011503,0.026315,5.3573e-07,0.56,0.68,0
0.028344,-0.002783,0.028121,-0.0017477,0.0079121,0.00025875,0,0,0.052544,-0.025115,0,0.0013455,0,0,0,0.028124,-0.0017504,0.0079121,0.49667,0.011429,0.026404,5.3648e-07,0.58,0.68,0
0.029395,-0.0027928,0.028098,-0.0018139,0.0078852,8.96e-05,0,0,0.052553,-0.025218,0,0.00046592,0,0,0,0.028099,-0.0018146,0.0078852,0.17163,0.01139,0.026434,5.3611e-07,0.6,0.68,0
0.030446,-0.0028246,0.028076,-0.0018003,0.0078828,-8.2765e-05,0,0,0.052503,-0.025176,0,-0.00043038,0,0,0,0.028077,-0.0018011,0.0078828,-0.15911,0.011386,0.026403,5.3467e-07,0.62,0.68,0
0.031495,-0.0028781,0.028056,-0.0017083,0.0079043,-0.00024909,0,0,0.052394,-0.024993,0,-0.0012953,0,0,0,0.028058,-0.0017108,0.0079043,-0.48021,0.011417,0.026314,5.3213e-07,0.64,0.68,0
0.032541,-0.0029516,0.028036,-0.0015426,0.0079481,-0.00039855,0,0,0.052229,-0.024676,0,-0.0020724,0,0,0,0.028042,-0.0015484,0.0079481,-0.77278,0.011481,0.026168,5.2849e-07,0.66,0.68,0
0.033584,-0.0030424,0.028018,-0.0013152,0.0080109,-0.00051996,0,0,0.052019,-0.024248,0,-0.0027038,0,0,0,0.028028,-0.0013246,0.0080109,-1.0161,0.011571,0.025975,5.2387e-07,0.68,0.68,0
0.034622,-0.0031466,0.028004,-0.0010449,0.0080877,-0.00060459,0,0,0.051782,-0.023745,0,-0.0031439,0,0,0,0.028017,-0.0010576,0.0080877,-1.1925,0.011682,0.02575,5.1862e-07,0.7,0.68,0
0.035655,-0.00326,0.027998,-0.00075476,0.008173,-0.00064856,0,0,0.051545,-0.023212,0,-0.0033725,0,0,0,0.028013,-0.0007694,0.008173,-1.2918,0.011805,0.025515,5.1327e-07,0.72,0.68,0
0.036684,-0.003378,0.028004,-0.00046701,0.0082611,-0.00065365,0,0,0.051332,-0.022693,0,-0.003399,0,0,0,0.028019,-0.00048202,0.0082611,-1.3144,0.011933,0.02529,5.0838e-07,0.74,0.68,0
0.037709,-0.0034964,0.028025,-0.00019922,0.0083478,-0.00062604,0,0,0.051161,-0.022222,0,-0.0032554,0,0,0,0.028039,-0.00021314,0.0083478,-1.2697,0.012058,0.025092,5.0445e-07,0.76,0.68,0
0.03873,-0.0036115,0.028062,3.7261e-05,0.0084298,-0.00057421,0,0,0.051044,-0.021821,0,-0.0029859,0,0,0,0.028074,2.5398e-05,0.0084298,-1.1728,0.012176,0.024933,5.0179e-07,0.78,0.68,0
0.03975,-0.0037205,0.028114,0.00023681,0.0085052,-0.00050702,0,0,0.050982,-0.021498,0,-0.0026365,0,0,0,0.028123,0.00022744,0.0085052,-1.0412,0.012285,0.024815,5.0051e-07,0.8,0.68,0
0.04077,-0.0038213,0.028177,0.00039826,0.0085726,-0.00043242,0,0,0.050972,-0.021253,0,-0.0022486,0,0,0,0.028184,0.00039134,0.0085726,-0.89138,0.012383,0.024739,5.0055e-07,0.82,0.68,0
0.041789,-0.0039123,0.028249,0.00052357,0.0086317,-0.0003569,0,0,0.051004,-0.021081,0,-0.0018559,0,0,0,0.028253,0.00051877,0.0086317,-0.73738,0.012468,0.024699,5.0173e-07,0.84,0.68,0
0.04281,-0.0039928,0.028324,0.00061668,0.0086822,-0.00028528,0,0,0.051069,-0.02097,0,-0.0014835,0,0,0,0.028327,0.00061355,0.0086822,-0.59002,0.012541,0.024689,5.0378e-07,0.86,0.68,0
0.043832,-0.0040622,0.028399,0.00068269,0.0087246,-0.00022077,0,0,0.051154,-0.020909,0,-0.001148,0,0,0,0.028401,0.00068076,0.0087246,-0.45664,0.012602,0.024701,5.0639e-07,0.88,0.68,0
0.044856,-0.0041206,0.02847,0.00072709,0.0087591,-0.00016503,0,0,0.051248,-0.020883,0,-0.00085818,0,0,0,0.028471,0.00072598,0.0087591,-0.3412,0.012652,0.024727,5.0925e-07,0.9,0.68,0
0.045882,-0.0041679,0.028533,0.00075522,0.0087864,-0.00011848,0,0,0.051341,-0.020881,0,-0.00061611,0,0,0,0.028533,0.00075462,0.0087864,-0.24477,0.012692,0.02476,5.1205e-07,0.92,0.68,0
0.04691,-0.0042043,0.028585,0.00077183,0.008807,-8.0443e-05,0,0,0.051423,-0.020892,0,-0.0004183,0,0,0,0.028585,0.00077153,0.008807,-0.16605,0.012721,0.024793,5.1453e-07,0.94,0.68,0
0.047939,-0.0042301,0.028624,0.00078081,0.0088214,-4.9441e-05,0,0,0.051486,-0.020906,0,-0.00025709,0,0,0,0.028624,0.00078069,0.0088214,-0.10199,0.012742,0.02482,5.1645e-07,0.96,0.68,0
0.048969,-0.0042455,0.028648,0.00078503,0.0088299,-3.5692e-05,0,0,0.051527,-0.020917,0,-0.0001856,0,0,0,0.028648,0.00078497,0.0088299,-0.073521,0.012754,0.024838,5.1768e-07,0.98,0.68,0
0.049485,-0.0042506,0.028656,0.00078624,0.0088327,-3.5911e-05,0,0,0.051541,-0.020921,0,-0.00018674,0,0,0,0.028656,0.00078619,0.0088327,-0.073891,0.012758,0.024844,5.181e-07,1,0.68,0
0.00040638,-0.00017757,0.027318,0.011312,0.011589,-0.0034064,0,0,0.040896,-0.00072109,0,-0.017713,0,0,0,0.028015,0.010615,0.011589,-11.529,0.01674,0.016936,2.4662e-07,0,0.7,0
0.00081792,-0.00035289,0.027369,0.010931,0.01149,-0.0033835,0,0,0.041285,-0.0014537,0,-0.017594,0,0,0,0.028041,0.010258,0.01149,-11.198,0.016596,0.017203,2.5688e-07,0.02,0.7,0
0.0016514,-0.0006986,0.027553,0.010196,0.011325,-0.0033174,0,0,0.042194,-0.002935,0,-0.017251,0,0,0,0.028169,0.0095798,0.011325,-10.474,0.016358,0.017783,2.7952e-07,0.04,0.7,0
0.0025057,-0.0010335,0.027815,0.0094844,0.01119,-0.0032184,0,0,0.043225,-0.0044339,0,-0.016736,0,0,0,0.028367,0.0089324,0.01119,-9.6878,0.016163,0.018412,3.044e-07,0.06,0.7,0
0.0033804,-0.0013557,0.028063,0.0087734,0.011051,-0.0030939,0,0,0.044232,-0.0059217,0,-0.016088,0,0,0,0.02855,0.0082862,0.011051,-8.9051,0.015963,0.019035,3.2916e-07,0.08,0.7,0
0.0042749,-0.0016631,0.028291,0.0080747,0.01091,-0.0029439,0,0,0.045192,-0.0073714,0,-0.015308,0,0,0,0.028714,0.0076519,0.01091,-8.1301,0.015759,0.019639,3.5317e-07,0.1,0.7,0
0.0051881,-0.0019537,0.028494,0.007399,0.010768,-0.0027698,0,0,0.046088,-0.0087592,0,-0.014403,0,0,0,0.028854,0.0070388,0.010768,-7.3674,0.015554,0.020212,3.7583e-07,0.12,0.7,0
0.0061184,-0.0022255,0.028666,0.0067548,0.010626,-0.0025746,0,0,0.046904,-0.010066,0,-0.013388,0,0,0,0.028967,0.0064541,0.010626,-6.6215,0.015349,0.020745,3.9666e-07,0.14,0.7,0
0.0070643,-0.0024769,0.028806,0.0061484,0.010486,-0.0023616,0,0,0.047631,-0.011278,0,-0.012281,0,0,0,0.029051,0.0059028,0.010486,-5.896,0.015147,0.021232,4.1532e-07,0.16,0.7,0
0.0080237,-0.0027064,0.028911,0.0055834,0.010348,-0.0021349,0,0,0.048262,-0.012389,0,-0.011101,0,0,0,0.029106,0.0053878,0.010348,-5.1933,0.014947,0.021669,4.3159e-07,0.18,0.7,0
0.0089948,-0.0029128,0.028982,0.0050608,0.010213,-0.001898,0,0,0.048799,-0.013395,0,-0.0098698,0,0,0,0.029133,0.0049095,0.010213,-4.5148,0.014752,0.022056,4.454e-07,0.2,0.7,0
0.0099756,-0.0030952,0.02902,0.0045795,0.01008,-0.0016545,0,0,0.049244,-0.0143,0,-0.0086033,0,0,0,0.029133,0.0044665,0.01008,-3.8605,0.01456,0.022394,4.5681e-07,0.22,0.7,0
0.010964,-0.0032531,0.029027,0.0041364,0.0099491,-0.0014072,0,0,0.049603,-0.015113,0,-0.0073172,0,0,0,0.029108,0.0040557,0.0099491,-3.23,0.014371,0.022688,4.6601e-07,0.24,0.7,0
0.01196,-0.0033862,0.029008,0.0037267,0.0098205,-0.0011585,0,0,0.049888,-0.015844,0,-0.0060243,0,0,0,0.029063,0.0036723,0.0098205,-2.6222,0.014185,0.022943,4.7326e-07,0.26,0.7,0
0.01296,-0.0034944,0.028967,0.0033442,0.0096933,-0.00091074,0,0,0.050111,-0.016508,0,-0.0047359,0,0,0,0.029001,0.0033105,0.0096933,-2.0367,0.014001,0.023168,4.7893e-07,0.28,0.7,0
0.013964,-0.003578,0.028908,0.0029819,0.0095668,-0.00066597,0,0,0.050286,-0.017121,0,-0.003463,0,0,0,0.028926,0.0029635,0.0095668,-1.4738,0.013819,0.023372,4.834e-07,0.3,0.7,0
0.014971,-0.0036376,0.028836,0.0026323,0.0094404,-0.00042656,0,0,0.050428,-0.017701,0,-0.0022181,0,0,0,0.028844,0.0026241,0.0094404,-0.93551,0.013636,0.023563,4.8712e-07,0.32,0.7,0
0.015981,-0.0036742,0.028756,0.0022878,0.0093133,-0.00019543,0,0,0.050552,-0.018266,0,-0.0010163,0,0,0,0.028759,0.0022853,0.0093133,-0.42602,0.013453,0.023753,4.905e-07,0.34,0.7,0
0.016994,-0.003689,0.028675,0.0019414,0.009185,2.3712e-05,0,0,0.050675,-0.018833,0,0.0001233,0,0,0,0.028676,0.0019404,0.009185,0.047936,0.013267,0.02395,4.9395e-07,0.36,0.7,0
0.018008,-0.0036838,0.028597,0.0015872,0.0090553,0.00022617,0,0,0.050809,-0.019417,0,0.0011761,0,0,0,0.0286,0.0015846,0.0090553,0.47702,0.01308,0.024163,4.9778e-07,0.38,0.7,0
0.019026,-0.0036609,0.028526,0.0012215,0.0089244,0.00040619,0,0,0.050965,-0.020027,0,0.0021122,0,0,0,0.028533,0.0012149,0.0089244,0.84968,0.012891,0.024395,5.0221e-07,0.4,0.7,0
0.020047,-0.0036233,0.028466,0.00084323,0.0087928,0.00055719,0,0,0.051151,-0.020669,0,0.0028974,0,0,0,0.028478,0.00083165,0.0087928,1.1532,0.012701,0.02465,5.0733e-07,0.42,0.7,0
0.021072,-0.0035744,0.028418,0.00045529,0.008662,0.00067224,0,0,0.051365,-0.021337,0,0.0034956,0,0,0,0.028434,0.00043897,0.008662,1.375,0.012512,0.024923,5.1305e-07,0.44,0.7,0
0.022102,-0.0035184,0.028381,6.4966e-05,0.0085339,0.00074504,0,0,0.051604,-0.022019,0,0.0038742,0,0,0,0.028401,4.5327e-05,0.0085339,1.5055,0.012327,0.025207,5.1911e-07,0.46,0.7,0
0.023136,-0.0034599,0.028355,-0.00031605,0.0084116,0.00077123,0,0,0.051852,-0.022692,0,0.0040104,0,0,0,0.028376,-0.0003368,0.0084116,1.5398,0.01215,0.02549,5.2513e-07,0.48,0.7,0
0.024176,-0.0034034,0.028335,-0.00067289,0.0082986,0.00074959,0,0,0.052095,-0.023326,0,0.0038979,0,0,0,0.028354,-0.00069231,0.0082986,1.4798,0.011987,0.025757,5.3067e-07,0.5,0.7,0
0.02522,-0.0033538,0.028318,-0.00098986,0.0081986,0.00068276,0,0,0.052312,-0.02389,0,0.0035504,0,0,0,0.028335,-0.0010059,0.0081986,1.3346,0.011842,0.025991,5.3532e-07,0.52,0.7,0
0.026268,-0.0033151,0.028302,-0.0012532,0.0081147,0.00057689,0,0,0.052488,-0.024357,0,0.0029998,0,0,0,0.028314,-0.0012647,0.0081147,1.1187,0.011721,0.026181,5.3879e-07,0.54,0.7,0
0.027319,-0.0032909,0.028284,-0.001453,0.0080494,0.00044043,0,0,0.052611,-0.024706,0,0.0022902,0,0,0,0.028291,-0.0014599,0.0080494,0.84904,0.011627,0.026318,5.4093e-07,0.56,0.7,0
0.028373,-0.0032838,0.028264,-0.0015835,0.008004,0.00028272,0,0,0.052675,-0.024927,0,0.0014702,0,0,0,0.028267,-0.0015867,0.008004,0.54306,0.011561,0.026399,5.4173e-07,0.58,0.7,0
0.029426,-0.0032954,0.028239,-0.0016424,0.0079791,0.00011319,0,0,0.052677,-0.025016,0,0.0005886,0,0,0,0.02824,-0.0016433,0.0079791,0.21706,0.011525,0.026421,5.4121e-07,0.6,0.7,0
0.03048,-0.0033263,0.028211,-0.0016298,0.0079745,-5.8801e-05,0,0,0.052616,-0.024971,0,-0.00030577,0,0,0,0.028212,-0.0016304,0.0079745,-0.11325,0.011519,0.026386,5.394e-07,0.62,0.7,0
0.031531,-0.0033762,0.02818,-0.0015484,0.0079895,-0.00022364,0,0,0.052496,-0.024799,0,-0.0011629,0,0,0,0.028182,-0.0015506,0.0079895,-0.43165,0.01154,0.026295,5.3636e-07,0.64,0.7,0
0.032579,-0.0034436,0.028146,-0.0014046,0.0080224,-0.00037155,0,0,0.052321,-0.02451,0,-0.001932,0,0,0,0.028151,-0.0014096,0.0080224,-0.72109,0.011588,0.026153,5.322e-07,0.66,0.7,0
0.033624,-0.0035263,0.028111,-0.0012092,0.0080707,-0.00049355,0,0,0.052106,-0.024128,0,-0.0025665,0,0,0,0.02812,-0.0012177,0.0080707,-0.96494,0.011658,0.025971,5.2713e-07,0.68,0.7,0
0.034664,-0.0036211,0.028079,-0.00097726,0.0081305,-0.00058293,0,0,0.051866,-0.02368,0,-0.0030313,0,0,0,0.028091,-0.00098908,0.0081305,-1.1495,0.011744,0.025761,5.215e-07,0.7,0.7,0
0.035699,-0.0037244,0.028053,-0.00072653,0.008198,-0.00063657,0,0,0.051623,-0.023204,0,-0.0033102,0,0,0,0.028067,-0.00074064,0.008198,-1.2669,0.011842,0.02554,5.1573e-07,0.72,0.7,0
0.036729,-0.0038325,0.028037,-0.00047417,0.0082689,-0.00065533,0,0,0.051397,-0.022732,0,-0.0034077,0,0,0,0.028052,-0.00048923,0.0082689,-1.3161,0.011944,0.025325,5.1031e-07,0.74,0.7,0
0.037754,-0.0039417,0.028034,-0.00023457,0.0083398,-0.00064342,0,0,0.051205,-0.022293,0,-0.0033458,0,0,0,0.028049,-0.00024922,0.0083398,-1.303,0.012046,0.025129,5.0565e-07,0.76,0.7,0
0.038777,-0.0040489,0.028045,-1.7973e-05,0.0084081,-0.00060716,0,0,0.051056,-0.021908,0,-0.0031572,0,0,0,0.028058,-3.1145e-05,0.0084081,-1.2385,0.012145,0.024964,5.0202e-07,0.78,0.7,0
0.039797,-0.0041514,0.02807,0.00016965,0.0084718,-0.0005536,0,0,0.050954,-0.021586,0,-0.0028787,0,0,0,0.028081,0.00015859,0.0084718,-1.136,0.012237,0.024832,4.9958e-07,0.8,0.7,0
0.040815,-0.0042471,0.028106,0.00032602,0.0085297,-0.00048951,0,0,0.050899,-0.02133,0,-0.0025454,0,0,0,0.028115,0.00031728,0.0085297,-1.0089,0.012321,0.024736,4.9832e-07,0.82,0.7,0
0.041833,-0.0043344,0.028152,0.00045163,0.0085811,-0.0004207,0,0,0.050884,-0.021137,0,-0.0021876,0,0,0,0.028158,0.00044511,0.0085811,-0.86978,0.012395,0.024673,4.9812e-07,0.84,0.7,0
0.04285,-0.0044124,0.028203,0.00054895,0.0086257,-0.00035177,0,0,0.050902,-0.020999,0,-0.0018292,0,0,0,0.028208,0.00054434,0.0086257,-0.72865,0.012459,0.024638,4.9878e-07,0.86,0.7,0
0.043869,-0.0044803,0.028257,0.0006216,0.0086635,-0.00028597,0,0,0.050942,-0.020909,0,-0.0014871,0,0,0,0.02826,0.00061851,0.0086635,-0.59293,0.012514,0.024625,5.0006e-07,0.88,0.7,0
0.044888,-0.0045378,0.028309,0.00067377,0.0086947,-0.00022531,0,0,0.050996,-0.020854,0,-0.0011716,0,0,0,0.028311,0.00067182,0.0086947,-0.46728,0.012559,0.024628,5.017e-07,0.9,0.7,0
0.045909,-0.0045847,0.028356,0.00070967,0.0087197,-0.00017064,0,0,0.051054,-0.020826,0,-0.00088731,0,0,0,0.028357,0.00070853,0.0087197,-0.35383,0.012595,0.02464,5.0345e-07,0.92,0.7,0
0.04693,-0.0046211,0.028396,0.00073317,0.0087386,-0.00012187,0,0,0.051108,-0.020814,0,-0.00063371,0,0,0,0.028396,0.00073257,0.0087386,-0.25261,0.012622,0.024656,5.0507e-07,0.94,0.7,0
0.047953,-0.004647,0.028426,0.00074751,0.0087519,-7.8158e-05,0,0,0.051151,-0.020811,0,-0.00040642,0,0,0,0.028426,0.00074725,0.0087519,-0.16195,0.012642,0.02467,5.0637e-07,0.96,0.7,0
0.048976,-0.0046625,0.028444,0.00075512,0.0087598,-5.0501e-05,0,0,0.051179,-0.020812,0,-0.00026261,0,0,0,0.028444,0.00075502,0.0087598,-0.10458,0.012653,0.02468,5.0721e-07,0.98,0.7,0
0.049488,-0.0046677,0.02845,0.00075749,0.0087624,-4.358e-05,0,0,0.051189,-0.020813,0,-0.00022662,0,0,0,0.028451,0.00075742,0.0087624,-0.090203,0.012657,0.024684,5.075e-07,1,0.7,0
0.00040518,-0.00019219,0.027237,0.011264,0.01155,-0.0036864,0,0,0.040785,-0.00074505,0,-0.019169,0,0,0,0.028049,0.010451,0.01155,-12.389,0.016684,0.017076,2.5209e-07,0,0.72,0
0.00081571,-0.00038239,0.027289,0.010869,0.011447,-0.0036624,0,0,0.041188,-0.0015039,0,-0.019044,0,0,0,0.028072,0.010086,0.011447,-12.031,0.016535,0.017348,2.6253e-07,0.02,0.72,0
0.0016475,-0.00075819,0.027479,0.010106,0.011276,-0.0035917,0,0,0.04213,-0.0030408,0,-0.018677,0,0,0,0.028196,0.009389,0.011276,-11.247,0.016287,0.017941,2.856e-07,0.04,0.72,0
0.0025009,-0.0011236,0.027749,0.0093652,0.011134,-0.0034821,0,0,0.043199,-0.0045999,0,-0.018107,0,0,0,0.028391,0.0087241,0.011134,-10.388,0.016083,0.018581,3.1089e-07,0.06,0.72,0
0.0033755,-0.0014761,0.028005,0.0086241,0.010989,-0.0033394,0,0,0.044242,-0.006148,0,-0.017365,0,0,0,0.028568,0.0080613,0.010989,-9.5207,0.015873,0.019213,3.3589e-07,0.08,0.72,0
0.0042706,-0.001813,0.028238,0.0078968,0.01084,-0.0031644,0,0,0.045234,-0.0076535,0,-0.016455,0,0,0,0.028722,0.0074127,0.01084,-8.6536,0.015658,0.019821,3.5992e-07,0.1,0.72,0
0.0051849,-0.0021317,0.028443,0.0071959,0.010692,-0.00296,0,0,0.046154,-0.0090893,0,-0.015392,0,0,0,0.028851,0.0067882,0.010692,-7.7959,0.015444,0.020395,3.8237e-07,0.12,0.72,0
0.0061167,-0.0024301,0.028616,0.0065309,0.010544,-0.0027309,0,0,0.046987,-0.010434,0,-0.014201,0,0,0,0.028951,0.0061955,0.010544,-6.9556,0.01523,0.020924,4.0279e-07,0.14,0.72,0
0.0070643,-0.002706,0.028753,0.0059085,0.010399,-0.0024823,0,0,0.047722,-0.011674,0,-0.012908,0,0,0,0.029022,0.0056394,0.010399,-6.1393,0.01502,0.021405,4.2087e-07,0.16,0.72,0
0.0080256,-0.0029579,0.028855,0.0053323,0.010256,-0.0022198,0,0,0.048356,-0.012802,0,-0.011543,0,0,0,0.029065,0.0051224,0.010256,-5.3518,0.014814,0.021834,4.3646e-07,0.18,0.72,0
0.0089986,-0.0031845,0.028921,0.0048029,0.010117,-0.0019486,0,0,0.04889,-0.013817,0,-0.010133,0,0,0,0.02908,0.0046444,0.010117,-4.596,0.014614,0.022211,4.4957e-07,0.2,0.72,0
0.0099812,-0.0033851,0.028955,0.0043185,0.0099822,-0.0016733,0,0,0.04933,-0.014726,0,-0.0087011,0,0,0,0.02907,0.0042035,0.0099822,-3.8734,0.014419,0.022541,4.6033e-07,0.22,0.72,0
0.010972,-0.0035593,0.02896,0.0038752,0.0098507,-0.0013978,0,0,0.049685,-0.015536,0,-0.0072684,0,0,0,0.02904,0.0037958,0.0098507,-3.1844,0.014229,0.022827,4.6899e-07,0.24,0.72,0
0.011969,-0.003707,0.02894,0.0034678,0.0097224,-0.0011252,0,0,0.049966,-0.016262,0,-0.0058513,0,0,0,0.028992,0.0034166,0.0097224,-2.5287,0.014044,0.023078,4.7586e-07,0.26,0.72,0
0.01297,-0.0038284,0.0289,0.0030899,0.009597,-0.00085839,0,0,0.050188,-0.016919,0,-0.0044636,0,0,0,0.02893,0.0030599,0.009597,-1.9065,0.013862,0.0233,4.8132e-07,0.28,0.72,0
0.013976,-0.0039243,0.028845,0.0027343,0.0094739,-0.00059971,0,0,0.050366,-0.017523,0,-0.0031185,0,0,0,0.02886,0.0027192,0.0094739,-1.3184,0.013684,0.023504,4.8576e-07,0.3,0.72,0
0.014985,-0.0039955,0.02878,0.002394,0.0093523,-0.00035172,0,0,0.050513,-0.018092,0,-0.001829,0,0,0,0.028786,0.002388,0.0093523,-0.76667,0.013509,0.023697,4.8959e-07,0.32,0.72,0
0.015997,-0.0040433,0.028711,0.0020618,0.0092318,-0.00011732,0,0,0.050646,-0.018642,0,-0.00061007,0,0,0,0.028713,0.0020602,0.0092318,-0.25512,0.013335,0.023888,4.9318e-07,0.34,0.72,0
0.017011,-0.0040693,0.028642,0.0017315,0.009112,0.00010005,0,0,0.050778,-0.019189,0,0.00052028,0,0,0,0.028643,0.0017302,0.009112,0.21037,0.013162,0.024086,4.9688e-07,0.36,0.72,0
0.018028,-0.0040755,0.028577,0.0013983,0.0089927,0.00029626,0,0,0.05092,-0.019745,0,0.0015406,0,0,0,0.028581,0.0013944,0.0089927,0.62208,0.012989,0.024296,5.0094e-07,0.38,0.72,0
0.019048,-0.0040645,0.028521,0.0010592,0.008874,0.00046649,0,0,0.051082,-0.020318,0,0.0024258,0,0,0,0.028529,0.0010509,0.008874,0.97091,0.012818,0.024521,5.0551e-07,0.4,0.72,0
0.020071,-0.0040393,0.028475,0.00071392,0.0087565,0.00060549,0,0,0.051267,-0.020911,0,0.0031485,0,0,0,0.028488,0.00070045,0.0087565,1.2473,0.012648,0.024763,5.1062e-07,0.42,0.72,0
0.021098,-0.0040032,0.02844,0.00036511,0.0086414,0.00070802,0,0,0.051475,-0.021518,0,0.0036817,0,0,0,0.028457,0.00034714,0.0086414,1.4427,0.012482,0.025017,5.1619e-07,0.44,0.72,0
0.02213,-0.0039601,0.028415,1.8948e-05,0.0085302,0.00076965,0,0,0.051701,-0.022129,0,0.0040022,0,0,0,0.028436,-1.9257e-06,0.0085302,1.551,0.012321,0.025276,5.2197e-07,0.46,0.72,0
0.023166,-0.0039142,0.028399,-0.00031529,0.0084252,0.00078761,0,0,0.051932,-0.022725,0,0.0040956,0,0,0,0.028421,-0.00033689,0.0084252,1.5701,0.01217,0.025531,5.2765e-07,0.48,0.72,0
0.024207,-0.0038697,0.028389,-0.00062619,0.0083288,0.00076157,0,0,0.052156,-0.023283,0,0.0039602,0,0,0,0.028409,-0.00064622,0.0083288,1.503,0.01203,0.025768,5.3285e-07,0.5,0.72,0
0.025253,-0.0038306,0.028381,-0.00090173,0.0082437,0.00069407,0,0,0.052356,-0.023778,0,0.0036091,0,0,0,0.028397,-0.00091832,0.0082437,1.3578,0.011908,0.025976,5.3725e-07,0.52,0.72,0
0.026302,-0.0038007,0.028372,-0.001131,0.0081722,0.00059031,0,0,0.052518,-0.024188,0,0.0030696,0,0,0,0.028384,-0.0011431,0.0081722,1.1466,0.011804,0.026145,5.4056e-07,0.54,0.72,0
0.027353,-0.0037831,0.028359,-0.0013057,0.008116,0.00045758,0,0,0.052632,-0.024496,0,0.0023794,0,0,0,0.028366,-0.0013131,0.008116,0.88414,0.011723,0.026267,5.4261e-07,0.56,0.72,0
0.028407,-0.0037801,0.028341,-0.0014202,0.0080763,0.00030433,0,0,0.052688,-0.024691,0,0.0015825,0,0,0,0.028345,-0.0014237,0.0080763,0.58618,0.011666,0.026336,5.4333e-07,0.58,0.72,0
0.029461,-0.0037934,0.028317,-0.001472,0.0080535,0.00013959,0,0,0.052685,-0.024766,0,0.00072587,0,0,0,0.028318,-0.0014732,0.0080535,0.26853,0.011633,0.026353,5.4269e-07,0.6,0.72,0
0.030514,-0.0038234,0.028286,-0.0014615,0.0080475,-2.7436e-05,0,0,0.052621,-0.024723,0,-0.00014267,0,0,0,0.028287,-0.001462,0.0080475,-0.053115,0.011624,0.026316,5.4073e-07,0.62,0.72,0
0.031566,-0.00387,0.02825,-0.0013915,0.0080575,-0.00018759,0,0,0.0525,-0.024567,0,-0.00097548,0,0,0,0.028251,-0.0013932,0.0080575,-0.36313,0.011639,0.026229,5.3754e-07,0.64,0.72,0
0.032614,-0.003932,0.028209,-0.0012684,0.008082,-0.00033215,0,0,0.052329,-0.024311,0,-0.0017272,0,0,0,0.028213,-0.0012725,0.008082,-0.64621,0.011674,0.026097,5.3326e-07,0.66,0.72,0
0.033659,-0.0040075,0.028165,-0.0011016,0.008119,-0.00045354,0,0,0.05212,-0.023974,0,-0.0023584,0,0,0,0.028172,-0.0011089,0.008119,-0.88834,0.011728,0.02593,5.2813e-07,0.68,0.72,0
0.034699,-0.0040938,0.028122,-0.00090325,0.0081658,-0.00054623,0,0,0.051887,-0.023579,0,-0.0028404,0,0,0,0.028133,-0.00091368,0.0081658,-1.0783,0.011795,0.025737,5.2247e-07,0.7,0.72,0
0.035734,-0.0041882,0.028084,-0.00068725,0.0082191,-0.00060743,0,0,0.051649,-0.023157,0,-0.0031586,0,0,0,0.028097,-0.00070014,0.0082191,-1.2093,0.011872,0.025534,5.1664e-07,0.72,0.72,0
0.036765,-0.0042873,0.028054,-0.00046716,0.0082761,-0.00063737,0,0,0.051423,-0.022732,0,-0.0033143,0,0,0,0.028068,-0.00048142,0.0082761,-1.2797,0.011954,0.025333,5.1105e-07,0.74,0.72,0
0.037791,-0.0043881,0.028034,-0.00025474,0.0083339,-0.00063885,0,0,0.051221,-0.02233,0,-0.003322,0,0,0,0.028049,-0.00026917,0.0083339,-1.293,0.012038,0.025146,5.0604e-07,0.76,0.72,0
0.038814,-0.0044878,0.028027,-5.8943e-05,0.0083903,-0.00061652,0,0,0.051055,-0.021968,0,-0.0032059,0,0,0,0.02804,-7.2487e-05,0.0083903,-1.2567,0.012119,0.024981,5.0186e-07,0.78,0.72,0
0.039834,-0.0045839,0.028031,0.00011444,0.0084437,-0.00057587,0,0,0.050928,-0.021656,0,-0.0029945,0,0,0,0.028043,0.00010252,0.0084437,-1.181,0.012196,0.024843,4.9866e-07,0.8,0.72,0
0.040851,-0.0046744,0.028047,0.00026252,0.0084929,-0.00052249,0,0,0.050841,-0.021399,0,-0.002717,0,0,0,0.028057,0.00025263,0.0084929,-1.0767,0.012267,0.024736,4.9649e-07,0.82,0.72,0
0.041867,-0.0047578,0.028072,0.00038481,0.008537,-0.00046143,0,0,0.050791,-0.021196,0,-0.0023995,0,0,0,0.02808,0.00037703,0.008537,-0.95436,0.012331,0.024657,4.9526e-07,0.84,0.72,0
0.042883,-0.0048328,0.028103,0.00048258,0.0085757,-0.00039691,0,0,0.050771,-0.021042,0,-0.0020639,0,0,0,0.028109,0.00047678,0.0085757,-0.82301,0.012387,0.024604,4.9486e-07,0.86,0.72,0
0.043898,-0.0048986,0.028138,0.00055828,0.0086089,-0.00033211,0,0,0.050776,-0.020932,0,-0.001727,0,0,0,0.028142,0.00055418,0.0086089,-0.6898,0.012435,0.024572,4.9508e-07,0.88,0.72,0
0.044914,-0.0049548,0.028174,0.00061496,0.0086366,-0.00026921,0,0,0.050796,-0.020856,0,-0.0013999,0,0,0,0.028176,0.00061223,0.0086366,-0.55968,0.012475,0.024556,4.9574e-07,0.9,0.72,0
0.04593,-0.0050009,0.028207,0.00065586,0.0086589,-0.00020942,0,0,0.050825,-0.020808,0,-0.001089,0,0,0,0.028209,0.00065419,0.0086589,-0.43557,0.012507,0.024551,4.9661e-07,0.92,0.72,0
0.046947,-0.0050368,0.028236,0.00068407,0.0086759,-0.00015313,0,0,0.050855,-0.020779,0,-0.00079628,0,0,0,0.028237,0.00068315,0.0086759,-0.31853,0.012532,0.024553,4.9751e-07,0.94,0.72,0
0.047964,-0.0050625,0.028258,0.00070219,0.0086879,-0.00010005,0,0,0.050881,-0.020763,0,-0.00052024,0,0,0,0.028258,0.00070177,0.0086879,-0.2081,0.012549,0.024557,4.9828e-07,0.96,0.72,0
0.048982,-0.005078,0.028271,0.00071224,0.0086951,-6.1728e-05,0,0,0.050898,-0.020755,0,-0.00032098,0,0,0,0.028271,0.00071208,0.0086951,-0.12838,0.01256,0.024561,4.9879e-07,0.98,0.72,0
0.049491,-0.0050831,0.028276,0.00071545,0.0086974,-4.9223e-05,0,0,0.050904,-0.020753,0,-0.00025596,0,0,0,0.028276,0.00071536,0.0086974,-0.10235,0.012563,0.024563,4.9897e-07,1,0.72,0
0.00040438,-0.00020737,0.027181,0.011222,0.011521,-0.0039771,0,0,0.040717,-0.0007773,0,-0.020681,0,0,0,0.02812,0.010283,0.011521,-13.246,0.016642,0.017253,2.591e-07,0,0.74,0
0.00081434,-0.00041305,0.027236,0.010809,0.011414,-0.0039518,0,0,0.041138,-0.001571,0,-0.02055,0,0,0,0.028141,0.0099046,0.011414,-12.858,0.016486,0.017533,2.6986e-07,0.02,0.74,0
0.0016455,-0.00082023,0.027434,0.010009,0.011233,-0.0038764,0,0,0.042123,-0.0031815,0,-0.020158,0,0,0,0.028262,0.0091818,0.011233,-12.009,0.016225,0.018144,2.9364e-07,0.04,0.74,0
0.0024993,-0.0012175,0.027715,0.0092302,0.011083,-0.0037551,0,0,0.043241,-0.0048186,0,-0.019526,0,0,0,0.028453,0.0084923,0.011083,-11.071,0.016009,0.018801,3.1961e-07,0.06,0.74,0
0.0033752,-0.0016016,0.027979,0.0084509,0.010929,-0.0035918,0,0,0.04433,-0.0064427,0,-0.018678,0,0,0,0.028622,0.0078072,0.010929,-10.113,0.015786,0.019445,3.4503e-07,0.08,0.74,0
0.0042724,-0.0019692,0.028218,0.0076887,0.010772,-0.0033888,0,0,0.045359,-0.0080164,0,-0.017622,0,0,0,0.028766,0.0071399,0.010772,-9.1489,0.015559,0.02006,3.6917e-07,0.1,0.74,0
0.0051895,-0.0023173,0.028425,0.006958,0.010615,-0.0031508,0,0,0.046306,-0.0095078,0,-0.016384,0,0,0,0.028881,0.0065015,0.010615,-8.1922,0.015333,0.020634,3.914e-07,0.12,0.74,0
0.0061247,-0.0026429,0.028596,0.0062698,0.01046,-0.0028848,0,0,0.047154,-0.010894,0,-0.015001,0,0,0,0.028966,0.0058998,0.01046,-7.2556,0.015109,0.021159,4.113e-07,0.14,0.74,0
0.0070757,-0.0029439,0.028729,0.0056312,0.010308,-0.0025981,0,0,0.047894,-0.01216,0,-0.01351,0,0,0,0.029021,0.0053396,0.010308,-6.3488,0.014889,0.02163,4.2863e-07,0.16,0.74,0
0.0080404,-0.0032185,0.028824,0.0050452,0.010161,-0.0022984,0,0,0.048524,-0.0133,0,-0.011952,0,0,0,0.029047,0.0048223,0.010161,-5.4789,0.014677,0.022046,4.4333e-07,0.18,0.74,0
0.0090167,-0.0034655,0.028883,0.0045117,0.010018,-0.0019925,0,0,0.049048,-0.014317,0,-0.010361,0,0,0,0.029047,0.0043474,0.010018,-4.6503,0.014471,0.02241,4.5549e-07,0.2,0.74,0
0.010002,-0.0036842,0.028909,0.0040278,0.0098812,-0.0016862,0,0,0.049473,-0.015219,0,-0.0087685,0,0,0,0.029025,0.0039118,0.0098812,-3.8654,0.014273,0.022725,4.6535e-07,0.22,0.74,0
0.010996,-0.0038745,0.028908,0.0035889,0.009749,-0.0013842,0,0,0.049813,-0.016016,0,-0.0071979,0,0,0,0.028985,0.0035114,0.009749,-3.1251,0.014082,0.022999,4.7321e-07,0.24,0.74,0
0.011995,-0.0040366,0.028883,0.0031887,0.0096217,-0.0010902,0,0,0.050081,-0.016726,0,-0.0056689,0,0,0,0.028931,0.0031407,0.0096217,-2.4295,0.013898,0.023239,4.7943e-07,0.26,0.74,0
0.012999,-0.0041711,0.028841,0.0028205,0.0094986,-0.00080705,0,0,0.050291,-0.017363,0,-0.0041966,0,0,0,0.028868,0.0027939,0.0094986,-1.7785,0.01372,0.023452,4.844e-07,0.28,0.74,0
0.014007,-0.0042789,0.028787,0.002477,0.0093792,-0.00053741,0,0,0.050461,-0.017946,0,-0.0027945,0,0,0,0.0288,0.0024645,0.0093792,-1.173,0.013548,0.023649,4.8851e-07,0.3,0.74,0
0.015017,-0.0043613,0.028726,0.002151,0.0092631,-0.00028369,0,0,0.050603,-0.018491,0,-0.0014752,0,0,0,0.02873,0.0021467,0.0092631,-0.61451,0.01338,0.023836,4.9214e-07,0.32,0.74,0
0.016031,-0.0044199,0.028662,0.0018361,0.0091495,-4.8473e-05,0,0,0.050733,-0.019015,0,-0.00025206,0,0,0,0.028663,0.001835,0.0091495,-0.10619,0.013216,0.024022,4.9563e-07,0.34,0.74,0
0.017047,-0.0044566,0.028601,0.0015265,0.0090382,0.00016528,0,0,0.050863,-0.019531,0,0.00085946,0,0,0,0.028603,0.0015247,0.0090382,0.34739,0.013055,0.024212,4.9926e-07,0.36,0.74,0
0.018065,-0.0044736,0.028545,0.001218,0.008929,0.00035417,0,0,0.051003,-0.020049,0,0.0018417,0,0,0,0.028551,0.0012128,0.008929,0.74037,0.012897,0.024412,5.0321e-07,0.38,0.74,0
0.019087,-0.0044736,0.028498,0.00090826,0.008822,0.00051439,0,0,0.051159,-0.020576,0,0.0026748,0,0,0,0.028508,0.00089829,0.008822,1.0661,0.012743,0.024624,5.0761e-07,0.4,0.74,0
0.020112,-0.0044597,0.028461,0.00059705,0.0087175,0.00064196,0,0,0.051334,-0.021113,0,0.0033382,0,0,0,0.028476,0.00058205,0.0087175,1.3179,0.012592,0.024847,5.1244e-07,0.42,0.74,0
0.02114,-0.0044352,0.028435,0.00028678,0.0086165,0.00073315,0,0,0.051528,-0.021657,0,0.0038124,0,0,0,0.028454,0.00026762,0.0086165,1.4903,0.012446,0.025077,5.1762e-07,0.44,0.74,0
0.022173,-0.0044036,0.028418,-1.7509e-05,0.0085202,0.000785,0,0,0.051734,-0.022198,0,0.004082,0,0,0,0.02844,-3.918e-05,0.0085202,1.5799,0.012307,0.025309,5.2292e-07,0.46,0.74,0
0.023209,-0.0043689,0.028409,-0.00030853,0.00843,0.00079597,0,0,0.051944,-0.02272,0,0.0041391,0,0,0,0.028431,-0.00033059,0.00843,1.5866,0.012177,0.025534,5.2808e-07,0.48,0.74,0
0.02425,-0.0043347,0.028404,-0.00057746,0.0083478,0.00076645,0,0,0.052145,-0.023206,0,0.0039855,0,0,0,0.028424,-0.00059777,0.0083478,1.5143,0.012058,0.025742,5.3279e-07,0.5,0.74,0
0.025295,-0.0043049,0.0284,-0.00081498,0.0082755,0.000699,0,0,0.052324,-0.023635,0,0.0036348,0,0,0,0.028417,-0.00083183,0.0082755,1.3705,0.011954,0.025924,5.3677e-07,0.52,0.74,0
0.026343,-0.0042826,0.028395,-0.0010125,0.0082147,0.00059833,0,0,0.052468,-0.023991,0,0.0031113,0,0,0,0.028407,-0.0010249,0.0082147,1.1658,0.011866,0.026071,5.3977e-07,0.54,0.74,0
0.027394,-0.0042707,0.028385,-0.0011631,0.0081667,0.00047085,0,0,0.052569,-0.024257,0,0.0024484,0,0,0,0.028393,-0.0011709,0.0081667,0.91324,0.011796,0.026176,5.4161e-07,0.56,0.74,0
0.028446,-0.0042714,0.02837,-0.0012621,0.0081322,0.00032421,0,0,0.052617,-0.024425,0,0.0016859,0,0,0,0.028373,-0.001266,0.0081322,0.62712,0.011747,0.026235,5.4219e-07,0.58,0.74,0
0.029499,-0.004286,0.028346,-0.0013072,0.0081117,0.00016669,0,0,0.05261,-0.024489,0,0.0008668,0,0,0,0.028348,-0.0013085,0.0081117,0.32214,0.011717,0.026246,5.4149e-07,0.6,0.74,0
0.030551,-0.0043152,0.028315,-0.0012987,0.008105,6.8409e-06,0,0,0.052547,-0.02445,0,3.5572e-05,0,0,0,0.028316,-0.0012991,0.008105,0.013045,0.011707,0.02621,5.3953e-07,0.62,0.74,0
0.031601,-0.0043589,0.028277,-0.0012395,0.0081113,-0.00014697,0,0,0.052432,-0.024312,0,-0.00076425,0,0,0,0.028278,-0.0012407,0.0081113,-0.28569,0.011716,0.02613,5.3639e-07,0.64,0.74,0
0.032648,-0.0044161,0.028234,-0.0011351,0.0081295,-0.000287,0,0,0.052271,-0.024088,0,-0.0014924,0,0,0,0.028237,-0.0011383,0.0081295,-0.56037,0.011743,0.02601,5.3225e-07,0.66,0.74,0
0.033691,-0.0044852,0.028187,-0.00099352,0.0081579,-0.00040666,0,0,0.052074,-0.023794,0,-0.0021146,0,0,0,0.028192,-0.00099944,0.0081579,-0.79886,0.011784,0.025859,5.273e-07,0.68,0.74,0
0.034731,-0.0045643,0.028139,-0.00082458,0.0081943,-0.00050118,0,0,0.051856,-0.023449,0,-0.0026061,0,0,0,0.028148,-0.00083341,0.0081943,-0.99154,0.011836,0.025686,5.2185e-07,0.7,0.74,0
0.035766,-0.0046506,0.028094,-0.00063929,0.0082365,-0.00056794,0,0,0.05163,-0.023077,0,-0.0029533,0,0,0,0.028106,-0.0006506,0.0082365,-1.1323,0.011897,0.025502,5.162e-07,0.72,0.74,0
0.036796,-0.0047418,0.028055,-0.00044849,0.0082821,-0.00060668,0,0,0.051411,-0.022699,0,-0.0031547,0,0,0,0.028068,-0.00046143,0.0082821,-1.2189,0.011963,0.025317,5.1069e-07,0.74,0.74,0
0.037822,-0.0048349,0.028025,-0.00026183,0.0083289,-0.00061917,0,0,0.05121,-0.022336,0,-0.0032197,0,0,0,0.028038,-0.00027539,0.0083289,-1.2534,0.012031,0.025141,5.056e-07,0.76,0.74,0
0.038844,-0.0049276,0.028004,-8.6968e-05,0.0083752,-0.00060877,0,0,0.051036,-0.022002,0,-0.0031656,0,0,0,0.028018,-0.00010017,0.0083752,-1.2408,0.012098,0.024983,5.0117e-07,0.78,0.74,0
0.039863,-0.0050177,0.027994,7.0725e-05,0.0084195,-0.0005797,0,0,0.050894,-0.021707,0,-0.0030144,0,0,0,0.028006,5.8673e-05,0.0084195,-1.1886,0.012161,0.024846,4.9754e-07,0.8,0.74,0
0.04088,-0.0051031,0.027994,0.00020816,0.0084607,-0.00053648,0,0,0.050787,-0.021457,0,-0.0027897,0,0,0,0.028005,0.00019777,0.0084607,-1.1055,0.012221,0.024733,4.9477e-07,0.82,0.74,0
0.041895,-0.0051823,0.028003,0.00032422,0.0084981,-0.0004834,0,0,0.050712,-0.021252,0,-0.0025137,0,0,0,0.028011,0.00031572,0.0084981,-1.0001,0.012275,0.024645,4.9283e-07,0.84,0.74,0
0.042909,-0.0052541,0.028018,0.00041931,0.0085312,-0.00042423,0,0,0.050666,-0.021091,0,-0.002206,0,0,0,0.028025,0.00041272,0.0085312,-0.8803,0.012323,0.02458,4.9164e-07,0.86,0.74,0
0.043922,-0.0053176,0.028038,0.00049494,0.0085598,-0.00036199,0,0,0.050643,-0.020969,0,-0.0018824,0,0,0,0.028043,0.00049011,0.0085598,-0.75278,0.012364,0.024534,4.9107e-07,0.88,0.74,0
0.044934,-0.005372,0.028059,0.00055326,0.0085838,-0.00029891,0,0,0.050637,-0.020879,0,-0.0015543,0,0,0,0.028063,0.00054993,0.0085838,-0.62251,0.012399,0.024504,4.9095e-07,0.9,0.74,0
0.045947,-0.005417,0.028081,0.00059668,0.0086033,-0.00023645,0,0,0.050642,-0.020817,0,-0.0012295,0,0,0,0.028083,0.00059457,0.0086033,-0.49287,0.012427,0.024487,4.9114e-07,0.92,0.74,0
0.04696,-0.0054523,0.0281,0.00062758,0.0086183,-0.00017535,0,0,0.050652,-0.020776,0,-0.00091182,0,0,0,0.028101,0.00062638,0.0086183,-0.36571,0.012449,0.024478,4.9146e-07,0.94,0.74,0
0.047973,-0.0054775,0.028115,0.00064801,0.0086289,-0.00011581,0,0,0.050664,-0.02075,0,-0.00060219,0,0,0,0.028115,0.00064746,0.0086289,-0.24159,0.012464,0.024474,4.9179e-07,0.96,0.74,0
0.048987,-0.0054927,0.028124,0.0006596,0.0086352,-6.9742e-05,0,0,0.050672,-0.020736,0,-0.00036266,0,0,0,0.028124,0.0006594,0.0086352,-0.14551,0.012473,0.024472,4.9204e-07,0.98,0.74,0
0.049493,-0.0054978,0.028128,0.00066335,0.0086373,-5.3073e-05,0,0,0.050675,-0.020732,0,-0.00027598,0,0,0,0.028128,0.00066325,0.0086373,-0.11073,0.012476,0.024472,4.9213e-07,1,0.74,0
0.00040403,-0.00022329,0.027156,0.011189,0.011503,-0.0042818,0,0,0.040698,-0.00081877,0,-0.022265,0,0,0,0.028235,0.01011,0.011503,-14.102,0.016616,0.017471,2.6795e-07,0,0.76,0
0.00081395,-0.00044523,0.027214,0.010752,0.01139,-0.0042551,0,0,0.041142,-0.0016573,0,-0.022127,0,0,0,0.028253,0.0097137,0.01139,-13.681,0.016452,0.017763,2.7916e-07,0.02,0.76,0
0.0016457,-0.00088545,0.027422,0.0099048,0.011198,-0.0041743,0,0,0.042181,-0.003362,0,-0.021706,0,0,0,0.02837,0.0089563,0.011198,-12.758,0.016175,0.018398,3.0396e-07,0.04,0.76,0
0.0025012,-0.0013163,0.027715,0.0090769,0.011037,-0.0040393,0,0,0.043361,-0.0050977,0,-0.021004,0,0,0,0.028557,0.0082344,0.011037,-11.734,0.015943,0.019079,3.3089e-07,0.06,0.76,0
0.0033801,-0.0017338,0.027988,0.0082503,0.010872,-0.003852,0,0,0.044504,-0.0068155,0,-0.02003,0,0,0,0.028718,0.0075205,0.010872,-10.677,0.015703,0.019739,3.5689e-07,0.08,0.76,0
0.0042814,-0.0021336,0.028233,0.007446,0.010704,-0.0036165,0,0,0.045575,-0.0084697,0,-0.018806,0,0,0,0.028848,0.0068302,0.010704,-9.6079,0.015461,0.020361,3.8115e-07,0.1,0.76,0
0.0052031,-0.0025121,0.02844,0.0066812,0.010536,-0.0033403,0,0,0.046549,-0.010023,0,-0.017369,0,0,0,0.028945,0.0061758,0.010536,-8.5473,0.015219,0.020934,4.0305e-07,0.12,0.76,0
0.0061433,-0.0028658,0.028606,0.0059683,0.010372,-0.003033,0,0,0.047408,-0.011451,0,-0.015772,0,0,0,0.02901,0.0055651,0.010372,-7.512,0.014982,0.02145,4.2221e-07,0.14,0.76,0
0.0070995,-0.0031924,0.028731,0.0053142,0.010214,-0.0027052,0,0,0.048145,-0.012738,0,-0.014067,0,0,0,0.029043,0.0050022,0.010214,-6.5151,0.014753,0.021906,4.3849e-07,0.16,0.76,0
0.0080691,-0.0034899,0.028815,0.0047211,0.010061,-0.0023666,0,0,0.04876,-0.013883,0,-0.012306,0,0,0,0.029048,0.0044876,0.010061,-5.5658,0.014532,0.022303,4.5196e-07,0.18,0.76,0
0.0090499,-0.0037572,0.028861,0.0041875,0.0099146,-0.0020257,0,0,0.049261,-0.01489,0,-0.010533,0,0,0,0.029029,0.0040194,0.0099146,-4.6695,0.014321,0.022646,4.6284e-07,0.2,0.76,0
0.01004,-0.0039938,0.028875,0.0037091,0.0097753,-0.0016893,0,0,0.04966,-0.015772,0,-0.0087842,0,0,0,0.028991,0.0035936,0.0097753,-3.8291,0.01412,0.02294,4.7146e-07,0.22,0.76,0
0.011036,-0.0041999,0.028863,0.0032797,0.0096428,-0.0013626,0,0,0.049973,-0.016544,0,-0.0070857,0,0,0,0.028938,0.0032051,0.0096428,-3.0453,0.013929,0.023194,4.7819e-07,0.24,0.76,0
0.012038,-0.004376,0.02883,0.0028922,0.0095167,-0.0010497,0,0,0.050215,-0.017224,0,-0.0054582,0,0,0,0.028874,0.0028478,0.0095167,-2.3179,0.013746,0.023416,4.8344e-07,0.26,0.76,0
0.013045,-0.004523,0.028782,0.0025391,0.0093964,-0.00075322,0,0,0.050403,-0.017829,0,-0.0039167,0,0,0,0.028806,0.0025158,0.0093964,-1.6463,0.013573,0.023614,4.8763e-07,0.28,0.76,0
0.014055,-0.0046421,0.028725,0.0022128,0.0092814,-0.00047563,0,0,0.050554,-0.018378,0,-0.0024733,0,0,0,0.028735,0.0022028,0.0092814,-1.0306,0.013406,0.023797,4.9113e-07,0.3,0.76,0
0.015067,-0.0047352,0.028664,0.0019062,0.009171,-0.00021894,0,0,0.050681,-0.018888,0,-0.0011385,0,0,0,0.028667,0.0019032,0.009171,-0.4715,0.013247,0.023971,4.9429e-07,0.32,0.76,0
0.016082,-0.0048039,0.028603,0.001613,0.0090647,1.4777e-05,0,0,0.050799,-0.019375,0,7.6841e-05,0,0,0,0.028604,0.001612,0.0090647,0.029002,0.013094,0.024144,4.974e-07,0.34,0.76,0
0.017099,-0.0048505,0.028546,0.0013279,0.0089621,0.00022325,0,0,0.050918,-0.019849,0,0.0011609,0,0,0,0.028548,0.0013253,0.0089621,0.46787,0.012945,0.024321,5.0068e-07,0.36,0.76,0
0.018119,-0.0048775,0.028496,0.0010471,0.0088629,0.0004039,0,0,0.051046,-0.020321,0,0.0021003,0,0,0,0.028502,0.0010406,0.0088629,0.84115,0.012802,0.024506,5.0429e-07,0.38,0.76,0
0.019141,-0.0048875,0.028455,0.00076842,0.0087671,0.00055396,0,0,0.051189,-0.020796,0,0.0028806,0,0,0,0.028467,0.00075701,0.0087671,1.1444,0.012664,0.024699,5.083e-07,0.4,0.76,0
0.020166,-0.0048838,0.028424,0.00049177,0.0086748,0.00067062,0,0,0.051349,-0.021276,0,0.0034872,0,0,0,0.028441,0.00047551,0.0086748,1.3736,0.01253,0.0249,5.1268e-07,0.42,0.76,0
0.021195,-0.0048695,0.028403,0.00021908,0.0085868,0.00075141,0,0,0.051523,-0.021756,0,0.0039073,0,0,0,0.028424,0.000199,0.0085868,1.5256,0.012403,0.025105,5.1733e-07,0.44,0.76,0
0.022227,-0.0048481,0.028391,-4.5658e-05,0.0085037,0.00079456,0,0,0.051708,-0.022228,0,0.0041317,0,0,0,0.028414,-6.7852e-05,0.0085037,1.5991,0.012283,0.025309,5.2205e-07,0.46,0.76,0
0.023263,-0.004823,0.028386,-0.00029674,0.0084268,0.00079951,0,0,0.051894,-0.022681,0,0.0041574,0,0,0,0.028408,-0.00031902,0.0084268,1.5956,0.012172,0.025505,5.2663e-07,0.48,0.76,0
0.024303,-0.0047979,0.028384,-0.00052731,0.0083571,0.00076719,0,0,0.052071,-0.0231,0,0.0039894,0,0,0,0.028405,-0.00054771,0.0083571,1.5194,0.012071,0.025685,5.308e-07,0.5,0.76,0
0.025346,-0.004776,0.028384,-0.00073014,0.0082961,0.00070028,0,0,0.052228,-0.023468,0,0.0036414,0,0,0,0.028401,-0.00074711,0.0082961,1.3776,0.011983,0.025842,5.3431e-07,0.52,0.76,0
0.026392,-0.0047603,0.028381,-0.00089849,0.0082448,0.00060311,0,0,0.052355,-0.023773,0,0.0031362,0,0,0,0.028394,-0.00091113,0.0082448,1.1801,0.011909,0.025967,5.3695e-07,0.54,0.76,0
0.02744,-0.0047534,0.028374,-0.0010268,0.0082042,0.00048149,0,0,0.052442,-0.024001,0,0.0025037,0,0,0,0.028382,-0.001035,0.0082042,0.93843,0.011851,0.026057,5.3855e-07,0.56,0.76,0
0.02849,-0.0047572,0.02836,-0.0011112,0.0081748,0.00034225,0,0,0.052483,-0.024143,0,0.0017797,0,0,0,0.028365,-0.0011155,0.0081748,0.66553,0.011808,0.026106,5.3902e-07,0.58,0.76,0
0.029539,-0.0047729,0.028339,-0.0011499,0.0081567,0.00019287,0,0,0.052474,-0.024197,0,0.0010029,0,0,0,0.028341,-0.0011515,0.0081567,0.37481,0.011782,0.026113,5.3831e-07,0.6,0.76,0
0.030589,-0.0048014,0.02831,-0.0011431,0.0081499,4.1081e-05,0,0,0.052415,-0.024162,0,0.00021362,0,0,0,0.02831,-0.0011436,0.0081499,0.079794,0.011772,0.02608,5.3645e-07,0.62,0.76,0
0.031636,-0.0048425,0.028273,-0.0010935,0.0081537,-0.00010563,0,0,0.052309,-0.024043,0,-0.00054927,0,0,0,0.028273,-0.0010942,0.0081537,-0.20638,0.011778,0.026008,5.3351e-07,0.64,0.76,0
0.032681,-0.0048955,0.028229,-0.0010056,0.0081671,-0.00024038,0,0,0.052162,-0.023849,0,-0.00125,0,0,0,0.028232,-0.0010079,0.0081671,-0.47148,0.011797,0.025901,5.2964e-07,0.66,0.76,0
0.033723,-0.0049592,0.028182,-0.00088606,0.0081888,-0.00035741,0,0,0.051983,-0.023595,0,-0.0018585,0,0,0,0.028187,-0.0008907,0.0081888,-0.70479,0.011828,0.025767,5.2504e-07,0.68,0.76,0
0.03476,-0.0050318,0.028133,-0.00074287,0.0082172,-0.00045243,0,0,0.051782,-0.023296,0,-0.0023526,0,0,0,0.028141,-0.00075013,0.0082172,-0.89782,0.011869,0.025613,5.1995e-07,0.7,0.76,0
0.035794,-0.0051112,0.028086,-0.0005848,0.0082504,-0.00052294,0,0,0.051573,-0.022971,0,-0.0027193,0,0,0,0.028096,-0.00059444,0.0082504,-1.0449,0.011917,0.025448,5.1463e-07,0.72,0.76,0
0.036823,-0.0051953,0.028043,-0.00042056,0.0082866,-0.00056831,0,0,0.051366,-0.022639,0,-0.0029552,0,0,0,0.028054,-0.00043196,0.0082866,-1.1436,0.01197,0.025281,5.0937e-07,0.74,0.76,0
0.037848,-0.0052816,0.028006,-0.00025806,0.0083243,-0.00058955,0,0,0.051171,-0.022314,0,-0.0030657,0,0,0,0.028018,-0.00027037,0.0083243,-1.1945,0.012024,0.025119,5.0441e-07,0.76,0.76,0
0.03887,-0.0053679,0.027977,-0.00010378,0.0083618,-0.00058903,0,0,0.050998,-0.022011,0,-0.003063,0,0,0,0.027989,-0.00011614,0.0083618,-1.2011,0.012078,0.02497,4.9994e-07,0.78,0.76,0
0.039888,-0.0054522,0.027956,3.7477e-05,0.0083981,-0.00056996,0,0,0.050851,-0.021738,0,-0.0029638,0,0,0,0.027968,2.583e-05,0.0083981,-1.1689,0.012131,0.024838,4.9612e-07,0.8,0.76,0
0.040904,-0.0055327,0.027944,0.00016265,0.0084321,-0.00053593,0,0,0.050732,-0.021501,0,-0.0027869,0,0,0,0.027955,0.00015229,0.0084321,-1.1046,0.01218,0.024725,4.9301e-07,0.82,0.76,0
0.041918,-0.0056079,0.02794,0.00027027,0.0084632,-0.00049056,0,0,0.050641,-0.021302,0,-0.0025509,0,0,0,0.027949,0.00026154,0.0084632,-1.0152,0.012225,0.024633,4.9061e-07,0.84,0.76,0
0.04293,-0.0056764,0.027943,0.00036019,0.008491,-0.00043712,0,0,0.050576,-0.02114,0,-0.002273,0,0,0,0.02795,0.00035321,0.008491,-0.90753,0.012265,0.024561,4.8888e-07,0.86,0.76,0
0.043941,-0.0057374,0.027951,0.0004332,0.0085152,-0.00037842,0,0,0.050532,-0.021013,0,-0.0019678,0,0,0,0.027956,0.00042793,0.0085152,-0.7876,0.0123,0.024507,4.8772e-07,0.88,0.76,0
0.044951,-0.0057899,0.027961,0.00049072,0.0085355,-0.00031665,0,0,0.050506,-0.020917,0,-0.0016466,0,0,0,0.027965,0.000487,0.0085355,-0.66024,0.012329,0.024467,4.8703e-07,0.9,0.76,0
0.045961,-0.0058336,0.027973,0.00053451,0.0085522,-0.00025342,0,0,0.050493,-0.020846,0,-0.0013178,0,0,0,0.027975,0.00053209,0.0085522,-0.52907,0.012353,0.024441,4.8668e-07,0.92,0.76,0
0.046971,-0.0058679,0.027984,0.00056632,0.008565,-0.00018976,0,0,0.050488,-0.020797,0,-0.00098677,0,0,0,0.027985,0.00056493,0.008565,-0.39651,0.012372,0.024423,4.8656e-07,0.94,0.76,0
0.04798,-0.0058925,0.027993,0.00058776,0.0085741,-0.00012624,0,0,0.050488,-0.020764,0,-0.00065643,0,0,0,0.027993,0.00058711,0.0085741,-0.26391,0.012385,0.024413,4.8655e-07,0.96,0.76,0
0.04899,-0.0059074,0.027998,0.0006001,0.0085795,-7.4968e-05,0,0,0.050489,-0.020747,0,-0.00038983,0,0,0,0.027999,0.00059986,0.0085795,-0.15677,0.012393,0.024408,4.8658e-07,0.98,0.76,0
0.049495,-0.0059124,0.028,0.00060412,0.0085813,-5.539e-05,0,0,0.050489,-0.020741,0,-0.00028803,0,0,0,0.028,0.000604,0.0085813,-0.11584,0.012395,0.024406,4.866e-07,1,0.76,0
0.00040422,-0.00024013,0.027167,0.011165,0.0115,-0.004604,0,0,0.040736,-0.00087092,0,-0.023941,0,0,0,0.0284,0.0099317,0.0115,-14.958,0.01661,0.017739,2.7904e-07,0,0.78,0
0.00081472,-0.00047934,0.027228,0.010699,0.011378,-0.0045757,0,0,0.04121,-0.0017661,0,-0.023794,0,0,0,0.028415,0.0095122,0.011378,-14.498,0.016435,0.018045,2.9086e-07,0.02,0.78,0
0.0016484,-0.00095471,0.027447,0.0097907,0.011171,-0.0044882,0,0,0.042317,-0.0035897,0,-0.023339,0,0,0,0.028528,0.0087102,0.011171,-13.493,0.016136,0.018712,3.17e-07,0.04,0.78,0
0.0025074,-0.0014214,0.027755,0.0089014,0.010997,-0.0043363,0,0,0.043571,-0.0054484,0,-0.022549,0,0,0,0.02871,0.0079465,0.010997,-12.37,0.015884,0.019422,3.4518e-07,0.06,0.78,0
0.0033912,-0.0018742,0.028039,0.0080166,0.010817,-0.0041198,0,0,0.044777,-0.0072798,0,-0.021423,0,0,0,0.028859,0.0071966,0.010817,-11.202,0.015624,0.0201,3.7187e-07,0.08,0.78,0
0.0042985,-0.002308,0.028286,0.0071626,0.010635,-0.0038454,0,0,0.045894,-0.0090272,0,-0.019996,0,0,0,0.02897,0.006479,0.010635,-10.019,0.015361,0.02073,3.9616e-07,0.1,0.78,0
0.005227,-0.0027182,0.02849,0.00636,0.010455,-0.0035244,0,0,0.046891,-0.010647,0,-0.018327,0,0,0,0.029043,0.0058072,0.010455,-8.8483,0.015102,0.021297,4.1746e-07,0.12,0.78,0
0.0061741,-0.0031009,0.028647,0.005622,0.010281,-0.0031706,0,0,0.047752,-0.012112,0,-0.016487,0,0,0,0.02908,0.0051888,0.010281,-7.7116,0.01485,0.021797,4.355e-07,0.14,0.78,0
0.0071371,-0.0034534,0.028756,0.004955,0.010113,-0.0027978,0,0,0.048471,-0.013412,0,-0.014549,0,0,0,0.029085,0.0046263,0.010113,-6.6256,0.014608,0.02223,4.5028e-07,0.16,0.78,0
0.008113,-0.0037738,0.028822,0.0043593,0.0099544,-0.0024184,0,0,0.049056,-0.014547,0,-0.012576,0,0,0,0.029063,0.0041187,0.0099544,-5.601,0.014379,0.022599,4.6206e-07,0.18,0.78,0
0.0090993,-0.0040611,0.02885,0.0038312,0.0098042,-0.0020424,0,0,0.049518,-0.01553,0,-0.01062,0,0,0,0.029019,0.0036622,0.0098042,-4.6436,0.014162,0.022912,4.712e-07,0.2,0.78,0
0.010094,-0.0043151,0.028846,0.0033642,0.009663,-0.0016773,0,0,0.049875,-0.016377,0,-0.0087218,0,0,0,0.028959,0.0032514,0.009663,-3.7558,0.013958,0.023177,4.7815e-07,0.22,0.78,0
0.011094,-0.0045363,0.028818,0.0029505,0.0095304,-0.0013285,0,0,0.050147,-0.017108,0,-0.0069084,0,0,0,0.028888,0.0028799,0.0095304,-2.9373,0.013766,0.023403,4.8339e-07,0.24,0.78,0
0.0121,-0.0047256,0.028772,0.0025816,0.009406,-0.00099977,0,0,0.050351,-0.017743,0,-0.0051988,0,0,0,0.028812,0.0025414,0.009406,-2.187,0.013586,0.0236,4.8735e-07,0.26,0.78,0
0.013108,-0.0048843,0.028714,0.0022491,0.009289,-0.00069342,0,0,0.050506,-0.018304,0,-0.0036058,0,0,0,0.028734,0.0022292,0.009289,-1.5032,0.013417,0.023775,4.9047e-07,0.28,0.78,0
0.01412,-0.0050141,0.028651,0.0019451,0.0091789,-0.00041121,0,0,0.050628,-0.018808,0,-0.0021383,0,0,0,0.028659,0.0019373,0.0091789,-0.88477,0.013258,0.023937,4.931e-07,0.3,0.78,0
0.015133,-0.0051169,0.028587,0.0016624,0.0090748,-0.00015453,0,0,0.050732,-0.019272,0,-0.00080353,0,0,0,0.028589,0.0016603,0.0090748,-0.3312,0.013108,0.024093,4.9554e-07,0.32,0.78,0
0.016149,-0.0051949,0.028526,0.0013947,0.0089762,7.5291e-05,0,0,0.050829,-0.019712,0,0.00039151,0,0,0,0.028527,0.0013936,0.0089762,0.15698,0.012966,0.024248,4.9806e-07,0.34,0.78,0
0.017167,-0.0052505,0.028471,0.0011371,0.0088824,0.00027675,0,0,0.05093,-0.020138,0,0.0014391,0,0,0,0.028474,0.0011336,0.0088824,0.57834,0.01283,0.024407,5.0082e-07,0.36,0.78,0
0.018186,-0.0052864,0.028425,0.00088607,0.0087932,0.00044818,0,0,0.051042,-0.020558,0,0.0023305,0,0,0,0.028432,0.00087833,0.0087932,0.93077,0.012701,0.024572,5.0393e-07,0.38,0.78,0
0.019208,-0.0053055,0.028388,0.0006396,0.0087083,0.00058778,0,0,0.051167,-0.020979,0,0.0030565,0,0,0,0.028401,0.00062688,0.0087083,1.2119,0.012579,0.024744,5.0743e-07,0.4,0.78,0
0.020233,-0.0053108,0.028362,0.00039743,0.0086277,0.00069381,0,0,0.051308,-0.021399,0,0.0036078,0,0,0,0.028379,0.00038009,0.0086277,1.4197,0.012462,0.024921,5.1127e-07,0.42,0.78,0
0.021261,-0.0053054,0.028345,0.00016104,0.0085518,0.00076483,0,0,0.051462,-0.021816,0,0.0039771,0,0,0,0.028366,0.00014025,0.0085518,1.5529,0.012353,0.0251,5.1535e-07,0.44,0.78,0
0.022291,-0.0052927,0.028337,-6.6458e-05,0.0084811,0.00080005,0,0,0.051625,-0.022224,0,0.0041602,0,0,0,0.028359,-8.8982e-05,0.0084811,1.6121,0.01225,0.025277,5.1949e-07,0.46,0.78,0
0.023326,-0.0052761,0.028335,-0.00028064,0.0084162,0.00079964,0,0,0.051788,-0.022612,0,0.0041581,0,0,0,0.028357,-0.00030298,0.0084162,1.5996,0.012157,0.025447,5.235e-07,0.48,0.78,0
0.024363,-0.0052587,0.028336,-0.00047619,0.0083579,0.000765,0,0,0.051943,-0.022969,0,0.003978,0,0,0,0.028356,-0.00049654,0.0083579,1.5202,0.012073,0.025601,5.2715e-07,0.5,0.78,0
0.025403,-0.0052436,0.028338,-0.00064751,0.0083072,0.00069886,0,0,0.05208,-0.023282,0,0.0036341,0,0,0,0.028355,-0.00066447,0.0083072,1.3808,0.011999,0.025735,5.3022e-07,0.52,0.78,0
0.026446,-0.0052335,0.028338,-0.00078933,0.0082646,0.00060531,0,0,0.052191,-0.02354,0,0.0031476,0,0,0,0.028351,-0.00080211,0.0082646,1.1905,0.011938,0.025841,5.3253e-07,0.54,0.78,0
0.027491,-0.0052308,0.028333,-0.00089727,0.0082308,0.00048959,0,0,0.052267,-0.023733,0,0.0025459,0,0,0,0.028342,-0.00090575,0.0082308,0.95968,0.011889,0.025917,5.3394e-07,0.56,0.78,0
0.028537,-0.0052372,0.028322,-0.00096826,0.0082062,0.00035785,0,0,0.052302,-0.023854,0,0.0018608,0,0,0,0.028327,-0.00097297,0.0082062,0.70009,0.011853,0.025958,5.3434e-07,0.58,0.78,0
0.029583,-0.0052539,0.028304,-0.0010009,0.0081909,0.00021677,0,0,0.052294,-0.023899,0,0.0011272,0,0,0,0.028306,-0.0010028,0.0081909,0.42387,0.011831,0.025963,5.3369e-07,0.6,0.78,0
0.030629,-0.0052817,0.028277,-0.00099539,0.0081846,7.3225e-05,0,0,0.052241,-0.023868,0,0.00038077,0,0,0,0.028278,-0.00099594,0.0081846,0.14325,0.011822,0.025932,5.32e-07,0.62,0.78,0
0.031673,-0.0053206,0.028243,-0.00095398,0.0081868,-6.6114e-05,0,0,0.052147,-0.023766,0,-0.00034379,0,0,0,0.028244,-0.00095447,0.0081868,-0.12995,0.011825,0.025869,5.2935e-07,0.64,0.78,0
0.032714,-0.00537,0.028203,-0.00088047,0.0081967,-0.00019517,0,0,0.052016,-0.023601,0,-0.0010149,0,0,0,0.028204,-0.00088207,0.0081967,-0.38477,0.01184,0.025776,5.2586e-07,0.66,0.78,0
0.033753,-0.005429,0.028158,-0.00078021,0.0082132,-0.00030881,0,0,0.051855,-0.023383,0,-0.0016058,0,0,0,0.028161,-0.00078374,0.0082132,-0.61168,0.011864,0.025658,5.2169e-07,0.68,0.78,0
0.034789,-0.0054961,0.02811,-0.00065963,0.0082351,-0.00040317,0,0,0.051675,-0.023126,0,-0.0020965,0,0,0,0.028116,-0.00066545,0.0082351,-0.80304,0.011895,0.025523,5.1705e-07,0.7,0.78,0
0.03582,-0.0055695,0.028063,-0.00052575,0.0082611,-0.00047584,0,0,0.051484,-0.022846,0,-0.0024744,0,0,0,0.028071,-0.00053378,0.0082611,-0.95357,0.011933,0.025377,5.1216e-07,0.72,0.78,0
0.036848,-0.0056473,0.028018,-0.00038558,0.0082896,-0.00052591,0,0,0.051293,-0.022556,0,-0.0027347,0,0,0,0.028027,-0.00039538,0.0082896,-1.0605,0.011974,0.025228,5.0726e-07,0.74,0.78,0
0.037872,-0.0057275,0.027977,-0.00024558,0.0083195,-0.00055384,0,0,0.05111,-0.022269,0,-0.00288,0,0,0,0.027988,-0.00025648,0.0083195,-1.1238,0.012017,0.025082,5.0255e-07,0.76,0.78,0
0.038892,-0.0058081,0.027943,-0.0001112,0.0083495,-0.00056125,0,0,0.050943,-0.021998,0,-0.0029185,0,0,0,0.027954,-0.00012244,0.0083495,-1.1456,0.01206,0.024944,4.9821e-07,0.78,0.78,0
0.03991,-0.0058872,0.027916,1.3376e-05,0.0083787,-0.00055053,0,0,0.050796,-0.02175,0,-0.0028628,0,0,0,0.027926,2.5024e-06,0.0083787,-1.1298,0.012103,0.02482,4.9437e-07,0.8,0.78,0
0.040924,-0.0059631,0.027895,0.00012528,0.0084062,-0.00052455,0,0,0.050672,-0.02153,0,-0.0027277,0,0,0,0.027905,0.00011536,0.0084062,-1.0816,0.012142,0.024711,4.911e-07,0.82,0.78,0
0.041937,-0.0060343,0.027882,0.00022292,0.0084316,-0.00048628,0,0,0.050572,-0.021342,0,-0.0025287,0,0,0,0.027891,0.00021434,0.0084316,-1.0067,0.012179,0.024619,4.8844e-07,0.84,0.78,0
0.042947,-0.0060997,0.027875,0.00030577,0.0084543,-0.00043856,0,0,0.050494,-0.021186,0,-0.0022805,0,0,0,0.027882,0.00029875,0.0084543,-0.91097,0.012212,0.024544,4.8636e-07,0.86,0.78,0
0.043956,-0.0061581,0.027873,0.00037413,0.0084742,-0.00038394,0,0,0.050437,-0.02106,0,-0.0019965,0,0,0,0.027879,0.00036871,0.0084742,-0.79961,0.01224,0.024485,4.8481e-07,0.88,0.78,0
0.044965,-0.0062087,0.027874,0.00042889,0.008491,-0.00032453,0,0,0.050397,-0.020962,0,-0.0016875,0,0,0,0.027878,0.00042498,0.008491,-0.67726,0.012265,0.02444,4.8371e-07,0.9,0.78,0
0.045972,-0.0062509,0.027878,0.00047124,0.0085048,-0.000262,0,0,0.05037,-0.020887,0,-0.0013624,0,0,0,0.027881,0.00046866,0.0085048,-0.54759,0.012285,0.024407,4.8297e-07,0.92,0.78,0
0.046979,-0.0062841,0.027882,0.00050249,0.0085154,-0.00019759,0,0,0.050354,-0.020834,0,-0.0010275,0,0,0,0.027884,0.00050098,0.0085154,-0.41341,0.0123,0.024384,4.8251e-07,0.94,0.78,0
0.047986,-0.0063081,0.027886,0.00052382,0.008523,-0.00013214,0,0,0.050344,-0.020798,0,-0.00068713,0,0,0,0.027887,0.00052311,0.008523,-0.27666,0.012311,0.024369,4.8224e-07,0.96,0.78,0
0.048993,-0.0063226,0.027889,0.00053621,0.0085275,-7.7833e-05,0,0,0.05034,-0.020777,0,-0.00040473,0,0,0,0.027889,0.00053595,0.0085275,-0.16303,0.012318,0.024361,4.8211e-07,0.98,0.78,0
0.049497,-0.0063274,0.02789,0.00054027,0.0085291,-5.6431e-05,0,0,0.050338,-0.020771,0,-0.00029344,0,0,0,0.02789,0.00054015,0.0085291,-0.11822,0.01232,0.024359,4.8207e-07,1,0.78,0
0.00040507,-0.00025812,0.027222,0.011152,0.011512,-0.004948,0,0,0.040845,-0.00093609,0,-0.02573,0,0,0,0.028626,0.0097477,0.011512,-15.812,0.016629,0.018063,2.9291e-07,0,0.8,0
0.00081691,-0.00051587,0.027287,0.010649,0.011381,-0.0049176,0,0,0.041355,-0.0019026,0,-0.025572,0,0,0,0.028636,0.0092991,0.011381,-15.309,0.016439,0.018389,3.0552e-07,0.02,0.8,0
0.0016542,-0.001029,0.027519,0.0096643,0.011155,-0.0048211,0,0,0.042547,-0.003876,0,-0.02507,0,0,0,0.028744,0.0084397,0.011155,-14.206,0.016113,0.019095,3.3341e-07,0.04,0.8,0
0.0025188,-0.0015343,0.027843,0.0086977,0.010962,-0.0046473,0,0,0.04389,-0.0058878,0,-0.024166,0,0,0,0.028918,0.0076229,0.010962,-12.969,0.015834,0.01984,3.6311e-07,0.06,0.8,0
0.0034098,-0.002025,0.028135,0.0077418,0.010763,-0.0043936,0,0,0.045168,-0.0078555,0,-0.022847,0,0,0,0.029048,0.006829,0.010763,-11.675,0.015547,0.020539,3.905e-07,0.08,0.8,0
0.0043255,-0.0024947,0.028383,0.0068302,0.010564,-0.004071,0,0,0.046329,-0.0097075,0,-0.021169,0,0,0,0.029132,0.0060805,0.010564,-10.366,0.015259,0.021171,4.1456e-07,0.1,0.8,0
0.005263,-0.0029379,0.028577,0.0059871,0.010369,-0.0036967,0,0,0.04734,-0.011393,0,-0.019223,0,0,0,0.029172,0.0053915,0.010369,-9.0771,0.014978,0.021726,4.3477e-07,0.12,0.8,0
0.0062191,-0.0033503,0.028715,0.0052259,0.010182,-0.0032896,0,0,0.048185,-0.012887,0,-0.017106,0,0,0,0.029173,0.0047684,0.010182,-7.8368,0.014708,0.022199,4.5106e-07,0.14,0.8,0
0.0071904,-0.0037289,0.028801,0.0045509,0.010006,-0.0028677,0,0,0.048868,-0.014182,0,-0.014912,0,0,0,0.02914,0.0042115,0.010006,-6.6643,0.014452,0.022597,4.6369e-07,0.16,0.8,0
0.0081738,-0.0040718,0.02884,0.0039594,0.0098398,-0.002446,0,0,0.0494,-0.015289,0,-0.012719,0,0,0,0.029082,0.0037169,0.0098398,-5.5707,0.014213,0.022926,4.7314e-07,0.18,0.8,0
0.0091664,-0.0043784,0.028841,0.0034442,0.0096854,-0.0020357,0,0,0.049803,-0.016227,0,-0.010586,0,0,0,0.029006,0.0032783,0.0096854,-4.5609,0.01399,0.023199,4.7998e-07,0.2,0.8,0
0.010166,-0.0046489,0.028812,0.002996,0.0095423,-0.0016444,0,0,0.0501,-0.01702,0,-0.008551,0,0,0,0.028919,0.0028885,0.0095423,-3.6357,0.013783,0.023424,4.8481e-07,0.22,0.8,0
0.01117,-0.0048842,0.028762,0.0026049,0.00941,-0.0012771,0,0,0.050315,-0.017693,0,-0.0066411,0,0,0,0.028827,0.00254,0.00941,-2.7931,0.013592,0.023614,4.8816e-07,0.24,0.8,0
0.012178,-0.0050857,0.028698,0.0022608,0.0092878,-0.00093669,0,0,0.050468,-0.01827,0,-0.0048708,0,0,0,0.028734,0.0022254,0.0092878,-2.0302,0.013416,0.023778,4.9053e-07,0.26,0.8,0
0.013189,-0.0052551,0.028628,0.0019544,0.0091748,-0.0006246,0,0,0.050579,-0.018773,0,-0.0032479,0,0,0,0.028645,0.001938,0.0091748,-1.3436,0.013252,0.023924,4.9232e-07,0.28,0.8,0
0.014202,-0.0053945,0.028556,0.0016774,0.0090702,-0.00034166,0,0,0.050664,-0.019221,0,-0.0017766,0,0,0,0.028562,0.0016716,0.0090702,-0.73051,0.013101,0.02406,4.9387e-07,0.3,0.8,0
0.015216,-0.005506,0.028488,0.0014224,0.008973,-8.8343e-05,0,0,0.050738,-0.019632,0,-0.00045939,0,0,0,0.028489,0.001421,0.008973,-0.189,0.012961,0.024193,4.9544e-07,0.32,0.8,0
0.016231,-0.0055923,0.028425,0.0011834,0.0088825,0.00013487,0,0,0.05081,-0.020018,0,0.00070131,0,0,0,0.028426,0.0011819,0.0088825,0.28201,0.01283,0.024326,4.9724e-07,0.34,0.8,0
0.017248,-0.005656,0.028371,0.00095565,0.008798,0.00032737,0,0,0.05089,-0.02039,0,0.0017023,0,0,0,0.028376,0.00095113,0.008798,0.6827,0.012708,0.024464,4.9938e-07,0.36,0.8,0
0.018267,-0.0056998,0.028327,0.00073577,0.0087189,0.00048837,0,0,0.050982,-0.020756,0,0.0025395,0,0,0,0.028336,0.00072673,0.0087189,1.0127,0.012594,0.024607,5.0193e-07,0.38,0.8,0
0.019287,-0.0057267,0.028295,0.00052189,0.0086449,0.00061699,0,0,0.051089,-0.02112,0,0.0032083,0,0,0,0.028309,0.00050796,0.0086449,1.2712,0.012487,0.024756,5.0489e-07,0.4,0.8,0
0.02031,-0.0057398,0.028272,0.00031361,0.0085758,0.00071238,0,0,0.051211,-0.021482,0,0.0037044,0,0,0,0.028291,0.00029537,0.0085758,1.4581,0.012387,0.02491,5.0819e-07,0.42,0.8,0
0.021336,-0.0057421,0.02826,0.000112,0.0085116,0.00077398,0,0,0.051346,-0.021839,0,0.0040247,0,0,0,0.028281,9.07e-05,0.0085116,1.5736,0.012295,0.025065,5.1173e-07,0.44,0.8,0
0.022364,-0.005737,0.028256,-8.0593e-05,0.0084526,0.00080176,0,0,0.051488,-0.022186,0,0.0041692,0,0,0,0.028278,-0.00010326,0.0084526,1.6194,0.012209,0.025217,5.1535e-07,0.46,0.8,0
0.023395,-0.0057275,0.028257,-0.00026075,0.008399,0.00079646,0,0,0.051632,-0.022515,0,0.0041416,0,0,0,0.02828,-0.00028299,0.008399,1.5987,0.012132,0.025362,5.1886e-07,0.48,0.8,0
0.024429,-0.0057167,0.028262,-0.00042439,0.0083513,0.00075979,0,0,0.051768,-0.022817,0,0.0039509,0,0,0,0.028282,-0.00044456,0.0083513,1.5164,0.012063,0.025494,5.2208e-07,0.5,0.8,0
0.025466,-0.0057073,0.028267,-0.00056719,0.0083101,0.00069453,0,0,0.051889,-0.023081,0,0.0036116,0,0,0,0.028284,-0.00058403,0.0083101,1.3793,0.012003,0.025607,5.2481e-07,0.52,0.8,0
0.026505,-0.0057019,0.028271,-0.00068506,0.0082757,0.00060452,0,0,0.051987,-0.023298,0,0.0031435,0,0,0,0.028284,-0.00069786,0.0082757,1.1958,0.011954,0.025698,5.2688e-07,0.54,0.8,0
0.027546,-0.0057027,0.02827,-0.00077458,0.0082485,0.00049453,0,0,0.052055,-0.02346,0,0.0025716,0,0,0,0.028278,-0.00078324,0.0082485,0.97549,0.011915,0.025762,5.2816e-07,0.56,0.8,0
0.028587,-0.0057113,0.028262,-0.00083336,0.0082287,0.00037008,0,0,0.052088,-0.023561,0,0.0019244,0,0,0,0.028267,-0.00083837,0.0082287,0.72881,0.011886,0.025796,5.2856e-07,0.58,0.8,0
0.029629,-0.0057289,0.028248,-0.0008603,0.0082163,0.00023711,0,0,0.052082,-0.023599,0,0.001233,0,0,0,0.02825,-0.00086256,0.0082163,0.46677,0.011868,0.0258,5.2804e-07,0.6,0.8,0
0.03067,-0.0057561,0.028226,-0.0008557,0.0082109,0.00010172,0,0,0.052038,-0.023573,0,0.00052897,0,0,0,0.028226,-0.00085639,0.0082109,0.20037,0.01186,0.025774,5.2661e-07,0.62,0.8,0
0.031711,-0.0057931,0.028196,-0.00082132,0.0082123,-3.0189e-05,0,0,0.051957,-0.023487,0,-0.00015698,0,0,0,0.028196,-0.00082166,0.0082123,-0.059756,0.011862,0.02572,5.2431e-07,0.64,0.8,0
0.032749,-0.0058395,0.028159,-0.00076027,0.0082197,-0.00015324,0,0,0.051843,-0.023348,0,-0.00079687,0,0,0,0.02816,-0.00076135,0.0082197,-0.30382,0.011873,0.025639,5.2124e-07,0.66,0.8,0
0.033784,-0.0058945,0.028118,-0.00067684,0.0082323,-0.00026287,0,0,0.051702,-0.023164,0,-0.0013669,0,0,0,0.02812,-0.00067946,0.0082323,-0.52326,0.011891,0.025538,5.1756e-07,0.68,0.8,0
0.034817,-0.0059569,0.028073,-0.00057617,0.0082491,-0.00035556,0,0,0.051543,-0.022946,0,-0.0018489,0,0,0,0.028078,-0.00058074,0.0082491,-0.71117,0.011915,0.025421,5.1342e-07,0.7,0.8,0
0.035846,-0.0060251,0.028028,-0.00046385,0.0082691,-0.00042897,0,0,0.051372,-0.022706,0,-0.0022306,0,0,0,0.028034,-0.00047042,0.0082691,-0.86259,0.011944,0.025294,5.0901e-07,0.72,0.8,0
0.036872,-0.0060975,0.027983,-0.00034552,0.0082912,-0.00048203,0,0,0.051199,-0.022456,0,-0.0025065,0,0,0,0.027991,-0.00035379,0.0082912,-0.97468,0.011976,0.025162,5.0453e-07,0.74,0.8,0
0.037894,-0.0061723,0.027941,-0.0002264,0.0083145,-0.0005148,0,0,0.05103,-0.022206,0,-0.002677,0,0,0,0.027951,-0.00023585,0.0083145,-1.0467,0.01201,0.025032,5.0016e-07,0.76,0.8,0
0.038913,-0.0062478,0.027904,-0.00011103,0.0083379,-0.00052833,0,0,0.050872,-0.021967,0,-0.0027473,0,0,0,0.027914,-0.00012101,0.0083379,-1.08,0.012044,0.024907,4.9604e-07,0.78,0.8,0
0.039929,-0.0063222,0.027872,-2.9858e-06,0.0083608,-0.0005244,0,0,0.05073,-0.021746,0,-0.0027269,0,0,0,0.027882,-1.2864e-05,0.0083608,-1.0773,0.012077,0.024792,4.9231e-07,0.8,0.8,0
0.040942,-0.0063939,0.027846,9.515e-05,0.0083824,-0.00050525,0,0,0.050606,-0.021547,0,-0.0026273,0,0,0,0.027855,8.5934e-05,0.0083824,-1.0426,0.012108,0.02469,4.8903e-07,0.82,0.8,0
0.041953,-0.0064616,0.027826,0.00018179,0.0084024,-0.00047332,0,0,0.050502,-0.021374,0,-0.0024613,0,0,0,0.027834,0.00017366,0.0084024,-0.98047,0.012137,0.024601,4.8625e-07,0.84,0.8,0
0.042962,-0.0065239,0.027812,0.00025622,0.0084204,-0.00043106,0,0,0.050417,-0.021227,0,-0.0022415,0,0,0,0.027818,0.00024944,0.0084204,-0.89586,0.012163,0.024527,4.8397e-07,0.86,0.8,0
0.04397,-0.0065798,0.027802,0.00031843,0.0084361,-0.00038075,0,0,0.050351,-0.021106,0,-0.0019799,0,0,0,0.027807,0.0003131,0.0084361,-0.79343,0.012185,0.024466,4.8216e-07,0.88,0.8,0
0.044976,-0.0066284,0.027796,0.00036889,0.0084495,-0.0003244,0,0,0.050301,-0.02101,0,-0.0016869,0,0,0,0.0278,0.00036499,0.0084495,-0.67743,0.012205,0.024418,4.8078e-07,0.9,0.8,0
0.045982,-0.0066691,0.027793,0.0004084,0.0084604,-0.00026368,0,0,0.050265,-0.020935,0,-0.0013711,0,0,0,0.027796,0.00040579,0.0084604,-0.55153,0.012221,0.024382,4.7976e-07,0.92,0.8,0
0.046987,-0.0067012,0.027792,0.00043788,0.0084689,-0.00019995,0,0,0.05024,-0.020881,0,-0.0010397,0,0,0,0.027793,0.00043634,0.0084689,-0.41872,0.012233,0.024355,4.7906e-07,0.94,0.8,0
0.047991,-0.0067245,0.027792,0.0004582,0.008475,-0.00013426,0,0,0.050223,-0.020844,0,-0.00069813,0,0,0,0.027792,0.00045746,0.008475,-0.28137,0.012242,0.024338,4.786e-07,0.96,0.8,0
0.048996,-0.0067385,0.027792,0.00047008,0.0084786,-7.873e-05,0,0,0.050215,-0.020822,0,-0.00040939,0,0,0,0.027792,0.00046981,0.0084786,-0.16508,0.012247,0.024328,4.7834e-07,0.98,0.8,0
0.049498,-0.0067432,0.027792,0.00047399,0.0084798,-5.643e-05,0,0,0.050212,-0.020815,0,-0.00029343,0,0,0,0.027792,0.00047386,0.0084798,-0.11835,0.012249,0.024324,4.7826e-07,1,0.8,0
0.00040677,-0.00027757,0.027333,0.011155,0.011546,-0.0053192,0,0,0.041045,-0.0010181,0,-0.02766,0,0,0,0.028928,0.0095589,0.011546,-16.663,0.016678,0.018458,3.1036e-07,0,0.82,0
0.00082089,-0.00055544,0.027401,0.010603,0.011401,-0.0052855,0,0,0.0416,-0.0020754,0,-0.027485,0,0,0,0.028932,0.0090728,0.011401,-16.107,0.016469,0.018807,3.24e-07,0.02,0.82,0
0.001664,-0.0011097,0.027649,0.0095204,0.011151,-0.0051762,0,0,0.042895,-0.0042389,0,-0.026916,0,0,0,0.02903,0.0081396,0.011151,-14.889,0.016107,0.019563,3.5409e-07,0.04,0.82,0
0.0025367,-0.0016569,0.027989,0.0084561,0.010934,-0.0049722,0,0,0.044345,-0.0064416,0,-0.025855,0,0,0,0.02919,0.0072556,0.010934,-13.515,0.015793,0.020349,3.8558e-07,0.06,0.82,0
0.0034378,-0.0021884,0.028287,0.007414,0.01071,-0.0046692,0,0,0.0457,-0.0085706,0,-0.02428,0,0,0,0.029292,0.0064092,0.01071,-12.074,0.015471,0.021067,4.1348e-07,0.08,0.82,0
0.0043647,-0.0026963,0.028527,0.0064373,0.010489,-0.0042856,0,0,0.046898,-0.010535,0,-0.022285,0,0,0,0.029337,0.0056273,0.010489,-10.624,0.015151,0.021693,4.3673e-07,0.1,0.82,0
0.0053137,-0.0031739,0.028701,0.0055536,0.010276,-0.0038466,0,0,0.047903,-0.012279,0,-0.020002,0,0,0,0.02933,0.0049239,0.010276,-9.2094,0.014843,0.022221,4.5503e-07,0.12,0.82,0
0.0062808,-0.0036164,0.028809,0.0047747,0.010075,-0.0033785,0,0,0.048707,-0.013781,0,-0.017568,0,0,0,0.029281,0.0043023,0.010075,-7.8653,0.014553,0.022652,4.6864e-07,0.14,0.82,0
0.007262,-0.0040207,0.028858,0.0041003,0.0098874,-0.0029039,0,0,0.049323,-0.015047,0,-0.0151,0,0,0,0.0292,0.0037586,0.0098874,-6.6119,0.014282,0.022998,4.782e-07,0.16,0.82,0
0.0082537,-0.0043853,0.028859,0.0035225,0.0097144,-0.0024398,0,0,0.049775,-0.016099,0,-0.012687,0,0,0,0.029096,0.0032849,0.0097144,-5.459,0.014032,0.023273,4.8454e-07,0.18,0.82,0
0.009253,-0.0047102,0.028823,0.0030297,0.0095557,-0.0019976,0,0,0.050094,-0.016968,0,-0.010388,0,0,0,0.028981,0.0028718,0.0095557,-4.409,0.013803,0.023492,4.8844e-07,0.2,0.82,0
0.010258,-0.0049959,0.028761,0.002609,0.0094111,-0.0015845,0,0,0.050311,-0.017685,0,-0.0082393,0,0,0,0.02886,0.0025099,0.0094111,-3.4595,0.013594,0.023668,4.9064e-07,0.22,0.82,0
0.011265,-0.005244,0.028684,0.0022479,0.0092797,-0.0012039,0,0,0.050452,-0.018283,0,-0.0062601,0,0,0,0.028742,0.0021904,0.0092797,-2.6058,0.013404,0.023812,4.9175e-07,0.24,0.82,0
0.012276,-0.0054564,0.0286,0.0019348,0.0091604,-0.00085717,0,0,0.050543,-0.018787,0,-0.0044573,0,0,0,0.02863,0.001905,0.0091604,-1.8423,0.013232,0.023937,4.9226e-07,0.26,0.82,0
0.013287,-0.0056352,0.028514,0.0016597,0.0090522,-0.00054455,0,0,0.050602,-0.019221,0,-0.0028316,0,0,0,0.028527,0.0016468,0.0090522,-1.1635,0.013075,0.024049,4.9255e-07,0.28,0.82,0
0.0143,-0.0057829,0.028433,0.0014137,0.0089539,-0.00026553,0,0,0.050645,-0.019605,0,-0.0013807,0,0,0,0.028437,0.0014097,0.0089539,-0.56486,0.012933,0.024155,4.929e-07,0.3,0.82,0
0.015313,-0.0059021,0.028358,0.0011897,0.0088644,-1.9503e-05,0,0,0.050684,-0.019954,0,-0.00010142,0,0,0,0.02836,0.0011886,0.0088644,-0.042648,0.012804,0.024262,4.9353e-07,0.32,0.82,0
0.016327,-0.0059956,0.028294,0.00098165,0.0087828,0.00019402,0,0,0.05073,-0.020283,0,0.0010089,0,0,0,0.028296,0.0009795,0.0087828,0.40575,0.012686,0.024371,4.9457e-07,0.34,0.82,0
0.017342,-0.0060661,0.028242,0.00078517,0.008708,0.00037533,0,0,0.050787,-0.020599,0,0.0019517,0,0,0,0.028247,0.00077951,0.008708,0.78203,0.012578,0.024486,4.9608e-07,0.36,0.82,0
0.018359,-0.0061167,0.028201,0.00059708,0.0086395,0.00052446,0,0,0.05086,-0.02091,0,0.0027272,0,0,0,0.028211,0.00058679,0.0086395,1.0873,0.012479,0.024607,4.981e-07,0.38,0.82,0
0.019377,-0.0061503,0.028173,0.00041558,0.0085766,0.00064134,0,0,0.050951,-0.021219,0,0.0033349,0,0,0,0.028188,0.00040059,0.0085766,1.3223,0.012388,0.024735,5.0057e-07,0.4,0.82,0
0.020397,-0.00617,0.028156,0.00024016,0.0085189,0.00072587,0,0,0.051057,-0.021525,0,0.0037745,0,0,0,0.028175,0.00022122,0.0085189,1.4881,0.012305,0.024866,5.0342e-07,0.42,0.82,0
0.021419,-0.006179,0.028149,7.1535e-05,0.0084662,0.00077819,0,0,0.051175,-0.021826,0,0.0040466,0,0,0,0.028171,4.9963e-05,0.0084662,1.5862,0.012229,0.024999,5.0654e-07,0.44,0.82,0
0.022444,-0.0061802,0.02815,-8.8544e-05,0.0084185,0.00079883,0,0,0.051302,-0.022118,0,0.0041539,0,0,0,0.028173,-0.00011113,0.0084185,1.6191,0.01216,0.025129,5.0976e-07,0.46,0.82,0
0.023471,-0.0061767,0.028157,-0.00023748,0.0083758,0.00078896,0,0,0.051431,-0.022394,0,0.0041026,0,0,0,0.028179,-0.0002594,0.0083758,1.5905,0.012098,0.025253,5.1291e-07,0.48,0.82,0
0.024501,-0.0061714,0.028166,-0.00037214,0.0083383,0.00075048,0,0,0.051553,-0.022647,0,0.0039025,0,0,0,0.028186,-0.00039192,0.0083383,1.5055,0.012044,0.025366,5.1583e-07,0.5,0.82,0
0.025533,-0.0061668,0.028177,-0.00048922,0.0083062,0.00068617,0,0,0.051663,-0.022868,0,0.0035681,0,0,0,0.028193,-0.00050574,0.0083062,1.3707,0.011998,0.025463,5.1834e-07,0.52,0.82,0
0.026567,-0.0061654,0.028185,-0.00058556,0.0082797,0.00059962,0,0,0.051753,-0.02305,0,0.003118,0,0,0,0.028197,-0.00059823,0.0082797,1.1937,0.01196,0.025541,5.2028e-07,0.54,0.82,0
0.027603,-0.0061692,0.028188,-0.00065855,0.008259,0.00049518,0,0,0.051817,-0.023186,0,0.0025749,0,0,0,0.028197,-0.00066727,0.008259,0.98335,0.01193,0.025597,5.2155e-07,0.56,0.82,0
0.02864,-0.0061796,0.028186,-0.00070633,0.008244,0.00037778,0,0,0.05185,-0.023271,0,0.0019644,0,0,0,0.028191,-0.00071153,0.008244,0.74914,0.011908,0.025627,5.2205e-07,0.58,0.82,0
0.029677,-0.0061979,0.028177,-0.00072807,0.0082347,0.0002527,0,0,0.05185,-0.023303,0,0.0013141,0,0,0,0.028179,-0.00073057,0.0082347,0.50092,0.011895,0.025632,5.2173e-07,0.6,0.82,0
0.030714,-0.0062247,0.02816,-0.00072406,0.0082308,0.00012534,0,0,0.051816,-0.023283,0,0.00065175,0,0,0,0.028161,-0.00072489,0.0082308,0.24859,0.011889,0.025611,5.206e-07,0.62,0.82,0
0.03175,-0.0062601,0.028136,-0.00069569,0.008232,8.8849e-07,0,0,0.051749,-0.023212,0,4.6197e-06,0,0,0,0.028136,-0.00069596,0.008232,0.0016624,0.011891,0.025565,5.187e-07,0.64,0.82,0
0.032784,-0.006304,0.028104,-0.00064547,0.0082377,-0.00011588,0,0,0.051653,-0.023096,0,-0.00060258,0,0,0,0.028105,-0.00064618,0.0082377,-0.23109,0.011899,0.025498,5.161e-07,0.66,0.82,0
0.033816,-0.0063556,0.028068,-0.00057679,0.0082472,-0.00022089,0,0,0.051533,-0.022942,0,-0.0011486,0,0,0,0.028069,-0.00057869,0.0082472,-0.44199,0.011913,0.025412,5.1293e-07,0.68,0.82,0
0.034845,-0.0064139,0.028027,-0.0004937,0.00826,-0.00031094,0,0,0.051394,-0.02276,0,-0.0016169,0,0,0,0.02803,-0.00049725,0.00826,-0.62474,0.011931,0.025312,5.0931e-07,0.7,0.82,0
0.035872,-0.0064777,0.027984,-0.00040066,0.008275,-0.00038382,0,0,0.051244,-0.022557,0,-0.0019959,0,0,0,0.027989,-0.00040596,0.008275,-0.77472,0.011953,0.025202,5.054e-07,0.72,0.82,0
0.036895,-0.0065455,0.027941,-0.00030212,0.0082917,-0.00043835,0,0,0.051088,-0.022344,0,-0.0022794,0,0,0,0.027948,-0.000309,0.0082917,-0.88907,0.011977,0.025088,5.0138e-07,0.74,0.82,0
0.037915,-0.0066157,0.027899,-0.00020232,0.0083091,-0.0004743,0,0,0.050935,-0.02213,0,-0.0024663,0,0,0,0.027908,-0.00021037,0.0083091,-0.9667,0.012002,0.024973,4.9738e-07,0.76,0.82,0
0.038932,-0.0066867,0.027861,-0.00010494,0.0083267,-0.00049231,0,0,0.050788,-0.021922,0,-0.00256,0,0,0,0.027869,-0.00011363,0.0083267,-1.0082,0.012027,0.024862,4.9354e-07,0.78,0.82,0
0.039947,-0.006757,0.027826,-1.3003e-05,0.0083439,-0.00049367,0,0,0.050653,-0.021728,0,-0.0025671,0,0,0,0.027835,-2.1774e-05,0.0083439,-1.0155,0.012052,0.024757,4.8998e-07,0.8,0.82,0
0.040959,-0.006825,0.027796,7.1253e-05,0.0083602,-0.00048015,0,0,0.050533,-0.021551,0,-0.0024968,0,0,0,0.027804,6.292e-05,0.0083602,-0.99177,0.012076,0.024663,4.8677e-07,0.82,0.82,0
0.041968,-0.0068893,0.027771,0.00014635,0.0083751,-0.00045374,0,0,0.050429,-0.021395,0,-0.0023595,0,0,0,0.027778,0.00013887,0.0083751,-0.94064,0.012097,0.024579,4.8397e-07,0.84,0.82,0
0.042976,-0.0069488,0.027751,0.0002115,0.0083886,-0.00041655,0,0,0.050341,-0.02126,0,-0.0021661,0,0,0,0.027757,0.00020516,0.0083886,-0.86624,0.012117,0.024507,4.8159e-07,0.86,0.82,0
0.043982,-0.0070023,0.027735,0.00026649,0.0084004,-0.0003706,0,0,0.050269,-0.021148,0,-0.0019271,0,0,0,0.02774,0.00026145,0.0084004,-0.7727,0.012134,0.024447,4.7963e-07,0.88,0.82,0
0.044986,-0.0070491,0.027723,0.00031155,0.0084104,-0.00031775,0,0,0.050213,-0.021057,0,-0.0016523,0,0,0,0.027727,0.00030781,0.0084104,-0.66393,0.012148,0.024398,4.7807e-07,0.9,0.82,0
0.04599,-0.0070883,0.027715,0.00034716,0.0084185,-0.00025967,0,0,0.05017,-0.020986,0,-0.0013503,0,0,0,0.027717,0.00034463,0.0084185,-0.54347,0.01216,0.024361,4.7686e-07,0.92,0.82,0
0.046993,-0.0071193,0.027709,0.00037396,0.0084249,-0.00019775,0,0,0.050139,-0.020932,0,-0.0010283,0,0,0,0.02771,0.00037245,0.0084249,-0.4144,0.012169,0.024332,4.7598e-07,0.94,0.82,0
0.047996,-0.0071418,0.027705,0.00039256,0.0084294,-0.0001332,0,0,0.050117,-0.020896,0,-0.00069262,0,0,0,0.027706,0.00039183,0.0084294,-0.27936,0.012176,0.024313,4.7538e-07,0.96,0.82,0
0.048998,-0.0071555,0.027703,0.00040349,0.008432,-7.7988e-05,0,0,0.050105,-0.020874,0,-0.00040554,0,0,0,0.027704,0.00040322,0.008432,-0.16366,0.01218,0.024302,4.7504e-07,0.98,0.82,0
0.049499,-0.00716,0.027703,0.00040709,0.0084329,-5.5584e-05,0,0,0.050101,-0.020867,0,-0.00028904,0,0,0,0.027703,0.00040697,0.0084329,-0.11667,0.012181,0.024298,4.7492e-07,1,0.82,0
0.00040957,-0.00029885,0.027517,0.011176,0.011608,-0.0057241,0,0,0.041363,-0.0011235,0,-0.029765,0,0,0,0.029326,0.0093661,0.011608,-17.506,0.016767,0.018942,3.3261e-07,0,0.84,0
0.00082727,-0.00059888,0.02759,0.010561,0.011445,-0.0056852,0,0,0.041976,-0.0022985,0,-0.029563,0,0,0,0.029321,0.0088311,0.011445,-16.885,0.016532,0.01932,3.4757e-07,0.02,0.84,0
0.0016791,-0.0011986,0.027853,0.0093505,0.011161,-0.0055561,0,0,0.0434,-0.0047078,0,-0.028892,0,0,0,0.029402,0.0078018,0.011161,-15.523,0.016122,0.020136,3.8041e-07,0.04,0.84,0
0.0025633,-0.0017919,0.028209,0.0081613,0.010911,-0.0053084,0,0,0.044975,-0.0071495,0,-0.027604,0,0,0,0.029537,0.0068329,0.010911,-13.981,0.01576,0.020969,4.138e-07,0.06,0.84,0
0.003478,-0.0023678,0.028505,0.0070157,0.010656,-0.004938,0,0,0.046408,-0.0094657,0,-0.025678,0,0,0,0.029596,0.0059255,0.010656,-12.367,0.015392,0.021698,4.4166e-07,0.08,0.84,0
0.0044196,-0.0029161,0.028725,0.0059689,0.010408,-0.0044754,0,0,0.047623,-0.011542,0,-0.023272,0,0,0,0.029583,0.0051109,0.010408,-10.758,0.015034,0.022302,4.6304e-07,0.1,0.84,0
0.0053829,-0.0034291,0.028861,0.0050497,0.010173,-0.0039581,0,0,0.048588,-0.013321,0,-0.020582,0,0,0,0.02951,0.0044003,0.010173,-9.2127,0.014695,0.022781,4.7807e-07,0.12,0.84,0
0.0063631,-0.0039016,0.028921,0.004264,0.0099554,-0.0034214,0,0,0.04931,-0.014798,0,-0.017791,0,0,0,0.029394,0.0037904,0.0099554,-7.7689,0.01438,0.023147,4.8765e-07,0.14,0.84,0
0.0073553,-0.0043307,0.028916,0.0036034,0.009756,-0.002892,0,0,0.049817,-0.015997,0,-0.015038,0,0,0,0.029249,0.0032706,0.009756,-6.4457,0.014092,0.02342,4.9298e-07,0.16,0.84,0
0.0083558,-0.0047157,0.028865,0.0030523,0.0095752,-0.002388,0,0,0.050153,-0.016959,0,-0.012418,0,0,0,0.029089,0.0028278,0.0095752,-5.2489,0.013831,0.023623,4.9526e-07,0.18,0.84,0
0.0093615,-0.0050571,0.028782,0.0025933,0.0094125,-0.0019196,0,0,0.05036,-0.01773,0,-0.0099821,0,0,0,0.028926,0.0024489,0.0094125,-4.1756,0.013596,0.023774,4.9555e-07,0.2,0.84,0
0.01037,-0.0053563,0.02868,0.0022096,0.009267,-0.0014916,0,0,0.050475,-0.018349,0,-0.0077561,0,0,0,0.028768,0.0021222,0.009267,-3.2189,0.013386,0.023889,4.9467e-07,0.22,0.84,0
0.01138,-0.0056155,0.028572,0.001886,0.0091373,-0.001105,0,0,0.050529,-0.018853,0,-0.005746,0,0,0,0.02862,0.0018375,0.0091373,-2.37,0.013198,0.023981,4.9325e-07,0.24,0.84,0
0.012391,-0.0058372,0.028464,0.0016099,0.009022,-0.00075919,0,0,0.050548,-0.019272,0,-0.0039478,0,0,0,0.028487,0.0015862,0.009022,-1.6203,0.013032,0.024061,4.9175e-07,0.26,0.84,0
0.013402,-0.0060239,0.028362,0.0013704,0.0089197,-0.00045245,0,0,0.05055,-0.019628,0,-0.0023528,0,0,0,0.028371,0.0013611,0.0089197,-0.96171,0.012884,0.024136,4.9047e-07,0.28,0.84,0
0.014413,-0.0061786,0.02827,0.0011587,0.0088287,-0.00018286,0,0,0.050548,-0.019942,0,-0.00095088,0,0,0,0.028273,0.0011562,0.0088287,-0.3877,0.012753,0.02421,4.8963e-07,0.3,0.84,0
0.015424,-0.0063042,0.028192,0.00096785,0.0087479,5.1386e-05,0,0,0.050554,-0.020228,0,0.00026721,0,0,0,0.028193,0.00096679,0.0087479,0.10712,0.012636,0.024289,4.8936e-07,0.32,0.84,0
0.016436,-0.0064037,0.028128,0.00079219,0.008676,0.00025176,0,0,0.050574,-0.020498,0,0.0013092,0,0,0,0.028131,0.0007892,0.008676,0.52681,0.012532,0.024375,4.8971e-07,0.34,0.84,0
0.017447,-0.00648,0.028078,0.00062757,0.0086117,0.00041938,0,0,0.050613,-0.020759,0,0.0021808,0,0,0,0.028085,0.00062073,0.0086117,0.87439,0.012439,0.024468,4.907e-07,0.36,0.84,0
0.01846,-0.0065362,0.028043,0.00047112,0.0085542,0.00055502,0,0,0.050671,-0.021016,0,0.0028861,0,0,0,0.028054,0.00045968,0.0085542,1.1522,0.012356,0.024569,4.923e-07,0.38,0.84,0
0.019474,-0.0065754,0.028021,0.00032114,0.0085028,0.00065924,0,0,0.050749,-0.021272,0,0.0034281,0,0,0,0.028037,0.00030532,0.0085028,1.3621,0.012282,0.024677,4.9443e-07,0.4,0.84,0
0.02049,-0.0066007,0.028012,0.00017708,0.0084567,0.00073257,0,0,0.050844,-0.021527,0,0.0038093,0,0,0,0.028031,0.00015776,0.0084567,1.5063,0.012215,0.024789,4.9699e-07,0.42,0.84,0
0.021508,-0.0066152,0.028013,3.9373e-05,0.0084157,0.00077563,0,0,0.050953,-0.021778,0,0.0040333,0,0,0,0.028034,1.7871e-05,0.0084157,1.5869,0.012156,0.024903,4.9984e-07,0.44,0.84,0
0.022528,-0.0066217,0.028022,-9.0692e-05,0.0083793,0.00078937,0,0,0.05107,-0.022022,0,0.0041047,0,0,0,0.028044,-0.00011284,0.0083793,1.6071,0.012103,0.025016,5.0284e-07,0.46,0.84,0
0.023551,-0.0066233,0.028036,-0.00021116,0.0083474,0.00077523,0,0,0.05119,-0.022252,0,0.0040312,0,0,0,0.028057,-0.00023244,0.0083474,1.571,0.012057,0.025123,5.0582e-07,0.48,0.84,0
0.024576,-0.0066226,0.028053,-0.00031967,0.0083199,0.00073521,0,0,0.051305,-0.022463,0,0.0038231,0,0,0,0.028072,-0.00033876,0.0083199,1.4835,0.012018,0.025222,5.0861e-07,0.5,0.84,0
0.025603,-0.006622,0.02807,-0.00041368,0.0082968,0.00067201,0,0,0.051409,-0.022647,0,0.0034944,0,0,0,0.028086,-0.00042964,0.0082968,1.3509,0.011984,0.025307,5.1106e-07,0.52,0.84,0
0.026632,-0.0066239,0.028084,-0.00049082,0.0082781,0.00058897,0,0,0.051497,-0.022799,0,0.0030626,0,0,0,0.028097,-0.00050311,0.0082781,1.1804,0.011957,0.025376,5.1303e-07,0.54,0.84,0
0.027663,-0.0066301,0.028095,-0.00054907,0.0082638,0.00049003,0,0,0.051561,-0.022913,0,0.0025481,0,0,0,0.028104,-0.00055765,0.0082638,0.97995,0.011937,0.025425,5.144e-07,0.56,0.84,0
0.028694,-0.0066421,0.028099,-0.00058704,0.0082537,0.00037959,0,0,0.051599,-0.022986,0,0.0019739,0,0,0,0.028105,-0.0005923,0.0082537,0.75809,0.011922,0.025454,5.151e-07,0.58,0.84,0
0.029727,-0.006661,0.028097,-0.0006041,0.0082477,0.00026234,0,0,0.051607,-0.023015,0,0.0013642,0,0,0,0.028099,-0.00060675,0.0082477,0.52369,0.011913,0.025461,5.1507e-07,0.6,0.84,0
0.030759,-0.0066874,0.028086,-0.00060049,0.0082457,0.00014301,0,0,0.051585,-0.023,0,0.00074366,0,0,0,0.028087,-0.00060145,0.0082457,0.2856,0.01191,0.025446,5.143e-07,0.62,0.84,0
0.03179,-0.0067216,0.028068,-0.00057733,0.0082472,2.6198e-05,0,0,0.051534,-0.022944,0,0.00013623,0,0,0,0.028068,-0.00057759,0.0082472,0.052325,0.011913,0.02541,5.1284e-07,0.64,0.84,0
0.03282,-0.0067634,0.028043,-0.00053656,0.0082518,-8.3893e-05,0,0,0.051456,-0.02285,0,-0.00043624,0,0,0,0.028043,-0.00053702,0.0082518,-0.1683,0.011919,0.025355,5.1072e-07,0.66,0.84,0
0.033848,-0.0068122,0.028011,-0.00048085,0.0082591,-0.00018363,0,0,0.051355,-0.022724,0,-0.00095486,0,0,0,0.028012,-0.00048221,0.0082591,-0.36938,0.01193,0.025284,5.0806e-07,0.68,0.84,0
0.034874,-0.0068672,0.027975,-0.00041337,0.0082684,-0.0002701,0,0,0.051237,-0.022573,0,-0.0014045,0,0,0,0.027978,-0.00041608,0.0082684,-0.5452,0.011943,0.0252,5.0495e-07,0.7,0.84,0
0.035898,-0.0069273,0.027935,-0.00033758,0.0082794,-0.00034123,0,0,0.051106,-0.022404,0,-0.0017744,0,0,0,0.02794,-0.0003418,0.0082794,-0.69149,0.011959,0.025107,5.0154e-07,0.72,0.84,0
0.036919,-0.0069912,0.027895,-0.000257,0.0082913,-0.0003958,0,0,0.050968,-0.022225,0,-0.0020582,0,0,0,0.0279,-0.00026263,0.0082913,-0.80542,0.011976,0.025008,4.9796e-07,0.74,0.84,0
0.037937,-0.0070575,0.027854,-0.00017498,0.0083036,-0.00043342,0,0,0.05083,-0.022044,0,-0.0022538,0,0,0,0.02786,-0.00018172,0.0083036,-0.88573,0.011994,0.024908,4.9434e-07,0.76,0.84,0
0.038952,-0.0071247,0.027814,-9.4488e-05,0.0083159,-0.0004544,0,0,0.050696,-0.021867,0,-0.0023629,0,0,0,0.027822,-0.00010191,0.0083159,-0.93252,0.012012,0.02481,4.908e-07,0.78,0.84,0
0.039964,-0.0071913,0.027778,-1.8001e-05,0.0083279,-0.0004597,0,0,0.050569,-0.021699,0,-0.0023904,0,0,0,0.027785,-2.5623e-05,0.0083279,-0.94718,0.012029,0.024716,4.8744e-07,0.8,0.84,0
0.040975,-0.007256,0.027744,5.2591e-05,0.0083391,-0.00045067,0,0,0.050454,-0.021545,0,-0.0023435,0,0,0,0.027752,4.5237e-05,0.0083391,-0.93203,0.012045,0.02463,4.8435e-07,0.82,0.84,0
0.041983,-0.0073173,0.027715,0.00011598,0.0083493,-0.00042896,0,0,0.050351,-0.021407,0,-0.0022306,0,0,0,0.027722,0.00010929,0.0083493,-0.89013,0.01206,0.024552,4.8158e-07,0.84,0.84,0
0.042989,-0.0073743,0.02769,0.0001714,0.0083585,-0.00039638,0,0,0.050262,-0.021286,0,-0.0020612,0,0,0,0.027696,0.00016566,0.0083585,-0.82493,0.012073,0.024484,4.7916e-07,0.86,0.84,0
0.043993,-0.0074257,0.027669,0.00021855,0.0083664,-0.00035471,0,0,0.050188,-0.021184,0,-0.0018445,0,0,0,0.027674,0.00021392,0.0083664,-0.74006,0.012085,0.024426,4.7711e-07,0.88,0.84,0
0.044996,-0.0074707,0.027653,0.00025748,0.008373,-0.00030567,0,0,0.050127,-0.0211,0,-0.0015895,0,0,0,0.027656,0.00025401,0.008373,-0.63908,0.012094,0.024379,4.7543e-07,0.9,0.84,0
0.045998,-0.0075085,0.02764,0.00028847,0.0083784,-0.00025086,0,0,0.050079,-0.021034,0,-0.0013045,0,0,0,0.027642,0.0002861,0.0083784,-0.52535,0.012102,0.024341,4.7409e-07,0.92,0.84,0
0.046999,-0.0075385,0.02763,0.00031193,0.0083826,-0.00019169,0,0,0.050043,-0.020984,0,-0.00099681,0,0,0,0.027631,0.00031052,0.0083826,-0.40195,0.012108,0.024312,4.7308e-07,0.94,0.84,0
0.048,-0.0075603,0.027624,0.0003283,0.0083856,-0.00012943,0,0,0.050019,-0.020949,0,-0.00067306,0,0,0,0.027624,0.00032762,0.0083856,-0.27164,0.012112,0.024292,4.7238e-07,0.96,0.84,0
0.049,-0.0075735,0.02762,0.00033796,0.0083873,-7.5861e-05,0,0,0.050004,-0.020928,0,-0.00039448,0,0,0,0.02762,0.00033771,0.0083873,-0.1593,0.012115,0.02428,4.7197e-07,0.98,0.84,0
0.0495,-0.0075779,0.027618,0.00034115,0.0083879,-5.4045e-05,0,0,0.05,-0.020922,0,-0.00028103,0,0,0,0.027619,0.00034104,0.0083879,-0.11352,0.012116,0.024276,4.7184e-07,1,0.84,0
0.00041392,-0.00032251,0.027803,0.011221,0.011707,-0.0061722,0,0,0.041848,-0.0012636,0,-0.032095,0,0,0,0.029852,0.0091714,0.011707,-18.332,0.01691,0.01954,3.6159e-07,0,0.86,0
0.00083697,-0.00064738,0.02788,0.010522,0.011521,-0.006124,0,0,0.042535,-0.0025964,0,-0.031845,0,0,0,0.029832,0.0085708,0.011521,-17.628,0.016641,0.019956,3.7825e-07,0.02,0.86,0
0.0017014,-0.0012981,0.028158,0.0091386,0.011189,-0.0059623,0,0,0.044119,-0.0053309,0,-0.031004,0,0,0,0.029883,0.0074133,0.011189,-16.08,0.016162,0.020845,4.144e-07,0.04,0.86,0
0.0026017,-0.0019429,0.028523,0.0077885,0.010893,-0.0056484,0,0,0.045837,-0.0080729,0,-0.029372,0,0,0,0.029974,0.0063373,0.010893,-14.327,0.015735,0.021724,4.495e-07,0.06,0.86,0
0.0035349,-0.0025671,0.028803,0.0065219,0.010598,-0.0051831,0,0,0.047335,-0.010597,0,-0.026952,0,0,0,0.029962,0.0053626,0.010598,-12.506,0.015308,0.022448,4.7606e-07,0.08,0.86,0
0.0044951,-0.003158,0.028979,0.0054066,0.010316,-0.0046175,0,0,0.048525,-0.012764,0,-0.024011,0,0,0,0.029864,0.0045225,0.010316,-10.721,0.014901,0.023001,4.9362e-07,0.1,0.86,0
0.0054759,-0.0037068,0.029052,0.0044659,0.010056,-0.004007,0,0,0.049392,-0.014533,0,-0.020837,0,0,0,0.0297,0.0038188,0.010056,-9.0447,0.014525,0.023396,5.0331e-07,0.12,0.86,0
0.0064708,-0.0042083,0.029038,0.0036925,0.0098191,-0.0033963,0,0,0.049969,-0.015929,0,-0.017661,0,0,0,0.029494,0.0032363,0.0098191,-7.5141,0.014183,0.023664,5.0701e-07,0.14,0.86,0
0.0074746,-0.0046606,0.028959,0.0030645,0.0096071,-0.0028148,0,0,0.050315,-0.017011,0,-0.014637,0,0,0,0.029269,0.0027547,0.0096071,-6.1415,0.013877,0.023839,5.0667e-07,0.16,0.86,0
0.0084834,-0.0050637,0.028839,0.0025564,0.0094186,-0.0022784,0,0,0.050493,-0.017842,0,-0.011848,0,0,0,0.029041,0.0023545,0.0094186,-4.9239,0.013605,0.02395,5.0392e-07,0.18,0.86,0
0.0094944,-0.0054194,0.028698,0.0021441,0.0092526,-0.0017936,0,0,0.050558,-0.018482,0,-0.0093266,0,0,0,0.028823,0.0020188,0.0092526,-3.8507,0.013365,0.024019,4.9998e-07,0.2,0.86,0
0.010506,-0.0057299,0.02855,0.001807,0.0091072,-0.0013611,0,0,0.050552,-0.018981,0,-0.0070776,0,0,0,0.028623,0.0017342,0.0091072,-2.9086,0.013155,0.024065,4.957e-07,0.22,0.86,0
0.011516,-0.0059982,0.028407,0.001528,0.0089805,-0.00097861,0,0,0.050509,-0.019377,0,-0.0050888,0,0,0,0.028446,0.0014896,0.0089805,-2.084,0.012972,0.0241,4.9164e-07,0.24,0.86,0
0.012526,-0.0062272,0.028275,0.0012936,0.0088706,-0.00064267,0,0,0.050452,-0.0197,0,-0.0033419,0,0,0,0.028293,0.0012761,0.0088706,-1.3648,0.012813,0.024133,4.8814e-07,0.26,0.86,0
0.013535,-0.0064203,0.028159,0.001093,0.0087755,-0.00034949,0,0,0.050396,-0.019975,0,-0.0018174,0,0,0,0.028165,0.0010869,0.0087755,-0.74052,0.012676,0.024169,4.8539e-07,0.28,0.86,0
0.014542,-0.0065806,0.02806,0.00091767,0.0086933,-9.5612e-05,0,0,0.050354,-0.020217,0,-0.00049718,0,0,0,0.028062,0.00091617,0.0086933,-0.20247,0.012557,0.024213,4.835e-07,0.3,0.86,0
0.015549,-0.0067112,0.02798,0.00076104,0.0086224,0.00012191,0,0,0.050331,-0.02044,0,0.00063395,0,0,0,0.027982,0.00075966,0.0086224,0.25607,0.012455,0.024266,4.825e-07,0.32,0.86,0
0.016555,-0.0068155,0.027919,0.00061801,0.0085613,0.00030543,0,0,0.050331,-0.020652,0,0.0015882,0,0,0,0.027923,0.00061403,0.0085613,0.6404,0.012366,0.02433,4.8236e-07,0.34,0.86,0
0.017562,-0.0068965,0.027877,0.00048487,0.0085084,0.00045673,0,0,0.050357,-0.020861,0,0.002375,0,0,0,0.027885,0.0004769,0.0085084,0.95458,0.01229,0.024404,4.8303e-07,0.36,0.86,0
0.018569,-0.0069573,0.02785,0.00035907,0.0084628,0.00057718,0,0,0.050408,-0.02107,0,0.0030013,0,0,0,0.027863,0.00034675,0.0084628,1.2018,0.012224,0.024488,4.8442e-07,0.38,0.86,0
0.019578,-0.0070012,0.027839,0.0002391,0.0084235,0.00066781,0,0,0.050481,-0.021279,0,0.0034726,0,0,0,0.027855,0.00022285,0.0084235,1.3849,0.012167,0.024581,4.8643e-07,0.4,0.86,0
0.020589,-0.0070311,0.027841,0.00012442,0.0083895,0.00072957,0,0,0.050573,-0.021489,0,0.0037937,0,0,0,0.02786,0.00010519,0.0083895,1.5065,0.012118,0.024679,4.8892e-07,0.42,0.86,0
0.021601,-0.0070501,0.027853,1.5256e-05,0.0083604,0.00076342,0,0,0.05068,-0.021697,0,0.0039698,0,0,0,0.027874,-5.675e-06,0.0083604,1.5696,0.012076,0.024779,4.9175e-07,0.44,0.86,0
0.022616,-0.0070611,0.027872,-8.7442e-05,0.0083355,0.00077057,0,0,0.050796,-0.0219,0,0.004007,0,0,0,0.027894,-0.00010867,0.0083355,1.5774,0.01204,0.024879,4.9475e-07,0.46,0.86,0
0.023633,-0.0070668,0.027897,-0.00018223,0.0083145,0.00075257,0,0,0.050915,-0.022091,0,0.0039133,0,0,0,0.027917,-0.00020242,0.0083145,1.5341,0.01201,0.024975,4.9777e-07,0.48,0.86,0
0.024652,-0.0070699,0.027924,-0.00026733,0.0082971,0.00071144,0,0,0.051031,-0.022267,0,0.0036995,0,0,0,0.027942,-0.00028534,0.0082971,1.4447,0.011985,0.025064,5.0064e-07,0.5,0.86,0
0.025674,-0.0070727,0.027951,-0.00034085,0.008283,0.00064972,0,0,0.051136,-0.022422,0,0.0033786,0,0,0,0.027966,-0.00035587,0.008283,1.315,0.011964,0.025141,5.0322e-07,0.52,0.86,0
0.026698,-0.0070774,0.027975,-0.000401,0.0082722,0.0005705,0,0,0.051227,-0.02255,0,0.0029666,0,0,0,0.027986,-0.00041261,0.0082722,1.1514,0.011949,0.025205,5.0538e-07,0.54,0.86,0
0.027723,-0.0070857,0.027994,-0.00044626,0.0082643,0.00047731,0,0,0.051297,-0.022648,0,0.002482,0,0,0,0.028002,-0.00045445,0.0082643,0.96129,0.011937,0.025253,5.07e-07,0.56,0.86,0
0.02875,-0.007099,0.028007,-0.00047559,0.0082593,0.00037404,0,0,0.051343,-0.022711,0,0.001945,0,0,0,0.028012,-0.0004807,0.0082593,0.75231,0.01193,0.025282,5.08e-07,0.58,0.86,0
0.029777,-0.0071185,0.028012,-0.00048852,0.008257,0.00026483,0,0,0.051363,-0.022738,0,0.0013771,0,0,0,0.028015,-0.0004912,0.008257,0.53236,0.011927,0.025293,5.0834e-07,0.6,0.86,0
0.030804,-0.0071447,0.028009,-0.00048525,0.0082571,0.00015384,0,0,0.051355,-0.02273,0,0.00079995,0,0,0,0.02801,-0.0004863,0.0082571,0.30929,0.011927,0.025285,5.08e-07,0.62,0.86,0
0.031831,-0.0071778,0.027998,-0.00046664,0.0082593,4.5079e-05,0,0,0.05132,-0.022687,0,0.00023441,0,0,0,0.027998,-0.00046692,0.0082593,0.09068,0.01193,0.025259,5.0699e-07,0.64,0.86,0
0.032857,-0.007218,0.027979,-0.00043419,0.0082633,-5.7736e-05,0,0,0.05126,-0.022614,0,-0.00030023,0,0,0,0.027979,-0.00043449,0.0082633,-0.11651,0.011936,0.025216,5.0536e-07,0.66,0.86,0
0.033882,-0.0072645,0.027953,-0.00038994,0.0082688,-0.00015139,0,0,0.051178,-0.022513,0,-0.00078721,0,0,0,0.027954,-0.0003909,0.0082688,-0.30611,0.011944,0.025158,5.032e-07,0.68,0.86,0
0.034904,-0.0073168,0.027921,-0.0003363,0.0082754,-0.00023326,0,0,0.051078,-0.02239,0,-0.0012129,0,0,0,0.027923,-0.00033835,0.0082754,-0.47301,0.011953,0.025089,5.0058e-07,0.7,0.86,0
0.035925,-0.0073739,0.027885,-0.00027596,0.0082827,-0.00030143,0,0,0.050966,-0.022252,0,-0.0015674,0,0,0,0.027888,-0.00027928,0.0082827,-0.61326,0.011964,0.025011,4.9763e-07,0.72,0.86,0
0.036943,-0.0074345,0.027846,-0.00021162,0.0082903,-0.00035469,0,0,0.050845,-0.022105,0,-0.0018444,0,0,0,0.027851,-0.00021617,0.0082903,-0.72419,0.011975,0.024927,4.9446e-07,0.74,0.86,0
0.037959,-0.0074975,0.027806,-0.00014588,0.008298,-0.00039255,0,0,0.050721,-0.021954,0,-0.0020413,0,0,0,0.027812,-0.00015144,0.008298,-0.80444,0.011986,0.024841,4.9118e-07,0.76,0.86,0
0.038972,-0.0075614,0.027766,-8.1092e-05,0.0083055,-0.00041512,0,0,0.050598,-0.021805,0,-0.0021586,0,0,0,0.027772,-8.7312e-05,0.0083055,-0.85383,0.011997,0.024754,4.8792e-07,0.78,0.86,0
0.039982,-0.007625,0.027728,-1.9213e-05,0.0083125,-0.00042308,0,0,0.050479,-0.021662,0,-0.0022,0,0,0,0.027734,-2.5688e-05,0.0083125,-0.8733,0.012007,0.024671,4.8476e-07,0.8,0.86,0
0.040991,-0.0076867,0.027691,3.8209e-05,0.0083189,-0.00041749,0,0,0.050369,-0.02153,0,-0.002171,0,0,0,0.027698,3.1883e-05,0.0083189,-0.86466,0.012016,0.024593,4.8178e-07,0.82,0.86,0
0.041997,-0.0077456,0.027659,9.007e-05,0.0083246,-0.00039972,0,0,0.050268,-0.02141,0,-0.0020786,0,0,0,0.027664,8.4248e-05,0.0083246,-0.83041,0.012024,0.024521,4.7906e-07,0.84,0.86,0
0.043002,-0.0078002,0.027629,0.00013568,0.0083295,-0.0003713,0,0,0.050179,-0.021304,0,-0.0019308,0,0,0,0.027634,0.00013064,0.0083295,-0.77347,0.012031,0.024458,4.7663e-07,0.86,0.86,0
0.044004,-0.0078497,0.027604,0.00017472,0.0083336,-0.0003338,0,0,0.050103,-0.021213,0,-0.0017358,0,0,0,0.027608,0.00017062,0.0083336,-0.69702,0.012037,0.024402,4.7452e-07,0.88,0.86,0
0.045006,-0.0078931,0.027583,0.00020714,0.0083369,-0.00028881,0,0,0.050039,-0.021138,0,-0.0015018,0,0,0,0.027586,0.00020404,0.0083369,-0.60427,0.012042,0.024356,4.7274e-07,0.9,0.86,0
0.046006,-0.0079296,0.027566,0.00023308,0.0083396,-0.00023782,0,0,0.049987,-0.021077,0,-0.0012366,0,0,0,0.027568,0.00023096,0.0083396,-0.49838,0.012046,0.024318,4.713e-07,0.92,0.86,0
0.047005,-0.0079587,0.027552,0.00025283,0.0083416,-0.00018221,0,0,0.049948,-0.021031,0,-0.00094748,0,0,0,0.027554,0.00025155,0.0083416,-0.38232,0.012049,0.02429,4.7019e-07,0.94,0.86,0
0.048004,-0.0079798,0.027543,0.00026666,0.0083429,-0.00012326,0,0,0.04992,-0.020998,0,-0.00064097,0,0,0,0.027544,0.00026603,0.0083429,-0.25887,0.012051,0.024269,4.6941e-07,0.96,0.86,0
0.049002,-0.0079926,0.027538,0.00027484,0.0083437,-7.2511e-05,0,0,0.049904,-0.020979,0,-0.00037706,0,0,0,0.027538,0.00027461,0.0083437,-0.15237,0.012052,0.024257,4.6895e-07,0.98,0.86,0
0.049501,-0.0079969,0.027536,0.00027754,0.008344,-5.191e-05,0,0,0.049899,-0.020973,0,-0.00026993,0,0,0,0.027536,0.00027744,0.008344,-0.10911,0.012052,0.024253,4.6879e-07,1,0.86,0
0.00042052,-0.00034939,0.028236,0.011299,0.01186,-0.0066768,0,0,0.042576,-0.0014599,0,-0.034719,0,0,0,0.030557,0.0089781,0.01186,-19.127,0.017132,0.020295,4.0058e-07,0,0.88,0
0.00085152,-0.00070274,0.028315,0.010479,0.011638,-0.0066112,0,0,0.04336,-0.0030137,0,-0.034378,0,0,0,0.030509,0.0082852,0.011638,-18.309,0.016811,0.020758,4.1937e-07,0.02,0.88,0
0.0017344,-0.0014118,0.028601,0.0088555,0.011237,-0.0063924,0,0,0.045147,-0.0061919,0,-0.033241,0,0,0,0.030504,0.0069522,0.011237,-16.509,0.016231,0.021735,4.5926e-07,0.04,0.88,0
0.0026574,-0.0021149,0.028961,0.0072976,0.010877,-0.0059738,0,0,0.047016,-0.0093077,0,-0.031064,0,0,0,0.030515,0.0057427,0.010877,-14.483,0.015712,0.022651,4.9502e-07,0.06,0.88,0
0.003615,-0.0027917,0.029196,0.0058987,0.010528,-0.0053725,0,0,0.048536,-0.012037,0,-0.027937,0,0,0,0.030392,0.0047027,0.010528,-12.415,0.015208,0.023332,5.1761e-07,0.08,0.88,0
0.0045988,-0.0034267,0.029291,0.0047315,0.010207,-0.0046748,0,0,0.049619,-0.014236,0,-0.024309,0,0,0,0.030166,0.0038566,0.010207,-10.446,0.014743,0.023781,5.2803e-07,0.1,0.88,0
0.0055998,-0.0040104,0.02926,0.0037982,0.0099175,-0.0039586,0,0,0.050291,-0.01591,0,-0.020585,0,0,0,0.029874,0.0031841,0.0099175,-8.6532,0.014325,0.024043,5.293e-07,0.12,0.88,0
0.0066105,-0.0045387,0.029137,0.0030663,0.0096609,-0.0032759,0,0,0.050637,-0.017146,0,-0.017035,0,0,0,0.029552,0.0026506,0.0096609,-7.064,0.013955,0.024173,5.2477e-07,0.14,0.88,0
0.0076253,-0.0050111,0.028957,0.0024953,0.0094358,-0.0026531,0,0,0.050756,-0.018045,0,-0.013796,0,0,0,0.029229,0.0022238,0.0094358,-5.6755,0.013629,0.024219,5.1722e-07,0.16,0.88,0
0.0086407,-0.0054294,0.028753,0.0020483,0.0092403,-0.0020993,0,0,0.050732,-0.018699,0,-0.010916,0,0,0,0.028923,0.001878,0.0092403,-4.4709,0.013347,0.024219,5.0858e-07,0.18,0.88,0
0.0096546,-0.0057964,0.028545,0.0016954,0.0090721,-0.0016137,0,0,0.05063,-0.01918,0,-0.0083912,0,0,0,0.028646,0.001594,0.0090721,-3.4288,0.013104,0.024197,5.0006e-07,0.2,0.88,0
0.010666,-0.0061156,0.028349,0.0014133,0.0089286,-0.0011914,0,0,0.050492,-0.01954,0,-0.0061952,0,0,0,0.028405,0.0013571,0.0089286,-2.5284,0.012897,0.024169,4.9234e-07,0.22,0.88,0
0.011674,-0.0063906,0.028172,0.0011843,0.0088068,-0.00082578,0,0,0.050349,-0.019819,0,-0.0042941,0,0,0,0.0282,0.0011563,0.0088068,-1.7512,0.012721,0.024145,4.8579e-07,0.24,0.88,0
0.01268,-0.0066252,0.028019,0.00099478,0.0087042,-0.00051039,0,0,0.050219,-0.020045,0,-0.002654,0,0,0,0.028031,0.00098319,0.0087042,-1.0816,0.012573,0.024132,4.8054e-07,0.26,0.88,0
0.013683,-0.0068229,0.027893,0.00083466,0.0086182,-0.00023942,0,0,0.050114,-0.020237,0,-0.001245,0,0,0,0.027896,0.00083114,0.0086182,-0.50692,0.012449,0.024133,4.7663e-07,0.28,0.88,0
0.014684,-0.0069873,0.027792,0.00069617,0.0085465,-8.0385e-06,0,0,0.050039,-0.020411,0,-4.18e-05,0,0,0,0.027793,0.00069519,0.0085465,-0.017051,0.012345,0.024149,4.74e-07,0.3,0.88,0
0.015685,-0.0071218,0.027717,0.00057344,0.008487,0.00018761,0,0,0.049997,-0.020575,0,0.00097558,0,0,0,0.027719,0.00057148,0.008487,0.39586,0.012259,0.024181,4.7259e-07,0.32,0.88,0
0.016684,-0.0072298,0.027665,0.00046211,0.008438,0.00035052,0,0,0.049989,-0.020737,0,0.0018227,0,0,0,0.027669,0.00045716,0.008438,0.73791,0.012188,0.024229,4.7227e-07,0.34,0.88,0
0.017684,-0.0073144,0.027634,0.00035902,0.0083978,0.00048295,0,0,0.050013,-0.020901,0,0.0025113,0,0,0,0.027642,0.00035021,0.0083978,1.0138,0.01213,0.02429,4.7293e-07,0.36,0.88,0
0.018685,-0.007379,0.027621,0.00026204,0.0083651,0.00058661,0,0,0.050067,-0.021068,0,0.0030504,0,0,0,0.027634,0.00024933,0.0083651,1.2274,0.012083,0.024363,4.7442e-07,0.38,0.88,0
0.019687,-0.0074266,0.027625,0.00016991,0.0083386,0.00066286,0,0,0.050146,-0.021239,0,0.0034469,0,0,0,0.027642,0.00015385,0.0083386,1.3819,0.012045,0.024446,4.766e-07,0.4,0.88,0
0.020691,-0.0074603,0.027643,8.2123e-05,0.0083174,0.00071284,0,0,0.050246,-0.021412,0,0.0037068,0,0,0,0.027661,6.3666e-05,0.0083174,1.4803,0.012014,0.024535,4.7931e-07,0.42,0.88,0
0.021697,-0.0074831,0.02767,-1.1871e-06,0.0083007,0.00073772,0,0,0.050361,-0.021585,0,0.0038361,0,0,0,0.02769,-2.086e-05,0.0083007,1.5258,0.01199,0.024628,4.8239e-07,0.44,0.88,0
0.022705,-0.0074977,0.027705,-7.9351e-05,0.0082877,0.00073877,0,0,0.050485,-0.021754,0,0.0038416,0,0,0,0.027725,-9.9007e-05,0.0082877,1.5218,0.011971,0.024722,4.8567e-07,0.46,0.88,0
0.023716,-0.0075069,0.027744,-0.00015131,0.0082779,0.00071758,0,0,0.050613,-0.021916,0,0.0037314,0,0,0,0.027763,-0.0001698,0.0082779,1.4724,0.011957,0.024812,4.8898e-07,0.48,0.88,0
0.02473,-0.0075132,0.027785,-0.00021575,0.0082708,0.00067605,0,0,0.050737,-0.022065,0,0.0035155,0,0,0,0.027802,-0.00023214,0.0082708,1.3822,0.011947,0.024896,4.9217e-07,0.5,0.88,0
0.025746,-0.0075189,0.027825,-0.00027129,0.008266,0.00061655,0,0,0.050852,-0.022197,0,0.0032061,0,0,0,0.027838,-0.00028493,0.008266,1.2565,0.01194,0.024971,4.9509e-07,0.52,0.88,0
0.026764,-0.0075259,0.027861,-0.0003166,0.0082632,0.00054183,0,0,0.050953,-0.022307,0,0.0028175,0,0,0,0.027871,-0.00032716,0.0082632,1.1012,0.011936,0.025034,4.9762e-07,0.54,0.88,0
0.027784,-0.007536,0.027891,-0.00035056,0.0082621,0.00045502,0,0,0.051035,-0.022393,0,0.0023661,0,0,0,0.027898,-0.00035806,0.0082621,0.92282,0.011934,0.025083,4.9963e-07,0.56,0.88,0
0.028805,-0.0075506,0.027914,-0.00037241,0.0082624,0.00035956,0,0,0.051093,-0.02245,0,0.0018697,0,0,0,0.027918,-0.00037716,0.0082624,0.72814,0.011935,0.025116,5.0106e-07,0.58,0.88,0
0.029827,-0.0075706,0.027928,-0.0003818,0.0082639,0.00025902,0,0,0.051127,-0.022479,0,0.0013469,0,0,0,0.027931,-0.00038436,0.0082639,0.52414,0.011937,0.025133,5.0185e-07,0.6,0.88,0
0.03085,-0.0075966,0.027934,-0.00037889,0.0082664,0.00015704,0,0,0.051135,-0.022478,0,0.00081659,0,0,0,0.027935,-0.00037995,0.0082664,0.31774,0.01194,0.025133,5.0198e-07,0.62,0.88,0
0.031873,-0.0076291,0.02793,-0.00036432,0.0082696,5.7107e-05,0,0,0.051116,-0.022448,0,0.00029696,0,0,0,0.02793,-0.00036461,0.0082696,0.11559,0.011945,0.025116,5.0145e-07,0.64,0.88,0
0.032895,-0.0076679,0.027917,-0.00033921,0.0082734,-3.7537e-05,0,0,0.051074,-0.022393,0,-0.0001952,0,0,0,0.027917,-0.00033941,0.0082734,-0.076176,0.01195,0.025085,5.003e-07,0.66,0.88,0
0.033916,-0.0077127,0.027897,-0.00030507,0.0082774,-0.00012407,0,0,0.05101,-0.022315,0,-0.00064516,0,0,0,0.027897,-0.00030575,0.0082774,-0.25212,0.011956,0.02504,4.986e-07,0.68,0.88,0
0.034935,-0.0077629,0.027869,-0.00026372,0.0082816,-0.00020017,0,0,0.050927,-0.022218,0,-0.0010409,0,0,0,0.027871,-0.00026525,0.0082816,-0.40769,0.011962,0.024984,4.9643e-07,0.7,0.88,0
0.035953,-0.0078174,0.027836,-0.00021716,0.0082856,-0.00026408,0,0,0.050831,-0.022107,0,-0.0013732,0,0,0,0.027838,-0.00021973,0.0082856,-0.53934,0.011968,0.024919,4.9387e-07,0.72,0.88,0
0.036968,-0.0078755,0.027799,-0.00016741,0.0082893,-0.00031468,0,0,0.050724,-0.021988,0,-0.0016363,0,0,0,0.027802,-0.00017102,0.0082893,-0.64461,0.011973,0.024848,4.9105e-07,0.74,0.88,0
0.037982,-0.0079357,0.027759,-0.00011646,0.0082927,-0.00035141,0,0,0.050612,-0.021864,0,-0.0018273,0,0,0,0.027763,-0.00012093,0.0082927,-0.72213,0.011978,0.024773,4.8806e-07,0.76,0.88,0
0.038993,-0.0079969,0.027718,-6.6069e-05,0.0082955,-0.00037426,0,0,0.050498,-0.02174,0,-0.0019462,0,0,0,0.027723,-7.1146e-05,0.0082955,-0.77158,0.011982,0.024697,4.8501e-07,0.78,0.88,0
0.040002,-0.0080578,0.027677,-1.777e-05,0.0082977,-0.00038372,0,0,0.050386,-0.02162,0,-0.0019954,0,0,0,0.027682,-2.3115e-05,0.0082977,-0.79359,0.011986,0.024623,4.82e-07,0.8,0.88,0
0.041008,-0.0081172,0.027637,2.7232e-05,0.0082994,-0.00038063,0,0,0.050279,-0.021508,0,-0.0019793,0,0,0,0.027643,2.1958e-05,0.0082994,-0.78958,0.011988,0.024552,4.791e-07,0.82,0.88,0
0.042013,-0.0081737,0.027601,6.805e-05,0.0083006,-0.00036611,0,0,0.05018,-0.021405,0,-0.0019038,0,0,0,0.027605,6.3153e-05,0.0083006,-0.76159,0.01199,0.024486,4.7639e-07,0.84,0.88,0
0.043016,-0.0082264,0.027567,0.00010411,0.0083013,-0.00034146,0,0,0.05009,-0.021313,0,-0.0017756,0,0,0,0.027571,9.9831e-05,0.0083013,-0.71213,0.011991,0.024426,4.7393e-07,0.86,0.88,0
0.044016,-0.0082742,0.027537,0.00013511,0.0083016,-0.00030808,0,0,0.050011,-0.021233,0,-0.001602,0,0,0,0.02754,0.00013161,0.0083016,-0.64395,0.011991,0.024373,4.7175e-07,0.88,0.88,0
0.045016,-0.0083162,0.027511,0.00016096,0.0083016,-0.00026737,0,0,0.049944,-0.021166,0,-0.0013903,0,0,0,0.027514,0.0001583,0.0083016,-0.55994,0.011991,0.024328,4.6988e-07,0.9,0.88,0
0.046014,-0.0083516,0.02749,0.00018174,0.0083014,-0.00022072,0,0,0.049889,-0.021111,0,-0.0011478,0,0,0,0.027491,0.0001799,0.0083014,-0.46297,0.011991,0.024291,4.6834e-07,0.92,0.88,0
0.047012,-0.0083797,0.027473,0.0001976,0.0083011,-0.00016945,0,0,0.049847,-0.021069,0,-0.00088114,0,0,0,0.027474,0.00019649,0.0083011,-0.35586,0.011991,0.024263,4.6714e-07,0.94,0.88,0
0.048008,-0.0084002,0.027461,0.00020874,0.0083009,-0.0001148,0,0,0.049816,-0.02104,0,-0.00059696,0,0,0,0.027461,0.0002082,0.0083009,-0.2413,0.01199,0.024242,4.6628e-07,0.96,0.88,0
0.049004,-0.0084127,0.027454,0.00021535,0.0083007,-6.8001e-05,0,0,0.049798,-0.021022,0,-0.00035361,0,0,0,0.027454,0.00021515,0.0083007,-0.14302,0.01199,0.02423,4.6577e-07,0.98,0.88,0
0.049502,-0.0084168,0.027451,0.00021753,0.0083007,-4.9221e-05,0,0,0.049792,-0.021016,0,-0.00025595,0,0,0,0.027451,0.00021744,0.0083007,-0.10355,0.01199,0.024226,4.656e-07,1,0.88,0
0.00043064,-0.0003809,0.028895,0.011418,0.012094,-0.0072584,0,0,0.043683,-0.0017573,0,-0.037744,0,0,0,0.031523,0.0087898,0.012094,-19.861,0.017469,0.021279,4.5562e-07,0,0.9,0
0.00087366,-0.00076793,0.028968,0.010415,0.011815,-0.0071573,0,0,0.044597,-0.0036388,0,-0.037218,0,0,0,0.031423,0.0079597,0.011815,-18.875,0.017066,0.021802,4.7687e-07,0.02,0.9,0
0.0017839,-0.0015457,0.029242,0.0084436,0.011306,-0.0068317,0,0,0.046634,-0.0074413,0,-0.035525,0,0,0,0.031306,0.0063788,0.011306,-16.719,0.01633,0.022873,5.2009e-07,0.04,0.9,0
0.002739,-0.0023152,0.02956,0.0066248,0.010856,-0.0062418,0,0,0.048633,-0.011,0,-0.032457,0,0,0,0.031173,0.0050119,0.010856,-14.336,0.01568,0.023789,5.5334e-07,0.06,0.9,0
0.0037292,-0.0030486,0.029695,0.0051056,0.01044,-0.0054469,0,0,0.050063,-0.01387,0,-0.028324,0,0,0,0.030871,0.00393,0.01044,-11.986,0.01508,0.024351,5.6657e-07,0.08,0.9,0
0.0047415,-0.0037274,0.029644,0.0039327,0.010073,-0.0045886,0,0,0.050884,-0.015965,0,-0.023861,0,0,0,0.030458,0.0031189,0.010073,-9.8454,0.01455,0.024612,5.644e-07,0.1,0.9,0
0.0057646,-0.0043432,0.02945,0.003056,0.0097518,-0.003767,0,0,0.051215,-0.017409,0,-0.019588,0,0,0,0.029992,0.0025135,0.0097518,-7.9784,0.014086,0.024671,5.5307e-07,0.12,0.9,0
0.0067902,-0.0048941,0.029174,0.0024042,0.0094736,-0.0030298,0,0,0.051222,-0.01838,0,-0.015755,0,0,0,0.029525,0.0020538,0.0094736,-6.3833,0.013684,0.024615,5.3774e-07,0.14,0.9,0
0.0078135,-0.0053824,0.028869,0.0019168,0.0092357,-0.0023901,0,0,0.051046,-0.019029,0,-0.012428,0,0,0,0.029088,0.0016978,0.0092357,-5.0306,0.01334,0.024507,5.2174e-07,0.16,0.9,0
0.008832,-0.0058117,0.028568,0.0015481,0.0090348,-0.0018434,0,0,0.050786,-0.019465,0,-0.0095858,0,0,0,0.028699,0.0014166,0.0090348,-3.8849,0.01305,0.024384,5.0685e-07,0.18,0.9,0
0.0098449,-0.0061865,0.028291,0.001265,0.0088669,-0.0013792,0,0,0.050503,-0.019765,0,-0.0071719,0,0,0,0.028366,0.0011901,0.0088669,-2.9127,0.012808,0.024266,4.9389e-07,0.2,0.9,0
0.010852,-0.0065115,0.028049,0.0010436,0.0087278,-0.00098564,0,0,0.050235,-0.019979,0,-0.0051253,0,0,0,0.028088,0.0010043,0.0087278,-2.086,0.012607,0.024167,4.8314e-07,0.22,0.9,0
0.011854,-0.0067909,0.027845,0.00086705,0.0086137,-0.00065187,0,0,0.050002,-0.020141,0,-0.0033897,0,0,0,0.027863,0.00084895,0.0086137,-1.382,0.012442,0.02409,4.746e-07,0.24,0.9,0
0.012852,-0.007029,0.02768,0.00072312,0.0085209,-0.00036881,0,0,0.049813,-0.020274,0,-0.0019178,0,0,0,0.027687,0.00071644,0.0085209,-0.78262,0.012308,0.024038,4.6814e-07,0.26,0.9,0
0.013847,-0.0072298,0.027552,0.00060291,0.0084463,-0.0001291,0,0,0.049674,-0.020393,0,-0.00067134,0,0,0,0.027553,0.00060116,0.0084463,-0.27374,0.0122,0.024011,4.6358e-07,0.28,0.9,0
0.014839,-0.007397,0.027457,0.00049985,0.0083872,7.2965e-05,0,0,0.049582,-0.020507,0,0.00037942,0,0,0,0.027458,0.00049891,0.0083872,0.15549,0.012115,0.024008,4.6072e-07,0.3,0.9,0
0.01583,-0.0075343,0.027394,0.00040915,0.008341,0.00024178,0,0,0.049538,-0.020623,0,0.0012572,0,0,0,0.027397,0.0004065,0.008341,0.51342,0.012048,0.024027,4.5935e-07,0.32,0.9,0
0.016821,-0.007645,0.027358,0.0003273,0.0083057,0.00038063,0,0,0.049537,-0.020744,0,0.0019793,0,0,0,0.027364,0.00032164,0.0083057,0.80646,0.011997,0.024065,4.5928e-07,0.34,0.9,0
0.017812,-0.0077325,0.027347,0.00025178,0.0082795,0.00049195,0,0,0.049574,-0.020872,0,0.0025581,0,0,0,0.027356,0.00024268,0.0082795,1.0396,0.011959,0.024121,4.6032e-07,0.36,0.9,0
0.018804,-0.0078,0.027355,0.00018095,0.0082608,0.00057759,0,0,0.049645,-0.021008,0,0.0030035,0,0,0,0.027368,0.00016857,0.0082608,1.2167,0.011932,0.02419,4.6229e-07,0.38,0.9,0
0.019797,-0.0078507,0.027381,0.00011379,0.0082483,0.00063897,0,0,0.049744,-0.02115,0,0.0033226,0,0,0,0.027396,9.8768e-05,0.0082483,1.3412,0.011914,0.024271,4.65e-07,0.4,0.9,0
0.020793,-0.0078876,0.027419,4.9925e-05,0.0082408,0.0006773,0,0,0.049864,-0.021296,0,0.003522,0,0,0,0.027436,3.3129e-05,0.0082408,1.4163,0.011903,0.024359,4.6828e-07,0.42,0.9,0
0.021792,-0.0079135,0.027468,-1.0583e-05,0.0082372,0.00069374,0,0,0.05,-0.021444,0,0.0036075,0,0,0,0.027486,-2.8133e-05,0.0082372,1.4449,0.011898,0.024452,4.7193e-07,0.44,0.9,0
0.022793,-0.0079312,0.027523,-6.7262e-05,0.0082368,0.00068955,0,0,0.050145,-0.02159,0,0.0035857,0,0,0,0.02754,-8.4545e-05,0.0082368,1.4304,0.011898,0.024546,4.7579e-07,0.46,0.9,0
0.023798,-0.0079434,0.027581,-0.00011936,0.0082386,0.0006662,0,0,0.050291,-0.021731,0,0.0034642,0,0,0,0.027598,-0.00013545,0.0082386,1.3766,0.0119,0.024638,4.7969e-07,0.48,0.9,0
0.024805,-0.0079525,0.02764,-0.00016593,0.0082422,0.00062542,0,0,0.050434,-0.021861,0,0.0032522,0,0,0,0.027654,-0.00018009,0.0082422,1.2876,0.011905,0.024724,4.8346e-07,0.5,0.9,0
0.025815,-0.0079606,0.027696,-0.00020599,0.008247,0.0005693,0,0,0.050567,-0.021978,0,0.0029604,0,0,0,0.027708,-0.00021772,0.008247,1.1682,0.011912,0.024801,4.8695e-07,0.52,0.9,0
0.026828,-0.0079697,0.027747,-0.00023858,0.0082525,0.00050025,0,0,0.050685,-0.022077,0,0.0026013,0,0,0,0.027756,-0.00024766,0.0082525,1.0236,0.01192,0.024868,4.9004e-07,0.54,0.9,0
0.027843,-0.0079814,0.027791,-0.00026291,0.0082583,0.000421,0,0,0.050784,-0.022155,0,0.0021892,0,0,0,0.027797,-0.00026938,0.0082583,0.8595,0.011929,0.024922,4.9261e-07,0.56,0.9,0
0.028859,-0.0079971,0.027826,-0.00027843,0.0082642,0.00033448,0,0,0.05086,-0.022211,0,0.0017393,0,0,0,0.02783,-0.00028257,0.0082642,0.68171,0.011937,0.024962,4.9459e-07,0.58,0.9,0
0.029877,-0.0080176,0.027851,-0.00028489,0.0082698,0.00024377,0,0,0.050911,-0.022242,0,0.0012676,0,0,0,0.027853,-0.00028716,0.0082698,0.49632,0.011945,0.024986,4.9591e-07,0.6,0.9,0
0.030896,-0.0080438,0.027866,-0.00028241,0.0082749,0.00015198,0,0,0.050936,-0.022249,0,0.00079031,0,0,0,0.027866,-0.00028338,0.0082749,0.30931,0.011953,0.024995,4.9655e-07,0.62,0.9,0
0.031914,-0.0080758,0.02787,-0.00027144,0.0082794,6.2106e-05,0,0,0.050934,-0.022232,0,0.00032295,0,0,0,0.02787,-0.00027171,0.0082794,0.1264,0.011959,0.024989,4.9651e-07,0.64,0.9,0
0.032933,-0.0081137,0.027863,-0.00025278,0.0082832,-2.3086e-05,0,0,0.050908,-0.022193,0,-0.00012005,0,0,0,0.027863,-0.00025293,0.0082832,-0.04709,0.011965,0.024968,4.9582e-07,0.66,0.9,0
0.033951,-0.0081571,0.027848,-0.00022753,0.008286,-0.00010115,0,0,0.05086,-0.022135,0,-0.00052599,0,0,0,0.027848,-0.000228,0.008286,-0.20647,0.011969,0.024934,4.9453e-07,0.68,0.9,0
0.034967,-0.0082055,0.027823,-0.00019699,0.0082879,-0.00017007,0,0,0.050792,-0.022061,0,-0.00088436,0,0,0,0.027824,-0.00019811,0.0082879,-0.34777,0.011971,0.024889,4.9273e-07,0.7,0.9,0
0.035982,-0.0082582,0.027792,-0.00016259,0.0082888,-0.0002283,0,0,0.050708,-0.021974,0,-0.0011871,0,0,0,0.027794,-0.00016452,0.0082888,-0.4679,0.011973,0.024835,4.9049e-07,0.72,0.9,0
0.036996,-0.0083141,0.027755,-0.0001258,0.0082887,-0.0002748,0,0,0.050612,-0.021878,0,-0.0014289,0,0,0,0.027758,-0.00012857,0.0082887,-0.56464,0.011973,0.024774,4.8791e-07,0.74,0.9,0
0.038007,-0.0083721,0.027714,-8.805e-05,0.0082878,-0.00030903,0,0,0.050508,-0.021777,0,-0.001607,0,0,0,0.027717,-9.1532e-05,0.0082878,-0.63674,0.011971,0.024709,4.8511e-07,0.76,0.9,0
0.039016,-0.008431,0.027671,-5.0642e-05,0.008286,-0.00033093,0,0,0.0504,-0.021675,0,-0.0017208,0,0,0,0.027675,-5.4632e-05,0.008286,-0.6838,0.011969,0.024641,4.8218e-07,0.78,0.9,0
0.040023,-0.0084898,0.027626,-1.4693e-05,0.0082835,-0.00034082,0,0,0.050291,-0.021575,0,-0.0017723,0,0,0,0.027631,-1.8931e-05,0.0082835,-0.70625,0.011965,0.024574,4.7923e-07,0.8,0.9,0
0.041028,-0.0085471,0.027583,1.8895e-05,0.0082804,-0.00033938,0,0,0.050186,-0.02148,0,-0.0017648,0,0,0,0.027587,1.4682e-05,0.0082804,-0.70523,0.011961,0.024508,4.7633e-07,0.82,0.9,0
0.04203,-0.0086017,0.027541,4.9453e-05,0.008277,-0.00032754,0,0,0.050085,-0.021392,0,-0.0017032,0,0,0,0.027545,4.5516e-05,0.008277,-0.68241,0.011956,0.024446,4.7357e-07,0.84,0.9,0
0.043031,-0.0086527,0.027501,7.6532e-05,0.0082734,-0.0003064,0,0,0.049993,-0.021312,0,-0.0015933,0,0,0,0.027505,7.3072e-05,0.0082734,-0.6399,0.01195,0.024389,4.7102e-07,0.86,0.9,0
0.04403,-0.008699,0.027466,9.9882e-05,0.0082698,-0.00027716,0,0,0.04991,-0.021242,0,-0.0014413,0,0,0,0.027469,9.7036e-05,0.0082698,-0.58009,0.011945,0.024337,4.6873e-07,0.88,0.9,0
0.045027,-0.0087397,0.027435,0.00011941,0.0082664,-0.00024108,0,0,0.049839,-0.021182,0,-0.0012536,0,0,0,0.027437,0.00011724,0.0082664,-0.5055,0.01194,0.024293,4.6674e-07,0.9,0.9,0
0.046024,-0.0087741,0.027409,0.00013515,0.0082633,-0.00019938,0,0,0.049779,-0.021133,0,-0.0010368,0,0,0,0.027411,0.00013365,0.0082633,-0.41872,0.011936,0.024256,4.6507e-07,0.92,0.9,0
0.047019,-0.0088015,0.027389,0.0001472,0.0082607,-0.00015329,0,0,0.049732,-0.021095,0,-0.0007971,0,0,0,0.027389,0.00014629,0.0082607,-0.32231,0.011932,0.024228,4.6376e-07,0.94,0.9,0
0.048013,-0.0088214,0.027374,0.00015568,0.0082588,-0.00010396,0,0,0.049699,-0.021068,0,-0.00054059,0,0,0,0.027374,0.00015523,0.0082588,-0.21878,0.011929,0.024207,4.6282e-07,0.96,0.9,0
0.049007,-0.0088335,0.027365,0.00016071,0.0082576,-6.2294e-05,0,0,0.049678,-0.021052,0,-0.00032393,0,0,0,0.027365,0.00016055,0.0082576,-0.13118,0.011928,0.024194,4.6225e-07,0.98,0.9,0
0.049503,-0.0088375,0.027362,0.00016238,0.0082572,-4.5961e-05,0,0,0.049672,-0.021047,0,-0.00023899,0,0,0,0.027362,0.0001623,0.0082572,-0.09681,0.011927,0.02419,4.6206e-07,1,0.9,0
0.00044663,-0.00041968,0.029924,0.011582,0.012452,-0.0079475,0,0,0.045427,-0.0022608,0,-0.041327,0,0,0,0.032899,0.008607,0.012452,-20.471,0.017986,0.022622,5.3892e-07,0,0.92,0
0.00090854,-0.00084829,0.029965,0.010281,0.012074,-0.0077676,0,0,0.046517,-0.0046618,0,-0.040392,0,0,0,0.032687,0.0075587,0.012074,-19.219,0.01744,0.023214,5.6204e-07,0.02,0.92,0
0.0018607,-0.0017095,0.03017,0.0077883,0.011388,-0.0072301,0,0,0.048835,-0.009358,0,-0.037596,0,0,0,0.032338,0.0056202,0.011388,-16.531,0.016449,0.024362,6.0499e-07,0.04,0.92,0
0.0028619,-0.0025549,0.030368,0.005678,0.010814,-0.0063555,0,0,0.050841,-0.013353,0,-0.033049,0,0,0,0.031946,0.0041,0.010814,-13.689,0.01562,0.025175,6.2732e-07,0.06,0.92,0
0.0038943,-0.0033465,0.030295,0.004116,0.010323,-0.0052999,0,0,0.051927,-0.016139,0,-0.027559,0,0,0,0.03136,0.0030512,0.010323,-11.059,0.014912,0.025467,6.2087e-07,0.08,0.92,0
0.004939,-0.0040653,0.029989,0.0030292,0.0099054,-0.004276,0,0,0.052217,-0.017878,0,-0.022235,0,0,0,0.030676,0.0023423,0.0099054,-8.8165,0.014308,0.025412,5.9792e-07,0.1,0.92,0
0.005983,-0.0047068,0.029552,0.0022741,0.0095478,-0.0033807,0,0,0.052011,-0.018912,0,-0.01758,0,0,0,0.029983,0.0018432,0.0095478,-6.9653,0.013791,0.025188,5.6925e-07,0.12,0.92,0
0.0070194,-0.005274,0.029081,0.0017426,0.009247,-0.0026327,0,0,0.051568,-0.019511,0,-0.01369,0,0,0,0.029345,0.0014786,0.009247,-5.4494,0.013357,0.024908,5.4123e-07,0.14,0.92,0
0.0080457,-0.0057723,0.028633,0.0013616,0.0089984,-0.0020176,0,0,0.05105,-0.019856,0,-0.010492,0,0,0,0.02879,0.0012043,0.0089984,-4.2043,0.012998,0.024632,5.1657e-07,0.16,0.92,0
0.0090614,-0.006208,0.028236,0.0010828,0.0087956,-0.001513,0,0,0.050545,-0.020053,0,-0.0078679,0,0,0,0.028326,0.00099262,0.0087956,-3.1748,0.012705,0.024387,4.9604e-07,0.18,0.92,0
0.010067,-0.006587,0.027899,0.00087416,0.008632,-0.0010977,0,0,0.050095,-0.02017,0,-0.0057081,0,0,0,0.027948,0.00082545,0.008632,-2.3177,0.012468,0.024184,4.7956e-07,0.2,0.92,0
0.011065,-0.0069147,0.027624,0.00071441,0.0085015,-0.00075391,0,0,0.049718,-0.020246,0,-0.0039203,0,0,0,0.027648,0.00069046,0.0085015,-1.5998,0.01228,0.024024,4.6676e-07,0.22,0.92,0
0.012056,-0.0071963,0.027406,0.0005891,0.0083986,-0.00046779,0,0,0.04942,-0.020305,0,-0.0024325,0,0,0,0.027416,0.00057905,0.0083986,-0.99619,0.012131,0.023907,4.5716e-07,0.24,0.92,0
0.013042,-0.0074362,0.027242,0.00048825,0.008319,-0.00022876,0,0,0.049199,-0.02036,0,-0.0011895,0,0,0,0.027245,0.00048506,0.008319,-0.48788,0.012016,0.023829,4.5033e-07,0.26,0.92,0
0.014024,-0.0076386,0.027124,0.00040486,0.0082587,-2.8886e-05,0,0,0.04905,-0.02042,0,-0.00015021,0,0,0,0.027125,0.00040403,0.0082587,-0.060721,0.011929,0.023787,4.4585e-07,0.28,0.92,0
0.015004,-0.0078076,0.027048,0.0003339,0.0082145,0.00013774,0,0,0.048967,-0.02049,0,0.00071625,0,0,0,0.027049,0.00033269,0.0082145,0.29599,0.011865,0.023776,4.434e-07,0.3,0.92,0
0.015983,-0.0079467,0.027007,0.00027177,0.0081837,0.00027547,0,0,0.048941,-0.020571,0,0.0014324,0,0,0,0.027011,0.00026862,0.0081837,0.59034,0.011821,0.023793,4.4265e-07,0.32,0.92,0
0.016962,-0.0080595,0.026998,0.00021588,0.0081641,0.00038748,0,0,0.048967,-0.020665,0,0.0020149,0,0,0,0.027004,0.00021009,0.0081641,0.82843,0.011793,0.023834,4.4335e-07,0.34,0.92,0
0.017942,-0.0081493,0.027014,0.00016444,0.0081535,0.00047609,0,0,0.049037,-0.020772,0,0.0024757,0,0,0,0.027022,0.00015587,0.0081535,1.015,0.011777,0.023894,4.4526e-07,0.36,0.92,0
0.018923,-0.0082193,0.027051,0.00011624,0.0081503,0.00054301,0,0,0.049143,-0.020889,0,0.0028236,0,0,0,0.027062,0.0001052,0.0081503,1.1538,0.011773,0.02397,4.4814e-07,0.38,0.92,0
0.019907,-0.0082726,0.027106,7.0575e-05,0.0081529,0.00058955,0,0,0.049278,-0.021014,0,0.0030656,0,0,0,0.027119,5.7635e-05,0.0081529,1.2479,0.011776,0.024058,4.5179e-07,0.4,0.92,0
0.020894,-0.0083122,0.027173,2.7163e-05,0.0081601,0.00061681,0,0,0.049434,-0.021146,0,0.0032074,0,0,0,0.027187,1.3059e-05,0.0081601,1.3003,0.011787,0.024154,4.5601e-07,0.42,0.92,0
0.021885,-0.0083408,0.027249,-1.3946e-05,0.0081705,0.00062583,0,0,0.049604,-0.02128,0,0.0032543,0,0,0,0.027264,-2.8414e-05,0.0081705,1.3137,0.011802,0.024255,4.6061e-07,0.44,0.92,0
0.022878,-0.0083613,0.02733,-5.2433e-05,0.0081833,0.00061772,0,0,0.049782,-0.021413,0,0.0032122,0,0,0,0.027344,-6.6486e-05,0.0081833,1.2911,0.01182,0.024357,4.6539e-07,0.46,0.92,0
0.023876,-0.0083762,0.027413,-8.7781e-05,0.0081975,0.00059374,0,0,0.04996,-0.021542,0,0.0030874,0,0,0,0.027426,-0.00010073,0.0081975,1.2358,0.011841,0.024457,4.7018e-07,0.48,0.92,0
0.024877,-0.0083877,0.027494,-0.00011935,0.0082124,0.00055537,0,0,0.050132,-0.021663,0,0.0028879,0,0,0,0.027505,-0.00013067,0.0082124,1.1514,0.011862,0.024552,4.7481e-07,0.5,0.92,0
0.025881,-0.008398,0.02757,-0.00014646,0.0082272,0.00050439,0,0,0.050292,-0.021771,0,0.0026228,0,0,0,0.02758,-0.00015579,0.0082272,1.0419,0.011884,0.024638,4.7912e-07,0.52,0.92,0
0.026889,-0.008409,0.02764,-0.00016847,0.0082414,0.00044281,0,0,0.050436,-0.021866,0,0.0023026,0,0,0,0.027647,-0.00017567,0.0082414,0.91185,0.011904,0.024714,4.8299e-07,0.54,0.92,0
0.027899,-0.0084222,0.0277,-0.00018483,0.0082545,0.0003729,0,0,0.050558,-0.021942,0,0.0019391,0,0,0,0.027705,-0.00018997,0.0082545,0.7659,0.011923,0.024777,4.8629e-07,0.56,0.92,0
0.028911,-0.008439,0.027749,-0.00019516,0.0082662,0.00029713,0,0,0.050656,-0.021999,0,0.0015451,0,0,0,0.027752,-0.00019846,0.0082662,0.60904,0.01194,0.024826,4.8893e-07,0.58,0.92,0
0.029925,-0.0084602,0.027786,-0.0001993,0.0082761,0.00021805,0,0,0.050727,-0.022036,0,0.0011338,0,0,0,0.027788,-0.00020114,0.0082761,0.44631,0.011954,0.024859,4.9087e-07,0.6,0.92,0
0.03094,-0.0084866,0.027811,-0.00019733,0.0082841,0.00013824,0,0,0.05077,-0.022052,0,0.00071883,0,0,0,0.027812,-0.00019813,0.0082841,0.28273,0.011966,0.024878,4.9206e-07,0.62,0.92,0
0.031956,-0.0085184,0.027823,-0.00018954,0.00829,6.019e-05,0,0,0.050785,-0.022047,0,0.00031299,0,0,0,0.027823,-0.00018978,0.00829,0.12307,0.011974,0.024881,4.925e-07,0.64,0.92,0
0.032971,-0.0085557,0.027822,-0.00017649,0.0082938,-1.3779e-05,0,0,0.050774,-0.022023,0,-7.165e-05,0,0,0,0.027822,-0.00017659,0.0082938,-0.028228,0.01198,0.02487,4.9223e-07,0.66,0.92,0
0.033987,-0.0085981,0.02781,-0.00015891,0.0082955,-8.1627e-05,0,0,0.050739,-0.021981,0,-0.00042446,0,0,0,0.027811,-0.00015923,0.0082955,-0.16724,0.011982,0.024846,4.9128e-07,0.68,0.92,0
0.035001,-0.0086453,0.027788,-0.00013769,0.0082951,-0.00014165,0,0,0.050682,-0.021925,0,-0.0007366,0,0,0,0.027789,-0.00013848,0.0082951,-0.29064,0.011982,0.02481,4.8974e-07,0.7,0.92,0
0.036014,-0.0086964,0.027757,-0.0001138,0.0082929,-0.00019255,0,0,0.050606,-0.021857,0,-0.0010012,0,0,0,0.027758,-0.00011519,0.0082929,-0.39581,0.011979,0.024764,4.8769e-07,0.72,0.92,0
0.037025,-0.0087506,0.027718,-8.8242e-05,0.008289,-0.00023341,0,0,0.050516,-0.021781,0,-0.0012137,0,0,0,0.02772,-9.0257e-05,0.008289,-0.48087,0.011973,0.02471,4.8524e-07,0.74,0.92,0
0.038034,-0.0088068,0.027674,-6.1996e-05,0.0082837,-0.00026375,0,0,0.050415,-0.021699,0,-0.0013715,0,0,0,0.027677,-6.4555e-05,0.0082837,-0.54473,0.011965,0.024651,4.8248e-07,0.76,0.92,0
0.039042,-0.0088639,0.027626,-3.5954e-05,0.0082772,-0.00028347,0,0,0.050308,-0.021614,0,-0.0014741,0,0,0,0.027629,-3.8907e-05,0.0082772,-0.58699,0.011956,0.024589,4.7954e-07,0.78,0.92,0
0.040047,-0.0089208,0.027577,-1.089e-05,0.0082698,-0.00029282,0,0,0.050198,-0.02153,0,-0.0015227,0,0,0,0.02758,-1.4044e-05,0.0082698,-0.60797,0.011945,0.024525,4.7651e-07,0.8,0.92,0
0.04105,-0.0089764,0.027527,1.2571e-05,0.0082618,-0.00029234,0,0,0.050089,-0.021448,0,-0.0015202,0,0,0,0.02753,9.419e-06,0.0082618,-0.60856,0.011934,0.024462,4.7349e-07,0.82,0.92,0
0.04205,-0.0090294,0.027478,3.3954e-05,0.0082537,-0.00028277,0,0,0.049984,-0.021371,0,-0.0014704,0,0,0,0.027481,3.0996e-05,0.0082537,-0.59013,0.011922,0.024401,4.7058e-07,0.84,0.92,0
0.043049,-0.0090789,0.027432,5.2941e-05,0.0082456,-0.00026504,0,0,0.049886,-0.021301,0,-0.0013782,0,0,0,0.027435,5.0331e-05,0.0082456,-0.55442,0.01191,0.024344,4.6785e-07,0.86,0.92,0
0.044046,-0.0091239,0.02739,6.9346e-05,0.0082379,-0.00024015,0,0,0.049796,-0.021238,0,-0.0012488,0,0,0,0.027392,6.7191e-05,0.0082379,-0.50344,0.011899,0.024293,4.6537e-07,0.88,0.92,0
0.045041,-0.0091635,0.027353,8.3093e-05,0.0082308,-0.00020919,0,0,0.049718,-0.021184,0,-0.0010878,0,0,0,0.027355,8.1446e-05,0.0082308,-0.43934,0.011889,0.024248,4.6318e-07,0.9,0.92,0
0.046035,-0.0091969,0.027321,9.4191e-05,0.0082247,-0.00017321,0,0,0.049652,-0.021139,0,-0.00090071,0,0,0,0.027323,9.3048e-05,0.0082247,-0.36436,0.01188,0.024211,4.6135e-07,0.92,0.92,0
0.047027,-0.0092236,0.027296,0.0001027,0.0082197,-0.0001333,0,0,0.049599,-0.021104,0,-0.00069314,0,0,0,0.027297,0.000102,0.0082197,-0.28074,0.011873,0.024181,4.5989e-07,0.94,0.92,0
0.048018,-0.0092429,0.027278,0.00010869,0.008216,-9.0462e-05,0,0,0.049561,-0.021079,0,-0.0004704,0,0,0,0.027278,0.00010835,0.008216,-0.1907,0.011868,0.024159,4.5883e-07,0.96,0.92,0
0.049009,-0.0092547,0.027267,0.00011225,0.0082137,-5.5247e-05,0,0,0.049538,-0.021064,0,-0.00028728,0,0,0,0.027267,0.00011213,0.0082137,-0.11654,0.011864,0.024146,4.5818e-07,0.98,0.92,0
0.049505,-0.0092587,0.027263,0.00011344,0.008213,-4.2051e-05,0,0,0.049531,-0.021059,0,-0.00021867,0,0,0,0.027263,0.00011337,0.008213,-0.088733,0.011863,0.024142,4.5797e-07,1,0.92,0
0.00047413,-0.00047133,0.031612,0.011744,0.013007,-0.0087984,0,0,0.048374,-0.0032836,0,-0.045751,0,0,0,0.034971,0.0083853,0.013007,-20.812,0.018788,0.024614,6.8043e-07,0,0.94,0
0.00096747,-0.0009544,0.031534,0.0099062,0.012432,-0.0084171,0,0,0.049665,-0.0065673,0,-0.043769,0,0,0,0.03448,0.0069597,0.012432,-19.092,0.017957,0.025253,6.9918e-07,0.02,0.94,0
0.0019866,-0.0019201,0.031517,0.0066611,0.011453,-0.0074229,0,0,0.052165,-0.01246,0,-0.038599,0,0,0,0.033635,0.0045428,0.011453,-15.572,0.016544,0.026338,7.2586e-07,0.04,0.94,0
0.0030541,-0.0028493,0.031422,0.0043874,0.010743,-0.0061001,0,0,0.053765,-0.016524,0,-0.031721,0,0,0,0.032797,0.0030123,0.010743,-12.218,0.015517,0.026775,7.1669e-07,0.06,0.94,0
0.0041372,-0.0036941,0.030926,0.0029814,0.010172,-0.0047656,0,0,0.05396,-0.018696,0,-0.024781,0,0,0,0.031762,0.0021454,0.010172,-9.44,0.014693,0.026532,6.7228e-07,0.08,0.94,0
0.0052125,-0.0044425,0.030195,0.0020952,0.0096872,-0.0036445,0,0,0.053321,-0.019739,0,-0.018951,0,0,0,0.030691,0.0015994,0.0096872,-7.27,0.013993,0.02601,6.1837e-07,0.1,0.94,0
0.0062701,-0.0050996,0.029437,0.00152,0.0092872,-0.0027632,0,0,0.05239,-0.020195,0,-0.014369,0,0,0,0.029728,0.0012289,0.0092872,-5.5885,0.013415,0.025447,5.6944e-07,0.12,0.94,0
0.0073081,-0.0056746,0.028753,0.0011356,0.0089665,-0.0020798,0,0,0.051444,-0.02036,0,-0.010815,0,0,0,0.028922,0.00096674,0.0089665,-4.27,0.012952,0.024937,5.2931e-07,0.14,0.94,0
0.0083278,-0.0061766,0.028174,0.00087069,0.0087133,-0.0015466,0,0,0.050597,-0.020391,0,-0.0080423,0,0,0,0.028269,0.00077492,0.0087133,-3.2199,0.012586,0.02451,4.9781e-07,0.16,0.94,0
0.009332,-0.0066138,0.027703,0.00068267,0.0085156,-0.0011255,0,0,0.049886,-0.020366,0,-0.0058524,0,0,0,0.027755,0.00063045,0.0085156,-2.3711,0.0123,0.024167,4.7367e-07,0.18,0.94,0
0.010323,-0.0069934,0.027331,0.00054528,0.0083628,-0.00078822,0,0,0.049316,-0.020325,0,-0.0040987,0,0,0,0.027357,0.00051867,0.0083628,-1.6763,0.01208,0.023902,4.5554e-07,0.2,0.94,0
0.011305,-0.0073213,0.027046,0.00044202,0.0082464,-0.00051471,0,0,0.048879,-0.020291,0,-0.0026765,0,0,0,0.027058,0.00042993,0.0082464,-1.1022,0.011911,0.023707,4.4227e-07,0.22,0.94,0
0.012278,-0.0076031,0.026837,0.00036219,0.0081596,-0.00029059,0,0,0.04856,-0.020273,0,-0.0015111,0,0,0,0.026841,0.00035769,0.0081596,-0.62487,0.011786,0.023572,4.3293e-07,0.24,0.94,0
0.013247,-0.0078434,0.026692,0.00029865,0.0080971,-0.00010563,0,0,0.048346,-0.020276,0,-0.00054927,0,0,0,0.026693,0.00029744,0.0080971,-0.2269,0.011696,0.023488,4.2681e-07,0.26,0.94,0
0.014212,-0.0080466,0.026602,0.00024652,0.0080544,4.7491e-05,0,0,0.048222,-0.020301,0,0.00024695,0,0,0,0.026602,0.00024598,0.0080544,0.10443,0.011634,0.023448,4.2332e-07,0.28,0.94,0
0.015176,-0.0082166,0.026558,0.00020242,0.0080281,0.00017401,0,0,0.048177,-0.020347,0,0.00090483,0,0,0,0.026559,0.000201,0.0080281,0.37852,0.011596,0.023446,4.2204e-07,0.3,0.94,0
0.016139,-0.0083571,0.026553,0.00016394,0.0080152,0.00027766,0,0,0.048199,-0.020413,0,0.0014438,0,0,0,0.026556,0.00016084,0.0080152,0.60235,0.011577,0.023475,4.2257e-07,0.32,0.94,0
0.017104,-0.0084716,0.026581,0.00012939,0.0080132,0.00036112,0,0,0.048277,-0.020498,0,0.0018778,0,0,0,0.026586,0.00012432,0.0080132,0.78114,0.011575,0.023531,4.2461e-07,0.34,0.94,0
0.01807,-0.0085634,0.026636,9.7597e-05,0.00802,0.00042629,0,0,0.048401,-0.020598,0,0.0022167,0,0,0,0.026643,9.0609e-05,0.00802,0.9189,0.011584,0.023608,4.2789e-07,0.36,0.94,0
0.01904,-0.0086356,0.026711,6.7798e-05,0.0080338,0.00047454,0,0,0.048562,-0.020712,0,0.0024676,0,0,0,0.02672,5.9188e-05,0.0080338,1.0188,0.011604,0.023702,4.3216e-07,0.38,0.94,0
0.020013,-0.0086913,0.026803,3.955e-05,0.0080529,0.00050693,0,0,0.048751,-0.020835,0,0.002636,0,0,0,0.026813,2.9765e-05,0.0080529,1.0835,0.011632,0.023808,4.3719e-07,0.4,0.94,0
0.02099,-0.0087334,0.026907,1.2673e-05,0.0080759,0.00052431,0,0,0.048961,-0.020964,0,0.0027264,0,0,0,0.026917,2.2435e-06,0.0080759,1.1153,0.011665,0.023923,4.4278e-07,0.42,0.94,0
0.021971,-0.0087647,0.027018,-1.2795e-05,0.0081014,0.00052751,0,0,0.049182,-0.021097,0,0.002743,0,0,0,0.027028,-2.3316e-05,0.0081014,1.1165,0.011702,0.024042,4.4871e-07,0.44,0.94,0
0.022957,-0.0087878,0.027131,-3.6648e-05,0.0081284,0.00051737,0,0,0.049408,-0.021229,0,0.0026903,0,0,0,0.027141,-4.6738e-05,0.0081284,1.0897,0.011741,0.024161,4.5477e-07,0.46,0.94,0
0.023948,-0.0088051,0.027244,-5.8556e-05,0.0081557,0.0004949,0,0,0.04963,-0.021357,0,0.0025735,0,0,0,0.027253,-6.7765e-05,0.0081557,1.0374,0.01178,0.024278,4.608e-07,0.48,0.94,0
0.024942,-0.008819,0.027353,-7.8115e-05,0.0081825,0.00046127,0,0,0.049843,-0.021478,0,0.0023986,0,0,0,0.027361,-8.6101e-05,0.0081825,0.96256,0.011819,0.024388,4.6659e-07,0.5,0.94,0
0.025941,-0.0088315,0.027455,-9.4894e-05,0.0082079,0.00041785,0,0,0.050041,-0.021587,0,0.0021728,0,0,0,0.027461,-0.00010144,0.0082079,0.86838,0.011856,0.024489,4.7199e-07,0.52,0.94,0
0.026944,-0.0088443,0.027546,-0.00010848,0.0082313,0.00036626,0,0,0.050218,-0.021683,0,0.0019046,0,0,0,0.027551,-0.00011352,0.0082313,0.7584,0.01189,0.024579,4.7685e-07,0.54,0.94,0
0.02795,-0.0088591,0.027625,-0.00011854,0.0082521,0.00030827,0,0,0.050371,-0.021764,0,0.001603,0,0,0,0.027629,-0.00012213,0.0082521,0.63636,0.01192,0.024655,4.8106e-07,0.56,0.94,0
0.028959,-0.008877,0.027691,-0.00012483,0.0082698,0.00024581,0,0,0.050495,-0.021826,0,0.0012782,0,0,0,0.027693,-0.00012714,0.0082698,0.50618,0.011945,0.024716,4.845e-07,0.58,0.94,0
0.02997,-0.0088991,0.027742,-0.00012725,0.0082843,0.00018091,0,0,0.050589,-0.02187,0,0.00094073,0,0,0,0.027743,-0.00012854,0.0082843,0.37186,0.011966,0.024761,4.8713e-07,0.6,0.94,0
0.030982,-0.0089258,0.027777,-0.00012583,0.0082952,0.00011559,0,0,0.050652,-0.021895,0,0.00060109,0,0,0,0.027777,-0.0001264,0.0082952,0.23733,0.011982,0.02479,4.889e-07,0.62,0.94,0
0.031996,-0.0089577,0.027796,-0.00012077,0.0083026,5.1833e-05,0,0,0.050683,-0.021901,0,0.00026953,0,0,0,0.027796,-0.00012095,0.0083026,0.10636,0.011993,0.024803,4.898e-07,0.64,0.94,0
0.03301,-0.0089946,0.027801,-0.00011241,0.0083064,-8.5468e-06,0,0,0.050685,-0.021889,0,-4.4443e-05,0,0,0,0.027801,-0.00011248,0.0083064,-0.017563,0.011998,0.0248,4.8987e-07,0.66,0.94,0
0.034023,-0.0090364,0.027791,-0.00010121,0.0083069,-6.3927e-05,0,0,0.050658,-0.021861,0,-0.00033242,0,0,0,0.027791,-0.00010141,0.0083069,-0.13134,0.011999,0.024782,4.8916e-07,0.68,0.94,0
0.035036,-0.0090826,0.027768,-8.7712e-05,0.0083042,-0.00011296,0,0,0.050607,-0.021819,0,-0.00058737,0,0,0,0.027769,-8.8224e-05,0.0083042,-0.23234,0.011995,0.024752,4.8775e-07,0.7,0.94,0
0.036048,-0.0091325,0.027735,-7.2533e-05,0.0082987,-0.00015459,0,0,0.050534,-0.021765,0,-0.00080385,0,0,0,0.027736,-7.3447e-05,0.0082987,-0.31851,0.011987,0.024711,4.8573e-07,0.72,0.94,0
0.037057,-0.0091853,0.027692,-5.6301e-05,0.0082907,-0.00018809,0,0,0.050443,-0.021702,0,-0.00097808,0,0,0,0.027693,-5.7634e-05,0.0082907,-0.38834,0.011975,0.02466,4.8322e-07,0.74,0.94,0
0.038065,-0.00924,0.027642,-3.9628e-05,0.0082807,-0.00021308,0,0,0.050339,-0.021633,0,-0.001108,0,0,0,0.027644,-4.1329e-05,0.0082807,-0.44095,0.011961,0.024603,4.8033e-07,0.76,0.94,0
0.039071,-0.0092956,0.027587,-2.3076e-05,0.0082692,-0.00022945,0,0,0.050227,-0.02156,0,-0.0011931,0,0,0,0.027589,-2.5046e-05,0.0082692,-0.47602,0.011944,0.024542,4.7718e-07,0.78,0.94,0
0.040074,-0.009351,0.027529,-7.1329e-06,0.0082566,-0.00023738,0,0,0.050109,-0.021486,0,-0.0012344,0,0,0,0.027531,-9.244e-06,0.0082566,-0.49378,0.011926,0.024478,4.7391e-07,0.8,0.94,0
0.041075,-0.009405,0.02747,7.8029e-06,0.0082435,-0.0002373,0,0,0.04999,-0.021413,0,-0.001234,0,0,0,0.027473,5.688e-06,0.0082435,-0.49491,0.011907,0.024414,4.706e-07,0.82,0.94,0
0.042074,-0.0094566,0.027413,2.143e-05,0.0082302,-0.0002298,0,0,0.049874,-0.021343,0,-0.001195,0,0,0,0.027415,1.944e-05,0.0082302,-0.48049,0.011888,0.024351,4.6738e-07,0.84,0.94,0
0.04307,-0.0095048,0.027358,3.3543e-05,0.0082174,-0.00021561,0,0,0.049765,-0.021278,0,-0.0011212,0,0,0,0.027359,3.1783e-05,0.0082174,-0.4519,0.01187,0.024292,4.6434e-07,0.86,0.94,0
0.044065,-0.0095485,0.027307,4.4018e-05,0.0082053,-0.00019554,0,0,0.049664,-0.021219,0,-0.0010168,0,0,0,0.027308,4.2563e-05,0.0082053,-0.41074,0.011852,0.024238,4.6155e-07,0.88,0.94,0
0.045057,-0.0095871,0.027262,5.2806e-05,0.0081944,-0.00017045,0,0,0.049575,-0.021168,0,-0.00088634,0,0,0,0.027263,5.1692e-05,0.0081944,-0.35874,0.011836,0.024191,4.5908e-07,0.9,0.94,0
0.046048,-0.0096197,0.027223,5.9907e-05,0.008185,-0.00014123,0,0,0.0495,-0.021125,0,-0.00073438,0,0,0,0.027224,5.9132e-05,0.008185,-0.29773,0.011823,0.02415,4.5699e-07,0.92,0.94,0
0.047037,-0.0096456,0.027193,6.5354e-05,0.0081774,-0.00010873,0,0,0.04944,-0.021091,0,-0.00056541,0,0,0,0.027193,6.4883e-05,0.0081774,-0.22953,0.011812,0.024118,4.5533e-07,0.94,0.94,0
0.048025,-0.0096645,0.02717,6.9196e-05,0.0081718,-7.3818e-05,0,0,0.049396,-0.021067,0,-0.00038385,0,0,0,0.027171,6.8964e-05,0.0081718,-0.15597,0.011804,0.024095,4.5411e-07,0.96,0.94,0
0.049013,-0.009676,0.027157,7.1478e-05,0.0081684,-4.6608e-05,0,0,0.049369,-0.021052,0,-0.00024236,0,0,0,0.027157,7.1387e-05,0.0081684,-0.098553,0.011799,0.02408,4.5338e-07,0.98,0.94,0
0.049506,-0.0096799,0.027152,7.2235e-05,0.0081673,-3.7355e-05,0,0,0.04936,-0.021047,0,-0.00019425,0,0,0,0.027152,7.2183e-05,0.0081673,-0.079021,0.011797,0.024076,4.5313e-07,1,0.94,0
0.00052536,-0.00055103,0.034537,0.011496,0.01381,-0.0096866,0,0,0.053891,-0.0060169,0,-0.05037,0,0,0,0.038192,0.0078407,0.01381,-20.242,0.019948,0.027883,9.55e-07,0,0.96,0
0.0010778,-0.001111,0.034165,0.0088316,0.012899,-0.0087602,0,0,0.055291,-0.010575,0,-0.045553,0,0,0,0.037088,0.0059082,0.012899,-17.651,0.018632,0.028372,9.414e-07,0.02,0.96,0
0.0022116,-0.0022079,0.033547,0.0049001,0.011534,-0.0068827,0,0,0.057234,-0.017249,0,-0.03579,0,0,0,0.035262,0.0031849,0.011534,-13.033,0.016661,0.028834,8.9725e-07,0.04,0.96,0
0.0033672,-0.0032158,0.032648,0.0029543,0.010681,-0.0050997,0,0,0.057116,-0.020089,0,-0.026518,0,0,0,0.0336,0.0020032,0.010681,-9.5167,0.015428,0.028277,8.0764e-07,0.06,0.96,0
0.0044963,-0.0040943,0.031293,0.0018855,0.0099535,-0.0036701,0,0,0.055482,-0.020977,0,-0.019085,0,0,0,0.031804,0.0013746,0.0099535,-6.9874,0.014377,0.027176,6.9762e-07,0.08,0.96,0
0.0055865,-0.0048548,0.029992,0.0012626,0.0093763,-0.0026521,0,0,0.0536,-0.021096,0,-0.013791,0,0,0,0.030269,0.00098506,0.0093763,-5.1969,0.013544,0.026121,6.0876e-07,0.1,0.96,0
0.0066403,-0.0055146,0.028914,0.00088469,0.0089395,-0.0019306,0,0,0.051933,-0.020943,0,-0.010039,0,0,0,0.029067,0.00073192,0.0089395,-3.8899,0.012913,0.025252,5.435e-07,0.12,0.96,0
0.0076638,-0.0060884,0.028064,0.00064476,0.0086126,-0.0014072,0,0,0.050574,-0.020716,0,-0.0073175,0,0,0,0.028148,0.00056065,0.0086126,-2.9039,0.01244,0.024572,4.9644e-07,0.14,0.96,0
0.0086632,-0.0065879,0.02741,0.00048569,0.0083688,-0.0010166,0,0,0.049508,-0.020496,0,-0.0052865,0,0,0,0.027456,0.00044023,0.0083688,-2.139,0.012088,0.024052,4.6261e-07,0.16,0.96,0
0.0096441,-0.0070226,0.026917,0.000376,0.0081879,-0.00071731,0,0,0.048695,-0.020311,0,-0.00373,0,0,0,0.02694,0.00035246,0.0081879,-1.5321,0.011827,0.023664,4.3839e-07,0.18,0.96,0
0.010611,-0.0074,0.026553,0.00029758,0.0080553,-0.00048263,0,0,0.048095,-0.02017,0,-0.0025097,0,0,0,0.026565,0.00028632,0.0080553,-1.0423,0.011635,0.023383,4.2127e-07,0.2,0.96,0
0.011568,-0.0077264,0.026295,0.0002396,0.0079604,-0.00029514,0,0,0.04767,-0.020074,0,-0.0015347,0,0,0,0.0263,0.00023494,0.0079604,-0.64211,0.011498,0.023188,4.0955e-07,0.22,0.96,0
0.012518,-0.0080072,0.026123,0.00019532,0.0078955,-0.00014319,0,0,0.047391,-0.02002,0,-0.0007446,0,0,0,0.026124,0.00019384,0.0078955,-0.31244,0.011405,0.023065,4.02e-07,0.24,0.96,0
0.013464,-0.0082472,0.026022,0.0001604,0.0078547,-1.884e-05,0,0,0.047235,-0.020005,0,-9.7967e-05,0,0,0,0.026022,0.00016003,0.0078547,-0.039896,0.011346,0.023001,3.9778e-07,0.26,0.96,0
0.014407,-0.0084506,0.025979,0.00013194,0.0078333,8.3403e-05,0,0,0.047179,-0.020024,0,0.0004337,0,0,0,0.02598,0.00013147,0.0078333,0.18515,0.011315,0.022986,3.9625e-07,0.28,0.96,0
0.015351,-0.0086215,0.025985,0.00010795,0.0078279,0.00016735,0,0,0.047209,-0.020072,0,0.00087025,0,0,0,0.025986,0.00010672,0.0078279,0.36969,0.011307,0.023012,3.9691e-07,0.3,0.96,0
0.016296,-0.0087632,0.026031,8.7052e-05,0.0078354,0.00023568,0,0,0.047308,-0.020146,0,0.0012255,0,0,0,0.026033,8.4746e-05,0.0078354,0.51887,0.011318,0.023071,3.9938e-07,0.32,0.96,0
0.017243,-0.0088794,0.026109,6.8292e-05,0.0078532,0.00029023,0,0,0.047465,-0.020241,0,0.0015092,0,0,0,0.026113,6.4841e-05,0.0078532,0.63649,0.011344,0.023158,4.0334e-07,0.34,0.96,0
0.018194,-0.0089732,0.026213,5.1013e-05,0.0078793,0.00033231,0,0,0.047669,-0.020354,0,0.001728,0,0,0,0.026218,4.6512e-05,0.0078793,0.72545,0.011381,0.023266,4.0852e-07,0.36,0.96,0
0.01915,-0.0090478,0.026338,3.4791e-05,0.0079118,0.00036285,0,0,0.047908,-0.02048,0,0.0018868,0,0,0,0.026343,2.9442e-05,0.0079118,0.78803,0.011428,0.023391,4.1466e-07,0.38,0.96,0
0.020111,-0.009106,0.026477,1.9383e-05,0.0079489,0.00038251,0,0,0.048173,-0.020617,0,0.0019891,0,0,0,0.026483,1.3458e-05,0.0079489,0.82611,0.011482,0.023528,4.2153e-07,0.4,0.96,0
0.021077,-0.0091507,0.026625,4.697e-06,0.007989,0.00039187,0,0,0.048454,-0.020759,0,0.0020377,0,0,0,0.026632,-1.5011e-06,0.007989,0.8414,0.01154,0.023672,4.2891e-07,0.42,0.96,0
0.022049,-0.0091847,0.026779,-9.241e-06,0.0080308,0.00039147,0,0,0.048744,-0.020904,0,0.0020356,0,0,0,0.026785,-1.5405e-05,0.0080308,0.83555,0.0116,0.023819,4.3658e-07,0.44,0.96,0
0.023027,-0.0092105,0.026932,-2.231e-05,0.008073,0.00038187,0,0,0.049034,-0.021048,0,0.0019857,0,0,0,0.026938,-2.8156e-05,0.008073,0.81029,0.011661,0.023966,4.4432e-07,0.46,0.96,0
0.02401,-0.0092305,0.027082,-3.4321e-05,0.0081143,0.00036375,0,0,0.049316,-0.021187,0,0.0018915,0,0,0,0.027087,-3.9611e-05,0.0081143,0.76749,0.011721,0.024108,4.5194e-07,0.48,0.96,0
0.024999,-0.0092468,0.027224,-4.5046e-05,0.0081538,0.00033792,0,0,0.049584,-0.021317,0,0.0017572,0,0,0,0.027229,-4.9601e-05,0.0081538,0.7092,0.011778,0.024241,4.5922e-07,0.5,0.96,0
0.025993,-0.0092615,0.027356,-5.424e-05,0.0081905,0.00030533,0,0,0.04983,-0.021436,0,0.0015877,0,0,0,0.02736,-5.7956e-05,0.0081905,0.6377,0.011831,0.024364,4.66e-07,0.52,0.96,0
0.026992,-0.0092763,0.027474,-6.1673e-05,0.0082236,0.0002671,0,0,0.05005,-0.021542,0,0.0013889,0,0,0,0.027477,-6.4521e-05,0.0082236,0.55547,0.011879,0.024473,4.7211e-07,0.54,0.96,0
0.027995,-0.0092928,0.027576,-6.7152e-05,0.0082525,0.00022449,0,0,0.05024,-0.021631,0,0.0011674,0,0,0,0.027578,-6.9174e-05,0.0082525,0.46514,0.01192,0.024567,4.7741e-07,0.56,0.96,0
0.029002,-0.009312,0.02766,-7.0543e-05,0.0082767,0.00017885,0,0,0.050395,-0.021703,0,0.00093001,0,0,0,0.027661,-7.1842e-05,0.0082767,0.36947,0.011955,0.024643,4.8179e-07,0.58,0.96,0
0.030011,-0.009335,0.027725,-7.1784e-05,0.0082959,0.0001316,0,0,0.050515,-0.021756,0,0.00068431,0,0,0,0.027725,-7.2508e-05,0.0082959,0.27125,0.011983,0.024701,4.8517e-07,0.6,0.96,0
0.031023,-0.0093624,0.02777,-7.0897e-05,0.0083098,8.4174e-05,0,0,0.050597,-0.02179,0,0.0004377,0,0,0,0.027771,-7.1219e-05,0.0083098,0.17323,0.012003,0.02474,4.8753e-07,0.62,0.96,0
0.032035,-0.0093944,0.027797,-6.7989e-05,0.0083186,3.7964e-05,0,0,0.050643,-0.021805,0,0.00019741,0,0,0,0.027797,-6.8086e-05,0.0083186,0.078066,0.012016,0.024761,4.8884e-07,0.64,0.96,0
0.033048,-0.0094312,0.027805,-6.3245e-05,0.0083224,-5.7388e-06,0,0,0.050654,-0.021803,0,-2.9842e-05,0,0,0,0.027805,-6.3281e-05,0.0083224,-0.011809,0.012021,0.024764,4.8916e-07,0.66,0.96,0
0.034061,-0.0094726,0.027795,-5.6919e-05,0.0083214,-4.5791e-05,0,0,0.050631,-0.021784,0,-0.00023811,0,0,0,0.027795,-5.7029e-05,0.0083214,-0.094221,0.01202,0.02475,4.8854e-07,0.68,0.96,0
0.035073,-0.009518,0.027769,-4.9319e-05,0.008316,-8.1234e-05,0,0,0.050579,-0.02175,0,-0.00042242,0,0,0,0.02777,-4.9599e-05,0.008316,-0.16733,0.012012,0.024722,4.8707e-07,0.7,0.96,0
0.036084,-0.009567,0.02773,-4.0783e-05,0.0083068,-0.00011132,0,0,0.050501,-0.021704,0,-0.00057889,0,0,0,0.027731,-4.1283e-05,0.0083068,-0.22969,0.011999,0.024681,4.8487e-07,0.72,0.96,0
0.037094,-0.0096186,0.02768,-3.166e-05,0.0082944,-0.00013555,0,0,0.050402,-0.021648,0,-0.00070486,0,0,0,0.02768,-3.2391e-05,0.0082944,-0.28025,0.011981,0.024629,4.8207e-07,0.74,0.96,0
0.0381,-0.0096721,0.02762,-2.2292e-05,0.0082793,-0.00015363,0,0,0.050286,-0.021584,0,-0.00079886,0,0,0,0.027621,-2.3227e-05,0.0082793,-0.31838,0.011959,0.024569,4.7881e-07,0.76,0.96,0
0.039105,-0.0097263,0.027554,-1.2993e-05,0.0082623,-0.00016549,0,0,0.050159,-0.021516,0,-0.00086054,0,0,0,0.027555,-1.4076e-05,0.0082623,-0.34386,0.011934,0.024503,4.7522e-07,0.78,0.96,0
0.040107,-0.0097803,0.027484,-4.0342e-06,0.0082441,-0.00017127,0,0,0.050024,-0.021445,0,-0.00089059,0,0,0,0.027485,-5.1966e-06,0.0082441,-0.35684,0.011908,0.024434,4.7146e-07,0.8,0.96,0
0.041106,-0.0098329,0.027413,4.3604e-06,0.0082252,-0.00017125,0,0,0.049888,-0.021374,0,-0.00089052,0,0,0,0.027414,3.1949e-06,0.0082252,-0.35781,0.011881,0.024364,4.6766e-07,0.82,0.96,0
0.042102,-0.0098831,0.027343,1.2022e-05,0.0082065,-0.00016588,0,0,0.049755,-0.021306,0,-0.00086258,0,0,0,0.027344,1.0924e-05,0.0082065,-0.34753,0.011854,0.024295,4.6394e-07,0.84,0.96,0
0.043096,-0.00993,0.027276,1.8834e-05,0.0081884,-0.00015567,0,0,0.049627,-0.021241,0,-0.00080948,0,0,0,0.027277,1.7863e-05,0.0081884,-0.32699,0.011828,0.02423,4.604e-07,0.86,0.96,0
0.044087,-0.0099727,0.027214,2.4727e-05,0.0081716,-0.00014121,0,0,0.04951,-0.021182,0,-0.00073427,0,0,0,0.027215,2.3924e-05,0.0081716,-0.29732,0.011803,0.02417,4.5715e-07,0.88,0.96,0
0.045077,-0.01001,0.027159,2.9673e-05,0.0081565,-0.00012311,0,0,0.049406,-0.02113,0,-0.00064018,0,0,0,0.027159,2.9057e-05,0.0081565,-0.25977,0.011782,0.024117,4.5427e-07,0.9,0.96,0
0.046064,-0.010042,0.027112,3.367e-05,0.0081436,-0.00010202,0,0,0.049317,-0.021086,0,-0.0005305,0,0,0,0.027112,3.3242e-05,0.0081436,-0.21566,0.011763,0.024071,4.5183e-07,0.92,0.96,0
0.047049,-0.010067,0.027074,3.6737e-05,0.0081332,-7.8555e-05,0,0,0.049246,-0.021051,0,-0.00040849,0,0,0,0.027074,3.6477e-05,0.0081332,-0.1663,0.011748,0.024035,4.4988e-07,0.94,0.96,0
0.048033,-0.010086,0.027046,3.89e-05,0.0081255,-5.3334e-05,0,0,0.049194,-0.021025,0,-0.00027734,0,0,0,0.027046,3.8772e-05,0.0081255,-0.11303,0.011737,0.024008,4.4846e-07,0.96,0.96,0
0.049017,-0.010097,0.027029,4.0186e-05,0.0081209,-3.6017e-05,0,0,0.049162,-0.02101,0,-0.00018729,0,0,0,0.02703,4.013e-05,0.0081209,-0.076404,0.01173,0.023992,4.4759e-07,0.98,0.96,0
0.049509,-0.010101,0.027024,4.0612e-05,0.0081193,-3.1673e-05,0,0,0.049152,-0.021005,0,-0.0001647,0,0,0,0.027024,4.0573e-05,0.0081193,-0.067228,0.011728,0.023987,4.473e-07,1,0.96,0
0.00068128,-0.00071201,0.042433,0.012265,0.016409,-0.010942,0,0,0.067661,-0.010776,0,-0.0569,0,0,0,0.046356,0.0083411,0.016409,-18.299,0.023702,0.03476,2.0186e-06,0,0.98,0
0.0013532,-0.0013774,0.039991,0.00806,0.014415,-0.0087723,0,0,0.066496,-0.016523,0,-0.045616,0,0,0,0.042664,0.0053865,0.014415,-14.604,0.020822,0.033738,1.6595e-06,0.02,0.98,0
0.0026598,-0.00261,0.035983,0.0029819,0.01169,-0.0053525,0,0,0.063163,-0.02264,0,-0.027833,0,0,0,0.037004,0.0019606,0.01169,-9.0107,0.016885,0.031337,1.12e-06,0.04,0.98,0
0.0038798,-0.0036529,0.033005,0.0015964,0.010381,-0.0033815,0,0,0.058825,-0.022839,0,-0.017584,0,0,0,0.033457,0.0011448,0.010381,-6.0002,0.014994,0.028828,8.299e-07,0.06,0.98,0
0.0050128,-0.0045332,0.030604,0.00085473,0.0094377,-0.0022307,0,0,0.055033,-0.022316,0,-0.011599,0,0,0,0.030816,0.00064299,0.0094377,-4.188,0.013632,0.026878,6.5569e-07,0.08,0.98,0
0.0060811,-0.0052864,0.028913,0.00050152,0.0088244,-0.0015296,0,0,0.052231,-0.021639,0,-0.0079539,0,0,0,0.029019,0.00039567,0.0088244,-3.0138,0.012746,0.025478,5.5081e-07,0.1,0.98,0
0.0071021,-0.0059373,0.02771,0.0003084,0.0084055,-0.0010753,0,0,0.050192,-0.021052,0,-0.0055915,0,0,0,0.027765,0.00025344,0.0084055,-2.2011,0.012141,0.024476,4.8409e-07,0.12,0.98,0
0.0080887,-0.0065033,0.026851,0.00019716,0.0081144,-0.00076254,0,0,0.048715,-0.020585,0,-0.0039652,0,0,0,0.02688,0.0001683,0.0081144,-1.6073,0.011721,0.023757,4.4011e-07,0.14,0.98,0
0.0090506,-0.0069964,0.026237,0.00012901,0.0079099,-0.00053663,0,0,0.047651,-0.02023,0,-0.0027905,0,0,0,0.026252,0.0001141,0.0079099,-1.1562,0.011425,0.023243,4.1049e-07,0.16,0.98,0
0.0099948,-0.0074263,0.025806,8.5438e-05,0.0077674,-0.00036707,0,0,0.0469,-0.019973,0,-0.0019088,0,0,0,0.025813,7.8114e-05,0.0077674,-0.80359,0.01122,0.022881,3.9052e-07,0.18,0.98,0
0.010927,-0.0078002,0.025513,5.659e-05,0.007671,-0.00023593,0,0,0.04639,-0.019797,0,-0.0012268,0,0,0,0.025517,5.3332e-05,0.007671,-0.52214,0.01108,0.022637,3.7737e-07,0.2,0.98,0
0.01185,-0.0081243,0.025329,3.695e-05,0.0076098,-0.00013213,0,0,0.04607,-0.01969,0,-0.00068705,0,0,0,0.02533,3.5748e-05,0.0076098,-0.29421,0.010992,0.022486,3.6927e-07,0.22,0.98,0
0.012769,-0.0084039,0.025232,2.3252e-05,0.0075764,-4.8531e-05,0,0,0.045903,-0.019638,0,-0.00025236,0,0,0,0.025232,2.2933e-05,0.0075764,-0.10791,0.010944,0.022408,3.6503e-07,0.24,0.98,0
0.013687,-0.0086436,0.025204,1.347e-05,0.0075652,1.9565e-05,0,0,0.04586,-0.019634,0,0.00010174,0,0,0,0.025204,1.3353e-05,0.0075652,0.044974,0.010927,0.022391,3.6384e-07,0.26,0.98,0
0.014604,-0.0088475,0.025233,6.2964e-06,0.0075718,7.5345e-05,0,0,0.045919,-0.01967,0,0.00039179,0,0,0,0.025233,5.9947e-06,0.0075718,0.17028,0.010937,0.022423,3.6513e-07,0.28,0.98,0
0.015523,-0.0090195,0.025309,8.5991e-07,0.007593,0.00012098,0,0,0.046062,-0.01974,0,0.00062908,0,0,0,0.02531,1.7381e-07,0.007593,0.27217,0.010968,0.022496,3.6846e-07,0.3,0.98,0
0.016446,-0.0091629,0.025423,-3.4361e-06,0.0076259,0.00015795,0,0,0.046273,-0.019836,0,0.00082132,0,0,0,0.025424,-4.5849e-06,0.0076259,0.3537,0.011015,0.022601,3.7349e-07,0.32,0.98,0
0.017374,-0.0092812,0.025568,-7.0037e-06,0.0076682,0.00018727,0,0,0.046539,-0.019956,0,0.0009738,0,0,0,0.025569,-8.6128e-06,0.0076682,0.41711,0.011076,0.022733,3.7991e-07,0.34,0.98,0
0.018308,-0.0093775,0.025736,-1.0126e-05,0.0077178,0.00020964,0,0,0.046848,-0.020093,0,0.0010901,0,0,0,0.025738,-1.2138e-05,0.0077178,0.46409,0.011148,0.022886,3.8749e-07,0.36,0.98,0
0.019248,-0.0094548,0.025922,-1.2989e-05,0.0077728,0.00022554,0,0,0.047189,-0.020243,0,0.0011728,0,0,0,0.025925,-1.5312e-05,0.0077728,0.49596,0.011227,0.023055,3.9598e-07,0.38,0.98,0
0.020195,-0.009516,0.026121,-1.5704e-05,0.0078315,0.00023533,0,0,0.047552,-0.020403,0,0.0012237,0,0,0,0.026123,-1.8226e-05,0.0078315,0.51382,0.011312,0.023233,4.0515e-07,0.4,0.98,0
0.02115,-0.0095638,0.026326,-1.8325e-05,0.0078922,0.00023928,0,0,0.047927,-0.020567,0,0.0012443,0,0,0,0.026328,-2.0922e-05,0.0078922,0.51867,0.0114,0.023418,4.1477e-07,0.42,0.98,0
0.022113,-0.0096008,0.026532,-2.0855e-05,0.0079534,0.00023769,0,0,0.048305,-0.020733,0,0.001236,0,0,0,0.026535,-2.3406e-05,0.0079534,0.51147,0.011488,0.023603,4.2462e-07,0.44,0.98,0
0.023082,-0.0096297,0.026736,-2.3258e-05,0.0080137,0.00023084,0,0,0.048677,-0.020896,0,0.0012004,0,0,0,0.026738,-2.5655e-05,0.0080137,0.49322,0.011575,0.023786,4.3446e-07,0.46,0.98,0
0.02406,-0.0096526,0.026931,-2.5472e-05,0.0080717,0.00021913,0,0,0.049035,-0.021053,0,0.0011395,0,0,0,0.026933,-2.7624e-05,0.0080717,0.465,0.011659,0.023961,4.4407e-07,0.48,0.98,0
0.025044,-0.0096717,0.027115,-2.7417e-05,0.0081263,0.00020299,0,0,0.049371,-0.0212,0,0.0010555,0,0,0,0.027117,-2.9259e-05,0.0081263,0.42802,0.011738,0.024125,4.5322e-07,0.5,0.98,0
0.026034,-0.0096889,0.027283,-2.9004e-05,0.0081763,0.00018298,0,0,0.049678,-0.021334,0,0.00095151,0,0,0,0.027285,-3.0499e-05,0.0081763,0.38361,0.01181,0.024276,4.617e-07,0.52,0.98,0
0.027031,-0.009706,0.027433,-3.0148e-05,0.0082209,0.00015975,0,0,0.049952,-0.021453,0,0.00083068,0,0,0,0.027434,-3.1288e-05,0.0082209,0.33318,0.011875,0.024409,4.6933e-07,0.54,0.98,0
0.028032,-0.0097243,0.027562,-3.0775e-05,0.0082592,0.00013401,0,0,0.050186,-0.021554,0,0.00069684,0,0,0,0.027562,-3.1581e-05,0.0082592,0.27828,0.01193,0.024523,4.7593e-07,0.56,0.98,0
0.029038,-0.0097451,0.027667,-3.0833e-05,0.0082908,0.00010656,0,0,0.050378,-0.021636,0,0.00055411,0,0,0,0.027667,-3.1349e-05,0.0082908,0.2205,0.011976,0.024616,4.8138e-07,0.58,0.98,0
0.030048,-0.0097693,0.027748,-3.0294e-05,0.0083153,7.8235e-05,0,0,0.050525,-0.021699,0,0.00040682,0,0,0,0.027748,-3.0581e-05,0.0083153,0.16145,0.012011,0.024688,4.856e-07,0.6,0.98,0
0.031059,-0.0097974,0.027805,-2.9163e-05,0.0083326,4.987e-05,0,0,0.050627,-0.021741,0,0.00025932,0,0,0,0.027805,-2.9289e-05,0.0083326,0.10272,0.012036,0.024737,4.8854e-07,0.62,0.98,0
0.032073,-0.0098299,0.027837,-2.7471e-05,0.0083428,2.2282e-05,0,0,0.050684,-0.021763,0,0.00011587,0,0,0,0.027837,-2.7509e-05,0.0083428,0.045848,0.012051,0.024764,4.9019e-07,0.64,0.98,0
0.033087,-0.0098667,0.027845,-2.5281e-05,0.008346,-3.7719e-06,0,0,0.050698,-0.021765,0,-1.9614e-05,0,0,0,0.027845,-2.5296e-05,0.008346,-0.0077603,0.012055,0.02477,4.9061e-07,0.66,0.98,0
0.034101,-0.0099077,0.027832,-2.2679e-05,0.0083429,-2.762e-05,0,0,0.050673,-0.021751,0,-0.00014362,0,0,0,0.027832,-2.2723e-05,0.0083429,-0.056848,0.012051,0.024756,4.8987e-07,0.68,0.98,0
0.035114,-0.0099526,0.0278,-1.9767e-05,0.008334,-4.8701e-05,0,0,0.050611,-0.02172,0,-0.00025324,0,0,0,0.0278,-1.9879e-05,0.008334,-0.10035,0.012038,0.024725,4.881e-07,0.7,0.98,0
0.036125,-0.010001,0.02775,-1.666e-05,0.00832,-6.6579e-05,0,0,0.050518,-0.021675,0,-0.00034621,0,0,0,0.02775,-1.6859e-05,0.00832,-0.13743,0.012018,0.024678,4.8544e-07,0.72,0.98,0
0.037134,-0.010051,0.027686,-1.3472e-05,0.0083018,-8.0955e-05,0,0,0.050399,-0.02162,0,-0.00042097,0,0,0,0.027686,-1.3762e-05,0.0083018,-0.16748,0.011991,0.024619,4.8204e-07,0.74,0.98,0
0.038141,-0.010103,0.027611,-1.0313e-05,0.0082803,-9.1665e-05,0,0,0.050261,-0.021556,0,-0.00047666,0,0,0,0.027612,-1.0683e-05,0.0082803,-0.19014,0.01196,0.02455,4.7809e-07,0.76,0.98,0
0.039145,-0.010156,0.027529,-7.2793e-06,0.0082564,-9.8675e-05,0,0,0.050108,-0.021486,0,-0.00051311,0,0,0,0.027529,-7.7087e-06,0.0082564,-0.20527,0.011926,0.024474,4.7376e-07,0.78,0.98,0
0.040145,-0.010209,0.027441,-4.4511e-06,0.008231,-0.00010206,0,0,0.049947,-0.021412,0,-0.00053073,0,0,0,0.027442,-4.9115e-06,0.008231,-0.21297,0.011889,0.024395,4.6922e-07,0.8,0.98,0
0.041143,-0.01026,0.027352,-1.8876e-06,0.0082052,-0.00010201,0,0,0.049783,-0.021338,0,-0.00053046,0,0,0,0.027353,-2.349e-06,0.0082052,-0.21352,0.011852,0.024314,4.6463e-07,0.82,0.98,0
0.042137,-0.010309,0.027265,3.7323e-07,0.0081796,-9.8774e-05,0,0,0.049622,-0.021266,0,-0.00051363,0,0,0,0.027265,-6.1246e-08,0.0081796,-0.20738,0.011815,0.024234,4.6014e-07,0.84,0.98,0
0.043128,-0.010354,0.027181,2.313e-06,0.0081551,-9.2665e-05,0,0,0.049468,-0.021197,0,-0.00048186,0,0,0,0.027182,1.9287e-06,0.0081551,-0.19513,0.01178,0.024158,4.5589e-07,0.86,0.98,0
0.044115,-0.010396,0.027104,3.9309e-06,0.0081325,-8.4033e-05,0,0,0.049327,-0.021134,0,-0.00043697,0,0,0,0.027105,3.6128e-06,0.0081325,-0.17743,0.011747,0.024088,4.5199e-07,0.88,0.98,0
0.045101,-0.010432,0.027036,5.2393e-06,0.0081123,-7.3249e-05,0,0,0.049201,-0.021078,0,-0.00038089,0,0,0,0.027036,4.9955e-06,0.0081123,-0.15504,0.011718,0.024026,4.4854e-07,0.9,0.98,0
0.046083,-0.010463,0.026977,6.2596e-06,0.008095,-6.0688e-05,0,0,0.049093,-0.021031,0,-0.00031558,0,0,0,0.026977,6.09e-06,0.008095,-0.12872,0.011693,0.023973,4.4561e-07,0.92,0.98,0
0.047064,-0.010488,0.02693,7.017e-06,0.0080812,-4.6723e-05,0,0,0.049007,-0.020993,0,-0.00024296,0,0,0,0.02693,6.9139e-06,0.0080812,-0.099263,0.011673,0.023931,4.4327e-07,0.94,0.98,0
0.048044,-0.010506,0.026896,7.5366e-06,0.008071,-3.172e-05,0,0,0.048945,-0.020965,0,-0.00016494,0,0,0,0.026896,7.4859e-06,0.008071,-0.067469,0.011658,0.0239,4.4157e-07,0.96,0.98,0
0.049022,-0.010516,0.026875,7.8392e-06,0.0080649,-2.4832e-05,0,0,0.048906,-0.020948,0,-0.00012913,0,0,0,0.026875,7.8103e-06,0.0080649,-0.052898,0.011649,0.023881,4.4054e-07,0.98,0.98,0
0.049511,-0.01052,0.026868,7.9384e-06,0.0080628,-2.5661e-05,0,0,0.048894,-0.020943,0,-0.00013344,0,0,0,0.026868,7.9095e-06,0.0080628,-0.054711,0.011646,0.023875,4.4019e-07,1,0.98,0
0.00080361,-0.00082331,0.048461,0.01335,0.018543,-0.011785,0,0,0.077786,-0.013503,0,-0.06128,0,0,0,0.052556,0.0092547,0.018543,-17.004,0.026785,0.039577,2.8983e-06,0,1,0
0.0015557,-0.0015485,0.04415,0.0080828,0.01567,-0.0087697,0,0,0.074048,-0.019726,0,-0.045602,0,0,0,0.04669,0.0055429,0.01567,-12.772,0.022634,0.037203,2.2211e-06,0.02,1,0
0.0029619,-0.002844,0.037185,0.0021049,0.011787,-0.0043762,0,0,0.066035,-0.025173,0,-0.022756,0,0,0,0.037836,0.0014543,0.011787,-6.7913,0.017026,0.032473,1.2425e-06,0.04,1,0
0.0041971,-0.0038867,0.032728,0.00093617,0.010099,-0.002407,0,0,0.058835,-0.023824,0,-0.012516,0,0,0,0.03295,0.00071496,0.010099,-4.1933,0.014588,0.028718,8.0935e-07,0.06,1,0
0.0053153,-0.0047592,0.029857,0.00033054,0.0090563,-0.0014983,0,0,0.054082,-0.022687,0,-0.0077909,0,0,0,0.029949,0.00023905,0.0090563,-2.8332,0.013081,0.026429,6.1182e-07,0.08,1,0
0.0063604,-0.0055042,0.028083,0.00011188,0.0084585,-0.00099282,0,0,0.051024,-0.021701,0,-0.0051626,0,0,0,0.028126,6.9284e-05,0.0084585,-1.9923,0.012218,0.024944,5.0772e-07,0.1,1,0
0.0073563,-0.0061485,0.026898,7.8857e-06,0.0080718,-0.00068329,0,0,0.048949,-0.020966,0,-0.0035531,0,0,0,0.026919,-1.3187e-05,0.0080718,-1.4312,0.011659,0.023937,4.4548e-07,0.12,1,0
0.0083183,-0.0067092,0.026088,-4.1792e-05,0.007814,-0.00047632,0,0,0.047514,-0.020425,0,-0.0024769,0,0,0,0.026099,-5.2426e-05,0.007814,-1.0291,0.011287,0.02324,4.0605e-07,0.14,1,0
0.0092568,-0.0071986,0.025532,-6.66e-05,0.0076395,-0.00032936,0,0,0.04652,-0.020036,0,-0.0017127,0,0,0,0.025537,-7.1872e-05,0.0076395,-0.72765,0.011035,0.022755,3.8033e-07,0.16,1,0
0.010179,-0.0076257,0.025157,-7.8346e-05,0.0075235,-0.00022017,0,0,0.045846,-0.019765,0,-0.0011449,0,0,0,0.025159,-8.0807e-05,0.0075235,-0.49404,0.010867,0.022427,3.636e-07,0.18,1,0
0.011091,-0.0079977,0.024918,-8.2916e-05,0.0074504,-0.00013625,0,0,0.045415,-0.019587,0,-0.00070851,0,0,0,0.024919,-8.3929e-05,0.0074504,-0.30886,0.010762,0.022215,3.5317e-07,0.2,1,0
0.011996,-0.0083207,0.024784,-8.3336e-05,0.0074102,-7.0079e-05,0,0,0.045172,-0.019483,0,-0.00036441,0,0,0,0.024784,-8.3663e-05,0.0074102,-0.15973,0.010704,0.022096,3.4737e-07,0.22,1,0
0.012898,-0.0085998,0.024734,-8.129e-05,0.0073958,-1.6921e-05,0,0,0.045079,-0.01944,0,-8.7987e-05,0,0,0,0.024734,-8.1362e-05,0.0073958,-0.038468,0.010683,0.022049,3.4513e-07,0.24,1,0
0.013799,-0.0088395,0.024751,-7.776e-05,0.0074021,2.6312e-05,0,0,0.045108,-0.019448,0,0.00013682,0,0,0,0.024751,-7.7823e-05,0.0074021,0.060559,0.010692,0.022062,3.4573e-07,0.26,1,0
0.014702,-0.0090438,0.024823,-7.3348e-05,0.007425,6.1678e-05,0,0,0.045236,-0.019496,0,0.00032073,0,0,0,0.024824,-7.3536e-05,0.007425,0.14129,0.010725,0.022123,3.4864e-07,0.28,1,0
0.015608,-0.0092164,0.02494,-6.8441e-05,0.0074616,9.0567e-05,0,0,0.045445,-0.019578,0,0.00047095,0,0,0,0.024941,-6.8818e-05,0.0074616,0.20655,0.010778,0.022223,3.5347e-07,0.3,1,0
0.01652,-0.0093609,0.025094,-6.3295e-05,0.0075091,0.00011392,0,0,0.04572,-0.019688,0,0.00059237,0,0,0,0.025094,-6.388e-05,0.0075091,0.25837,0.010846,0.022355,3.5991e-07,0.32,1,0
0.017437,-0.0094804,0.025276,-5.8089e-05,0.0075653,0.00013237,0,0,0.046047,-0.019821,0,0.00068831,0,0,0,0.025277,-5.8871e-05,0.0075653,0.29825,0.010928,0.022513,3.677e-07,0.34,1,0
0.018362,-0.0095781,0.025481,-5.2951e-05,0.0076283,0.00014634,0,0,0.046416,-0.019971,0,0.00076096,0,0,0,0.025482,-5.3899e-05,0.0076283,0.32732,0.011019,0.022692,3.766e-07,0.36,1,0
0.019294,-0.0096569,0.025702,-4.7971e-05,0.0076961,0.00015613,0,0,0.046814,-0.020135,0,0.00081186,0,0,0,0.025703,-4.9043e-05,0.0076961,0.34645,0.011117,0.022884,3.8638e-07,0.38,1,0
0.020234,-0.0097197,0.025933,-4.3215e-05,0.007767,0.00016194,0,0,0.047232,-0.020307,0,0.00084208,0,0,0,0.025934,-4.436e-05,0.007767,0.35637,0.011219,0.023086,3.9681e-07,0.4,1,0
0.021183,-0.0097692,0.02617,-3.873e-05,0.0078393,0.00016394,0,0,0.047659,-0.020483,0,0.00085251,0,0,0,0.026171,-3.9895e-05,0.0078393,0.35776,0.011324,0.023293,4.0768e-07,0.42,1,0
0.022141,-0.0098079,0.026406,-3.4543e-05,0.0079115,0.00016231,0,0,0.048087,-0.02066,0,0.00084402,0,0,0,0.026408,-3.5678e-05,0.0079115,0.35124,0.011428,0.0235,4.1873e-07,0.44,1,0
0.023107,-0.0098384,0.026638,-3.0671e-05,0.0079821,0.00015723,0,0,0.048504,-0.020833,0,0.0008176,0,0,0,0.026639,-3.1729e-05,0.0079821,0.33748,0.01153,0.023702,4.2974e-07,0.46,1,0
0.024081,-0.0098629,0.026859,-2.7118e-05,0.0080496,0.00014894,0,0,0.048904,-0.020999,0,0.00077449,0,0,0,0.02686,-2.8062e-05,0.0080496,0.31721,0.011627,0.023896,4.4045e-07,0.48,1,0
0.025063,-0.0098835,0.027066,-2.3879e-05,0.0081126,0.00013773,0,0,0.049279,-0.021155,0,0.00071621,0,0,0,0.027067,-2.4683e-05,0.0081126,0.29123,0.011718,0.024077,4.5063e-07,0.5,1,0
0.026052,-0.0099021,0.027255,-2.0943e-05,0.0081702,0.00012397,0,0,0.04962,-0.021297,0,0.00064463,0,0,0,0.027255,-2.1593e-05,0.0081702,0.26042,0.011801,0.024242,4.6005e-07,0.52,1,0
0.027047,-0.0099204,0.027422,-1.8297e-05,0.0082212,0.00010807,0,0,0.049923,-0.021423,0,0.00056198,0,0,0,0.027423,-1.8791e-05,0.0082212,0.22572,0.011875,0.024389,4.6851e-07,0.54,1,0
0.028049,-0.0099397,0.027565,-1.5925e-05,0.0082648,9.0533e-05,0,0,0.050181,-0.02153,0,0.00047077,0,0,0,0.027566,-1.6273e-05,0.0082648,0.18816,0.011938,0.024514,4.7582e-07,0.56,1,0
0.029055,-0.0099614,0.027682,-1.3814e-05,0.0083005,7.1874e-05,0,0,0.050392,-0.021617,0,0.00037375,0,0,0,0.027682,-1.4035e-05,0.0083005,0.14878,0.01199,0.024616,4.8185e-07,0.58,1,0
0.030064,-0.0099862,0.027772,-1.1951e-05,0.008328,5.2654e-05,0,0,0.050554,-0.021684,0,0.0002738,0,0,0,0.027772,-1.2073e-05,0.008328,0.10866,0.012029,0.024694,4.865e-07,0.6,1,0
0.031077,-0.010015,0.027834,-1.0329e-05,0.008347,3.3436e-05,0,0,0.050666,-0.021729,0,0.00017387,0,0,0,0.027834,-1.0383e-05,0.008347,0.068857,0.012057,0.024748,4.8972e-07,0.62,1,0
0.032091,-0.010047,0.027868,-8.944e-06,0.0083579,1.4765e-05,0,0,0.050728,-0.021754,0,7.6778e-05,0,0,0,0.027868,-8.9599e-06,0.0083579,0.030371,0.012072,0.024777,4.9152e-07,0.64,1,0
0.033106,-0.010084,0.027877,-7.7946e-06,0.0083608,-2.8496e-06,0,0,0.050742,-0.021758,0,-1.4818e-05,0,0,0,0.027877,-7.8008e-06,0.0083608,-0.0058597,0.012077,0.024784,4.9195e-07,0.66,1,0
0.034121,-0.010125,0.027861,-6.8817e-06,0.0083563,-1.8958e-05,0,0,0.050713,-0.021744,0,-9.8579e-05,0,0,0,0.027861,-6.9011e-06,0.0083563,-0.039003,0.01207,0.024769,4.911e-07,0.68,1,0
0.035135,-0.01017,0.027824,-6.2063e-06,0.0083452,-3.3183e-05,0,0,0.050644,-0.021714,0,-0.00017255,0,0,0,0.027824,-6.255e-06,0.0083452,-0.068357,0.012054,0.024735,4.891e-07,0.7,1,0
0.036147,-0.010217,0.027767,-5.7673e-06,0.0083284,-4.5234e-05,0,0,0.050541,-0.021669,0,-0.00023522,0,0,0,0.027767,-5.8539e-06,0.0083284,-0.093361,0.01203,0.024685,4.8612e-07,0.72,1,0
0.037156,-0.010267,0.027695,-5.5599e-06,0.0083068,-5.4912e-05,0,0,0.050409,-0.021612,0,-0.00028554,0,0,0,0.027695,-5.6858e-06,0.0083068,-0.11362,0.011999,0.02462,4.8234e-07,0.74,1,0
0.038163,-0.010319,0.027611,-5.5736e-06,0.0082815,-6.2109e-05,0,0,0.050256,-0.021546,0,-0.00032297,0,0,0,0.027611,-5.734e-06,0.0082815,-0.12888,0.011962,0.024546,4.7796e-07,0.76,1,0
0.039166,-0.010371,0.027518,-5.7911e-06,0.0082536,-6.6804e-05,0,0,0.050087,-0.021474,0,-0.00034738,0,0,0,0.027518,-5.9767e-06,0.0082536,-0.13906,0.011922,0.024463,4.7316e-07,0.78,1,0
0.040166,-0.010423,0.02742,-6.1878e-06,0.0082242,-6.9054e-05,0,0,0.049909,-0.021399,0,-0.00035908,0,0,0,0.02742,-6.3867e-06,0.0082242,-0.14423,0.011879,0.024377,4.6814e-07,0.8,1,0
0.041163,-0.010473,0.027321,-6.7323e-06,0.0081942,-6.8982e-05,0,0,0.049729,-0.021322,0,-0.0003587,0,0,0,0.027321,-6.9314e-06,0.0081942,-0.14457,0.011836,0.024289,4.6309e-07,0.82,1,0
0.042156,-0.010521,0.027223,-7.3868e-06,0.0081647,-6.6762e-05,0,0,0.049552,-0.021247,0,-0.00034716,0,0,0,0.027223,-7.5741e-06,0.0081647,-0.1404,0.011793,0.024203,4.5815e-07,0.84,1,0
0.043145,-0.010566,0.02713,-8.1091e-06,0.0081365,-6.2608e-05,0,0,0.049383,-0.021176,0,-0.00032556,0,0,0,0.02713,-8.2747e-06,0.0081365,-0.13209,0.011753,0.02412,4.5347e-07,0.86,1,0
0.044131,-0.010607,0.027044,-8.8546e-06,0.0081105,-5.6757e-05,0,0,0.049227,-0.02111,0,-0.00029514,0,0,0,0.027044,-8.9916e-06,0.0081105,-0.12011,0.011715,0.024045,4.4919e-07,0.88,1,0
0.045114,-0.010643,0.026968,-9.5784e-06,0.0080874,-4.946e-05,0,0,0.049088,-0.021052,0,-0.00025719,0,0,0,0.026968,-9.6834e-06,0.0080874,-0.10494,0.011682,0.023977,4.4541e-07,0.9,1,0
0.046094,-0.010673,0.026902,-1.0238e-05,0.0080677,-4.0969e-05,0,0,0.04897,-0.021003,0,-0.00021304,0,0,0,0.026903,-1.0311e-05,0.0080677,-0.087126,0.011653,0.02392,4.422e-07,0.92,1,0
0.047073,-0.010698,0.02685,-1.0795e-05,0.0080518,-3.1536e-05,0,0,0.048876,-0.020963,0,-0.00016399,0,0,0,0.02685,-1.0839e-05,0.0080518,-0.06719,0.01163,0.023874,4.3964e-07,0.94,1,0
0.048049,-0.010715,0.026812,-1.1216e-05,0.0080403,-2.1406e-05,0,0,0.048807,-0.020934,0,-0.00011131,0,0,0,0.026812,-1.1238e-05,0.0080403,-0.045669,0.011614,0.02384,4.3778e-07,0.96,1,0
0.049025,-0.010726,0.026789,-1.148e-05,0.0080333,-1.9481e-05,0,0,0.048765,-0.020916,0,-0.0001013,0,0,0,0.026789,-1.1498e-05,0.0080333,-0.041627,0.011604,0.02382,4.3665e-07,0.98,1,0
0.049513,-0.010729,0.026781,-1.1569e-05,0.0080309,-2.2766e-05,0,0,0.048751,-0.02091,0,-0.00011838,0,0,0,0.026781,-1.1594e-05,0.0080309,-0.048674,0.0116,0.023813,4.3627e-07,1,1,0
