"Displacements:0","Displacements:1","Stress/Strain:0","Stress/Strain:1","Stress/Strain:2","Stress/Strain:3","Stress/Strain:4","Stress/Strain:5","Stress/Strain:6","Stress/Strain:7","Stress/Strain:8","Stress/Strain:9","Stress/Strain:10","Stress/Strain:11","Stress/Strain:12","Principal Stress:0","Principal Stress:1","Principal Stress:2","Principal Stress:3","Principal Stress:4","Principal Stress:5","Principal Stress:6","nodes:0","nodes:1","nodes:2"
0.01249,0.013117,0.15038,0.0416,0.057593,0.037689,0,0,1.2062,-0.20791,0,0.97992,0,0,0,0.16375,0.028231,0.057593,17.413,0.08319,0.12375,8.8592e-05,0,0,0
0.024124,0.024685,0.13653,0.025225,0.048527,0.028196,0,0,1.1441,-0.30292,0,0.73309,0,0,0,0.14489,0.016865,0.048527,13.202,0.070094,0.1157,6.7133e-05,0.02,0,0
0.045762,0.045333,0.11385,0.0065421,0.036118,0.014372,0,0,1.0105,-0.38449,0,0.37367,0,0,0,0.1161,0.0042907,0.036118,7.2598,0.052171,0.099785,3.6227e-05,0.04,0,0
0.064546,0.061843,0.098876,0.0027344,0.030483,0.0082011,0,0,0.88911,-0.36073,0,0.21323,0,0,0,0.099703,0.0019072,0.030483,4.7042,0.044031,0.087104,2.2642e-05,0.06,0,0
0.081327,0.075442,0.088858,0.0007213,0.026874,0.0054053,0,0,0.8058,-0.33998,0,0.14054,0,0,0,0.089244,0.00033613,0.026874,3.4098,0.038818,0.079057,1.6377e-05,0.08,0,0
0.096777,0.086759,0.082172,-5.3307e-05,0.024636,0.0039232,0,0,0.74798,-0.32096,0,0.102,0,0,0,0.082388,-0.00026899,0.024636,2.666,0.035585,0.073446,1.2936e-05,0.1,0,0
0.11125,0.096168,0.077168,-0.00044628,0.023017,0.0030797,0,0,0.70397,-0.30502,0,0.080072,0,0,0,0.077308,-0.0005857,0.023017,2.2233,0.033246,0.069183,1.0719e-05,0.12,0,0
0.12494,0.10387,0.073164,-0.00064139,0.021757,0.0025491,0,0,0.66829,-0.29118,0,0.066277,0,0,0,0.073264,-0.00074116,0.021757,1.9375,0.031426,0.065713,9.1431e-06,0.14,0,0
0.13798,0.10994,0.069824,-0.00071636,0.020732,0.0021565,0,0,0.63819,-0.27883,0,0.056068,0,0,0,0.069898,-0.00079089,0.020732,1.7148,0.029947,0.062761,7.9515e-06,0.16,0,0
0.15046,0.1144,0.067042,-0.00069131,0.019905,0.0017839,0,0,0.61278,-0.26776,0,0.046382,0,0,0,0.067096,-0.00074488,0.019905,1.4756,0.028752,0.060234,7.0332e-06,0.18,0,0
0.16249,0.1172,0.06486,-0.00058372,0.019283,0.001352,0,0,0.5925,-0.25827,0,0.035153,0,0,0,0.064893,-0.00061688,0.019283,1.1551,0.027853,0.058174,6.3505e-06,0.2,0,0
0.17416,0.11831,0.063386,-0.00044541,0.018882,0.00083628,0,0,0.57855,-0.25126,0,0.021743,0,0,0,0.063401,-0.0004606,0.018882,0.73055,0.027274,0.056723,5.9007e-06,0.22,0,0
0.18563,0.11775,0.062682,-0.00037667,0.018692,0.00030237,0,0,0.57188,-0.24789,0,0.0078618,0,0,0,0.062686,-0.00038089,0.018692,0.2656,0.026999,0.056023,5.683e-06,0.24,0,0
0.19704,0.11565,0.06263,-0.00049009,0.018642,-8.1158e-05,0,0,0.57185,-0.24872,0,-0.0021101,0,0,0,0.062631,-0.00049099,0.018642,-0.075775,0.026927,0.056061,5.6624e-06,0.26,0,0
0.2085,0.11236,0.062831,-0.00081828,0.018604,-8.7678e-05,0,0,0.57495,-0.25249,0,-0.0022796,0,0,0,0.062832,-0.00081933,0.018604,-0.081572,0.026872,0.056502,5.7316e-06,0.28,0,0
0.22004,0.10833,0.062603,-0.0013007,0.018391,0.00045184,0,0,0.57476,-0.25599,0,0.011748,0,0,0,0.062615,-0.0013126,0.018391,0.40075,0.026564,0.056705,5.7068e-06,0.3,0,0
0.23149,0.10409,0.06107,-0.0016734,0.017819,0.001587,0,0,0.56226,-0.2534,0,0.041262,0,0,0,0.061138,-0.0017421,0.017819,1.4637,0.025738,0.05574,5.356e-06,0.32,0,0
0.24253,0.10009,0.057744,-0.0017368,0.016802,0.0034414,0,0,0.53224,-0.241,0,0.089476,0,0,0,0.058087,-0.0020803,0.016802,3.3845,0.02427,0.053308,4.6407e-06,0.34,0,0
0.25278,0.097048,0.052937,-0.00081917,0.015635,0.0053679,0,0,0.48492,-0.21391,0,0.13957,0,0,0,0.053716,-0.0015988,0.015635,5.8727,0.022584,0.04904,3.695e-06,0.36,0,0
0.26192,0.096111,0.046571,0.001316,0.014366,0.0057696,0,0,0.41866,-0.16965,0,0.15001,0,0,0,0.047479,0.00040788,0.014366,7.3999,0.020751,0.041887,2.5437e-06,0.38,0,0
0.26953,0.09735,0.03964,0.0024977,0.012641,0.0045817,0,0,0.32895,-0.11744,0,0.12109,0,0,0,0.04036,0.0017773,0.012641,7.3388,0.01826,0.034495,1.5071e-06,0.4,0,0
0.2753,0.099677,0.035192,0.002678,0.011361,0.0026868,0,0,0.2437,-0.075238,0,0.062257,0,0,0,0.035781,0.0020895,0.011361,4.7722,0.01641,0.030216,1.0275e-06,0.42,0,0
0.2799,0.1028,0.033494,0.0033606,0.011056,0.0002387,0,0,0.22559,-0.068039,0,-0.014887,0,0,0,0.033966,0.0028885,0.011056,-0.3086,0.01597,0.027952,8.9132e-07,0.44,0,0
0.2849,0.10681,0.033987,0.0031416,0.011139,-0.0021687,0,0,0.27499,-0.09517,0,-0.067914,0,0,0,0.034367,0.0027615,0.011139,-4.4336,0.016089,0.028372,9.0471e-07,0.46,0,0
0.29108,0.11171,0.037285,0.0013906,0.011603,-0.003671,0,0,0.33387,-0.13276,0,-0.095446,0,0,0,0.037762,0.00091285,0.011603,-5.9272,0.016759,0.032849,1.2454e-06,0.48,0,0
0.29826,0.11818,0.041287,-0.00046133,0.012248,-0.0035782,0,0,0.37751,-0.16522,0,-0.093034,0,0,0,0.041747,-0.00092067,0.012248,-5.0727,0.017691,0.037854,1.7197e-06,0.5,0,0
0.30618,0.12633,0.044293,-0.0012313,0.012919,-0.0021706,0,0,0.40787,-0.18395,0,-0.056435,0,0,0,0.044492,-0.0014304,0.012919,-2.8074,0.01866,0.040701,2.0771e-06,0.52,0,0
0.31457,0.13537,0.046233,-0.0011064,0.013538,-0.00077573,0,0,0.42503,-0.19037,0,-0.020169,0,0,0,0.046263,-0.0011363,0.013538,-0.95227,0.019555,0.042032,2.3082e-06,0.54,0,0
0.32318,0.14477,0.046929,-0.00064101,0.013887,-1.0365e-05,0,0,0.42956,-0.18886,0,-0.0002695,0,0,0,0.046933,-0.00064485,0.013887,-0.0094784,0.020058,0.042232,2.3816e-06,0.56,0,0
0.33176,0.15418,0.046883,-9.1628e-05,0.014038,0.00017978,0,0,0.427,-0.18368,0,0.0046742,0,0,0,0.046885,-9.2834e-05,0.014038,0.21812,0.020276,0.041747,2.3468e-06,0.58,0,0
0.34026,0.16322,0.046856,0.00023622,0.014128,-9.5819e-05,0,0,0.42546,-0.18059,0,-0.0024913,0,0,0,0.046858,0.00023345,0.014128,-0.11661,0.020406,0.041463,2.3264e-06,0.6,0,0
0.34877,0.17167,0.047365,0.00031777,0.014305,-0.00059562,0,0,0.42978,-0.18183,0,-0.015486,0,0,0,0.047377,0.00030607,0.014305,-0.71551,0.020663,0.041866,2.4018e-06,0.62,0,0
0.35745,0.1795,0.048592,0.0002527,0.014653,-0.0010754,0,0,0.4412,-0.18721,0,-0.02796,0,0,0,0.04862,0.00022436,0.014653,-1.2617,0.021166,0.043036,2.6027e-06,0.64,0,0
0.36642,0.18687,0.050413,0.00014779,0.015168,-0.0013852,0,0,0.45819,-0.19527,0,-0.036016,0,0,0,0.050456,0.00010498,0.015168,-1.5721,0.02191,0.044763,2.9179e-06,0.66,0,0
0.37578,0.19407,0.052531,4.8081e-05,0.015774,-0.0014633,0,0,0.47784,-0.20443,0,-0.038047,0,0,0,0.052577,2.2941e-06,0.015774,-1.6006,0.022784,0.04673,3.309e-06,0.68,0,0
0.38554,0.20142,0.054587,-4.1835e-05,0.016364,-0.0013012,0,0,0.49691,-0.21327,0,-0.03383,0,0,0,0.054623,-7.7764e-05,0.016364,-1.3754,0.023636,0.048613,3.7163e-06,0.7,0,0
0.39565,0.20924,0.056234,-0.00013053,0.016831,-0.0009172,0,0,0.51224,-0.2205,0,-0.023847,0,0,0,0.056253,-0.00014999,0.016831,-0.94422,0.024311,0.05012,4.0642e-06,0.72,0,0
0.40603,0.2178,0.057165,-0.00022599,0.017082,-0.00034626,0,0,0.52108,-0.225,0,-0.0090028,0,0,0,0.057172,-0.00023264,0.017082,-0.35142,0.024673,0.051002,4.2727e-06,0.74,0,0
0.4165,0.22727,0.05714,-0.00032751,0.017044,0.00036261,0,0,0.52125,-0.22582,0,0.0094279,0,0,0,0.057148,-0.00033598,0.017044,0.36737,0.024619,0.051064,4.2761e-06,0.76,0,0
0.42688,0.23773,0.056009,-0.00042015,0.016677,0.0011423,0,0,0.51132,-0.22226,0,0.029701,0,0,0,0.056042,-0.00045333,0.016677,1.1782,0.024089,0.050175,4.0443e-06,0.78,0,0
0.43695,0.24909,0.053742,-0.00048156,0.015978,0.0019059,0,0,0.49093,-0.21398,0,0.049552,0,0,0,0.053825,-0.00056433,0.015978,2.0385,0.02308,0.048293,3.5974e-06,0.8,0,0
0.44651,0.26117,0.050442,-0.00049981,0.014983,0.0025557,0,0,0.46097,-0.20127,0,0.066448,0,0,0,0.050592,-0.00064967,0.014983,2.8916,0.021642,0.045487,3.0043e-06,0.82,0,0
0.45539,0.27361,0.04634,-0.00048585,0.013756,0.0030064,0,0,0.42359,-0.18515,0,0.078166,0,0,0,0.046559,-0.00070424,0.013756,3.6683,0.01987,0.041946,2.3608e-06,0.84,0,0
0.46346,0.286,0.041762,-0.00046784,0.012388,0.003208,0,0,0.38186,-0.16713,0,0.083408,0,0,0,0.042031,-0.00073691,0.012388,4.2949,0.017894,0.037948,1.7581e-06,0.86,0,0
0.47066,0.29787,0.037072,-0.00047299,0.01098,0.0031563,0,0,0.3392,-0.14888,0,0.082063,0,0,0,0.037359,-0.00076006,0.01098,4.6998,0.01586,0.033815,1.2567e-06,0.88,0,0
0.47702,0.30874,0.032616,-0.0005133,0.009631,0.002885,0,0,0.29881,-0.13188,0,0.075009,0,0,0,0.032884,-0.00078073,0.009631,4.8167,0.013911,0.029856,8.7847e-07,0.9,0,0
0.48261,0.31821,0.028679,-0.00058357,0.0084288,0.002448,0,0,0.26326,-0.11716,0,0.063648,0,0,0,0.028895,-0.00079959,0.0084288,4.5863,0.012175,0.026329,6.1559e-07,0.92,0,0
0.48755,0.32592,0.025466,-0.00066767,0.0074393,0.0019016,0,0,0.23434,-0.10539,0,0.04944,0,0,0,0.025612,-0.00081457,0.0074393,3.9641,0.010746,0.023427,4.453e-07,0.94,0,0
0.49199,0.33161,0.023104,-0.000746,0.0067074,0.0012921,0,0,0.21316,-0.096894,0,0.033594,0,0,0,0.023182,-0.0008243,0.0067074,2.9409,0.0096885,0.021279,3.4303e-07,0.96,0,0
0.49608,0.33509,0.021666,-0.00080102,0.0062594,0.0012202,0,0,0.20028,-0.091786,0,0.031725,0,0,0,0.021755,-0.00089024,0.0062594,3.1088,0.0090414,0.020066,2.9189e-07,0.98,0,0
0.49806,0.33627,0.021183,-0.00082077,0.0061088,0.0014638,0,0,0.19597,-0.090084,0,0.03806,0,0,0,0.021315,-0.00095267,0.0061088,3.8867,0.0088238,0.019727,2.7774e-07,1,0,0
0.010575,0.011409,0.13158,0.038205,0.050937,0.035227,0,0,1.0484,-0.16551,0,0.9159,0,0,0,0.14456,0.025229,0.050937,18.828,0.073575,0.10898,6.1853e-05,0,0.02,0
0.020968,0.022063,0.12372,0.025171,0.044667,0.028403,0,0,1.0277,-0.25345,0,0.73847,0,0,0,0.13265,0.016235,0.044667,15.157,0.064519,0.10529,5.0326e-05,0.02,0.02,0
0.041107,0.041757,0.11058,0.0093308,0.035972,0.01766,0,0,0.96984,-0.34633,0,0.45915,0,0,0,0.11414,0.0057662,0.035972,9.6039,0.051959,0.096881,3.3051e-05,0.04,0.02,0
0.059762,0.058291,0.10048,0.0048538,0.031602,0.011509,0,0,0.89548,-0.34772,0,0.29923,0,0,0,0.10216,0.0031816,0.031602,6.6459,0.045647,0.088271,2.3819e-05,0.06,0.02,0
0.076927,0.072035,0.092146,0.0024112,0.028367,0.0079936,0,0,0.82912,-0.33743,0,0.20783,0,0,0,0.093012,0.0015453,0.028367,4.9275,0.040975,0.081442,1.824e-05,0.08,0.02,0
0.092927,0.083511,0.085921,0.0012185,0.026142,0.0059471,0,0,0.77713,-0.324,0,0.15462,0,0,0,0.086428,0.0007118,0.026142,3.8889,0.037761,0.076253,1.4767e-05,0.1,0.02,0
0.10801,0.093065,0.081085,0.00056768,0.024496,0.0047048,0,0,0.73566,-0.31106,0,0.12232,0,0,0,0.081416,0.0002366,0.024496,3.239,0.035383,0.072177,1.2421e-05,0.12,0.02,0
0.12235,0.10089,0.077178,0.00022569,0.023221,0.0038959,0,0,0.70144,-0.29894,0,0.10129,0,0,0,0.077413,-9.9669e-06,0.023221,2.8066,0.033541,0.068816,1.0722e-05,0.14,0.02,0
0.13607,0.10709,0.073924,8.9322e-05,0.022204,0.0032962,0,0,0.67236,-0.28749,0,0.0857,0,0,0,0.074099,-8.5871e-05,0.022204,2.4734,0.032072,0.065931,9.4251e-06,0.16,0.02,0
0.14925,0.11165,0.0712,0.00011682,0.021395,0.0027474,0,0,0.64747,-0.27662,0,0.071431,0,0,0,0.071328,-1.0758e-05,0.021395,2.1384,0.030904,0.063408,8.4054e-06,0.18,0.02,0
0.16197,0.11456,0.068996,0.00026639,0.020779,0.0021371,0,0,0.62682,-0.26666,0,0.055563,0,0,0,0.069079,0.00018322,0.020779,1.7162,0.030014,0.061255,7.6116e-06,0.2,0.02,0
0.17432,0.11574,0.067362,0.00043688,0.02034,0.001421,0,0,0.61129,-0.25874,0,0.036947,0,0,0,0.067405,0.00039386,0.02034,1.1673,0.029379,0.059598,7.0353e-06,0.22,0.02,0
0.18642,0.11522,0.066324,0.00044551,0.020031,0.00067923,0,0,0.60181,-0.25461,0,0.01766,0,0,0,0.06634,0.00043026,0.020031,0.56147,0.028934,0.058622,6.6821e-06,0.24,0.02,0
0.19839,0.11312,0.065764,8.2991e-05,0.019754,0.00014202,0,0,0.59813,-0.25572,0,0.0036925,0,0,0,0.065767,7.9545e-05,0.019754,0.10915,0.028534,0.058393,6.525e-06,0.26,0.02,0
0.21034,0.10978,0.065373,-0.00067918,0.019408,0.00014258,0,0,0.59754,-0.26113,0,0.0037072,0,0,0,0.065377,-0.00068345,0.019408,0.10782,0.028034,0.058656,6.4693e-06,0.28,0.02,0
0.22229,0.10571,0.064569,-0.0016995,0.018861,0.00091701,0,0,0.5942,-0.26728,0,0.023842,0,0,0,0.0646,-0.0017308,0.018861,0.7657,0.027243,0.058806,6.3319e-06,0.3,0.02,0
0.23411,0.10147,0.062828,-0.0025735,0.018076,0.0026101,0,0,0.58177,-0.26845,0,0.067863,0,0,0,0.063004,-0.0027497,0.018076,2.2223,0.02611,0.05821,6.0027e-06,0.32,0.02,0
0.24557,0.097581,0.061351,-0.0031836,0.01745,0.0053487,0,0,0.53598,-0.24859,0,0.12816,0,0,0,0.061985,-0.0038177,0.01745,4.6751,0.025206,0.058177,6.8137e-06,0.34,0.02,0
0.25579,0.094924,0.059299,-0.0017436,0.017267,0.0076671,0,0,0.44333,-0.19843,0,0.17286,0,0,0,0.060652,-0.0030967,0.017267,7.8379,0.024941,0.056451,8.5054e-06,0.36,0.02,0
0.26378,0.094594,0.053818,0.0022567,0.016822,0.0075286,0,0,0.3468,-0.14091,0,0.17002,0,0,0,0.055462,0.00061279,0.016822,9.9431,0.024299,0.048893,8.3172e-06,0.38,0.02,0
0.2699,0.09637,0.046127,0.003605,0.01492,0.005244,0,0,0.26323,-0.094014,0,0.12269,0,0,0,0.047272,0.0024603,0.01492,8.8534,0.021551,0.040135,6.0522e-06,0.4,0.02,0
0.27451,0.099049,0.040091,0.0026028,0.012808,0.0029659,0,0,0.18936,-0.059373,0,0.056323,0,0,0,0.040724,0.0019696,0.012808,5.3614,0.018501,0.034708,3.6645e-06,0.42,0.02,0
0.27804,0.10224,0.038589,0.0036039,0.012658,0.0011403,0,0,0.17501,-0.053052,0,-0.008539,0,0,0,0.039106,0.0030865,0.012658,0.70217,0.018283,0.032365,3.2204e-06,0.44,0.02,0
0.28203,0.10602,0.040375,0.0043626,0.013421,-0.0015943,0,0,0.22053,-0.075612,0,-0.064408,0,0,0,0.040997,0.003741,0.013421,-4.7844,0.019386,0.033512,4.1314e-06,0.46,0.02,0
0.28702,0.11053,0.043405,0.0022733,0.013703,-0.0041358,0,0,0.27626,-0.10978,0,-0.10648,0,0,0,0.04426,0.0014184,0.013703,-7.7992,0.019794,0.038264,4.4272e-06,0.48,0.02,0
0.29325,0.11655,0.045989,-0.00091141,0.013523,-0.004622,0,0,0.34227,-0.15219,0,-0.11361,0,0,0,0.046741,-0.0016634,0.013523,-6.6319,0.019534,0.042913,3.8872e-06,0.5,0.02,0
0.30106,0.12442,0.046565,-0.0022938,0.013281,-0.0031893,0,0,0.40635,-0.18872,0,-0.079454,0,0,0,0.046902,-0.0026307,0.013281,-3.8106,0.019184,0.04381,2.9322e-06,0.52,0.02,0
0.30969,0.13341,0.046952,-0.0019015,0.013515,-0.0012565,0,0,0.43468,-0.20042,0,-0.032669,0,0,0,0.047029,-0.0019783,0.013515,-1.4328,0.019522,0.043392,2.4791e-06,0.54,0.02,0
0.31845,0.14286,0.047674,-0.00094536,0.014019,-7.0907e-05,0,0,0.43752,-0.19453,0,-0.0018436,0,0,0,0.047682,-0.00095262,0.014019,-0.073157,0.020249,0.043145,2.5159e-06,0.56,0.02,0
0.32719,0.15232,0.047828,8.9066e-05,0.014375,0.00022454,0,0,0.43488,-0.18572,0,0.0058379,0,0,0,0.04783,8.6828e-05,0.014375,0.26744,0.020764,0.042444,2.4836e-06,0.58,0.02,0
0.33585,0.16141,0.047888,0.00068496,0.014572,-0.00014716,0,0,0.43311,-0.18053,0,-0.0038261,0,0,0,0.047893,0.00067945,0.014572,-0.17829,0.021048,0.042028,2.4598e-06,0.6,0.02,0
0.34451,0.16985,0.048311,0.00079589,0.014732,-0.00082862,0,0,0.43652,-0.18117,0,-0.021544,0,0,0,0.048333,0.00077323,0.014732,-0.98648,0.02128,0.042344,2.5232e-06,0.62,0.02,0
0.35331,0.17763,0.049241,0.000604,0.014954,-0.0014729,0,0,0.44574,-0.18655,0,-0.038295,0,0,0,0.049295,0.00055001,0.014954,-1.7178,0.0216,0.043376,2.6916e-06,0.64,0.02,0
0.36234,0.18492,0.050598,0.00030162,0.01527,-0.0018871,0,0,0.45927,-0.19459,0,-0.049063,0,0,0,0.05068,0.00022035,0.01527,-2.1393,0.022057,0.044869,2.9466e-06,0.66,0.02,0
0.37168,0.19203,0.052162,-2.5683e-05,0.015641,-0.0019922,0,0,0.47478,-0.20367,0,-0.051796,0,0,0,0.05225,-0.00011302,0.015641,-2.1899,0.022593,0.046531,3.2522e-06,0.68,0.02,0
0.38133,0.19929,0.053678,-0.00034081,0.016001,-0.0017736,0,0,0.4898,-0.21245,0,-0.046114,0,0,0,0.053747,-0.00040993,0.016001,-1.8951,0.023113,0.0481,3.5621e-06,0.7,0.02,0
0.39127,0.20704,0.054892,-0.00062506,0.01628,-0.0012531,0,0,0.50196,-0.21977,0,-0.032581,0,0,0,0.05493,-0.00066283,0.01628,-1.3098,0.023516,0.049354,3.8223e-06,0.72,0.02,0
0.40141,0.21556,0.055573,-0.00086925,0.016411,-0.00047471,0,0,0.5091,-0.22464,0,-0.012342,0,0,0,0.055586,-0.00088229,0.016411,-0.49061,0.023705,0.050113,3.9779e-06,0.74,0.02,0
0.41163,0.22502,0.055531,-0.0010582,0.016342,0.00049926,0,0,0.50946,-0.2262,0,0.012981,0,0,0,0.055547,-0.0010749,0.016342,0.51128,0.023605,0.050234,3.9832e-06,0.76,0.02,0
0.42179,0.2355,0.05464,-0.0011571,0.016045,0.0015814,0,0,0.50174,-0.22363,0,0.041117,0,0,0,0.054706,-0.0012228,0.016045,1.6413,0.023176,0.049605,3.8149e-06,0.78,0.02,0
0.4317,0.24695,0.052864,-0.0011233,0.015522,0.0026524,0,0,0.48545,-0.21639,0,0.068962,0,0,0,0.053028,-0.0012876,0.015522,2.8273,0.022421,0.048166,3.482e-06,0.8,0.02,0
0.44121,0.25914,0.050271,-0.00094184,0.014799,0.003572,0,0,0.46114,-0.20463,0,0.092873,0,0,0,0.050567,-0.0012381,0.014799,3.9745,0.021376,0.045938,3.0267e-06,0.82,0.02,0
0.45015,0.27174,0.047034,-0.00064923,0.013915,0.0042143,0,0,0.43054,-0.18934,0,0.10957,0,0,0,0.047461,-0.0010765,0.013915,4.9738,0.0201,0.043047,2.5129e-06,0.84,0.02,0
0.45843,0.2843,0.043404,-0.00032006,0.012925,0.0045048,0,0,0.39622,-0.17219,0,0.11713,0,0,0,0.043922,-0.000838,0.012925,5.7197,0.01867,0.03971,2.0073e-06,0.86,0.02,0
0.466,0.29634,0.039671,-2.7549e-05,0.011893,0.0044367,0,0,0.36111,-0.15497,0,0.11535,0,0,0,0.040212,-0.00056861,0.011893,6.125,0.017179,0.036197,1.5613e-06,0.88,0.02,0
0.47287,0.30737,0.036113,0.00018578,0.01089,0.0040581,0,0,0.3279,-0.13915,0,0.10551,0,0,0,0.036605,-0.00030612,0.01089,6.1264,0.015729,0.032782,1.2015e-06,0.9,0.02,0
0.47911,0.31697,0.032959,0.0003122,0.0099815,0.0034454,0,0,0.29871,-0.1257,0,0.089582,0,0,0,0.033347,-7.4932e-05,0.0099815,5.6855,0.014418,0.029703,9.3263e-07,0.92,0.02,0
0.48482,0.32479,0.030379,0.00036765,0.0092239,0.0026776,0,0,0.27501,-0.11513,0,0.069618,0,0,0,0.030635,0.00011098,0.0092239,4.7933,0.013323,0.027148,7.4527e-07,0.94,0.02,0
0.49011,0.33056,0.028478,0.00037865,0.008657,0.0018201,0,0,0.25767,-0.10762,0,0.047322,0,0,0,0.028612,0.00024483,0.008657,3.4808,0.012505,0.025245,6.2502e-07,0.96,0.02,0
0.49513,0.33409,0.027319,0.00037207,0.0083072,0.0014941,0,0,0.24715,-0.10316,0,0.038847,0,0,0,0.027419,0.00027194,0.0083072,3.1482,0.011999,0.024165,5.621e-07,0.98,0.02,0
0.49758,0.33528,0.026929,0.00036749,0.0081891,0.0016124,0,0,0.24362,-0.10168,0,0.041923,0,0,0,0.027051,0.00024563,0.0081891,3.5701,0.011829,0.023861,5.4437e-07,1,0.02,0
0.0081714,0.0089467,0.10746,0.035932,0.043017,0.031586,0,0,0.83773,-0.092104,0,0.82124,0,0,0,0.11979,0.023594,0.043017,20.917,0.062135,0.0882,2.9843e-05,0,0.04,0
0.016755,0.017984,0.10623,0.027678,0.040173,0.028694,0,0,0.85878,-0.16244,0,0.74605,0,0,0,0.11619,0.017719,0.040173,18.354,0.058028,0.089482,2.9196e-05,0.02,0.04,0
0.034351,0.035594,0.10408,0.01537,0.035836,0.02284,0,0,0.88722,-0.26606,0,0.59385,0,0,0,0.11009,0.0093663,0.035836,13.782,0.051763,0.090466,2.7436e-05,0.04,0.04,0
0.052243,0.051597,0.10092,0.0090971,0.033005,0.017338,0,0,0.88288,-0.3108,0,0.45079,0,0,0,0.1044,0.0056196,0.033005,10.341,0.047674,0.088334,2.4395e-05,0.06,0.04,0
0.069666,0.065338,0.096244,0.0055829,0.030548,0.013034,0,0,0.85404,-0.32455,0,0.33889,0,0,0,0.098268,0.0035585,0.030548,7.9573,0.044125,0.084513,2.0794e-05,0.08,0.04,0
0.086405,0.07697,0.09164,0.0035185,0.028548,0.010094,0,0,0.8202,-0.32538,0,0.26244,0,0,0,0.092894,0.0022652,0.028548,6.3732,0.041235,0.080762,1.7836e-05,0.1,0.04,0
0.10247,0.086723,0.08763,0.0022979,0.026978,0.0081239,0,0,0.78847,-0.32085,0,0.21122,0,0,0,0.088467,0.0014614,0.026978,5.3117,0.038969,0.077466,1.5571e-05,0.12,0.04,0
0.11794,0.09476,0.084224,0.0016109,0.02575,0.0067668,0,0,0.76015,-0.31381,0,0.17594,0,0,0,0.084821,0.0010136,0.02575,4.5767,0.037195,0.074582,1.3817e-05,0.14,0.04,0
0.13288,0.10116,0.081314,0.0013082,0.024787,0.0057517,0,0,0.73486,-0.30522,0,0.14954,0,0,0,0.081759,0.000863,0.024787,4.0194,0.035803,0.071981,1.2413e-05,0.16,0.04,0
0.14734,0.10595,0.078793,0.0013144,0.024032,0.0048657,0,0,0.71189,-0.29533,0,0.12651,0,0,0,0.079125,0.0009829,0.024032,3.5102,0.034713,0.069544,1.124e-05,0.18,0.04,0
0.16136,0.10906,0.076596,0.0015562,0.023446,0.0039385,0,0,0.69095,-0.28456,0,0.1024,0,0,0,0.076826,0.0013256,0.023446,2.9294,0.033866,0.067228,1.0236e-05,0.2,0.04,0
0.17498,0.11042,0.074721,0.0018614,0.022975,0.0028708,0,0,0.6727,-0.27447,0,0.074641,0,0,0,0.074858,0.001725,0.022975,2.1927,0.033186,0.065161,9.3988e-06,0.22,0.04,0
0.18826,0.10999,0.073181,0.0018374,0.022505,0.0017313,0,0,0.65878,-0.26868,0,0.045013,0,0,0,0.073242,0.0017761,0.022505,1.3448,0.032508,0.063685,8.7773e-06,0.24,0.04,0
0.20133,0.10786,0.071917,0.0010014,0.021876,0.00087758,0,0,0.65054,-0.27136,0,0.022817,0,0,0,0.071938,0.00098068,0.021876,0.67926,0.031598,0.063159,8.4072e-06,0.26,0.04,0
0.21429,0.10438,0.070692,-0.0008025,0.020967,0.00085451,0,0,0.64643,-0.283,0,0.022217,0,0,0,0.070712,-0.00082189,0.020967,0.65116,0.030286,0.063511,8.1977e-06,0.28,0.04,0
0.22718,0.10014,0.069364,-0.0030386,0.019898,0.0021271,0,0,0.64306,-0.29817,0,0.055304,0,0,0,0.069469,-0.0031435,0.019898,1.6132,0.028741,0.064273,8.0567e-06,0.3,0.04,0
0.24001,0.095804,0.069864,-0.0044015,0.019639,0.0047443,0,0,0.61614,-0.29449,0,0.11709,0,0,0,0.070268,-0.0048054,0.019639,3.5803,0.028367,0.066325,9.6372e-06,0.32,0.04,0
0.2521,0.09239,0.071957,-0.0053582,0.01998,0.0077098,0,0,0.50614,-0.23891,0,0.16379,0,0,0,0.072893,-0.0062935,0.01998,6.0747,0.02886,0.069875,1.3894e-05,0.34,0.04,0
0.26125,0.091131,0.072136,-0.0035118,0.020587,0.0092155,0,0,0.32924,-0.14907,0,0.16697,0,0,0,0.073824,-0.0051999,0.020587,8.8726,0.029737,0.0699,1.7232e-05,0.36,0.04,0
0.26645,0.092284,0.070868,0.0027416,0.022083,0.0085979,0,0,0.20161,-0.084246,0,0.14268,0,0,0,0.072957,0.00065198,0.022083,10.907,0.031897,0.064492,1.747e-05,0.38,0.04,0
0.26977,0.094931,0.06724,0.0052475,0.021746,0.0060434,0,0,0.14786,-0.055002,0,0.092378,0,0,0,0.068648,0.0038396,0.021746,9.0512,0.031411,0.058065,1.5077e-05,0.4,0.04,0
0.27244,0.098092,0.06154,0.0039579,0.019649,0.0039827,0,0,0.11466,-0.038009,0,0.039114,0,0,0,0.062156,0.0033422,0.019649,5.5067,0.028382,0.052647,1.135e-05,0.42,0.04,0
0.27455,0.10139,0.060011,0.0052803,0.019587,0.0033683,0,0,0.10791,-0.033727,0,0.0049959,0,0,0,0.060555,0.0047369,0.019587,2.5327,0.028293,0.05011,1.0218e-05,0.44,0.04,0
0.27692,0.10487,0.061107,0.0063715,0.020243,0.00098385,0,0,0.12762,-0.044281,0,-0.037913,0,0,0,0.061931,0.005547,0.020243,-2.89,0.029241,0.050707,1.099e-05,0.46,0.04,0
0.2797,0.10874,0.059447,0.0034265,0.018862,-0.0021799,0,0,0.162,-0.065313,0,-0.081857,0,0,0,0.060556,0.0023175,0.018862,-6.8724,0.027245,0.052074,1.0122e-05,0.48,0.04,0
0.28374,0.11366,0.056935,-0.0011934,0.016723,-0.0036615,0,0,0.25108,-0.11257,0,-0.10237,0,0,0,0.057853,-0.0021106,0.016723,-6.2414,0.024155,0.05317,8.3208e-06,0.5,0.04,0
0.29062,0.1205,0.054466,-0.0033483,0.015335,-0.0034468,0,0,0.37737,-0.17982,0,-0.093895,0,0,0,0.054922,-0.0038035,0.015335,-4.2242,0.022151,0.051883,6.116e-06,0.52,0.04,0
0.29957,0.12921,0.051288,-0.0033501,0.014381,-0.0018336,0,0,0.45139,-0.21814,0,-0.050723,0,0,0,0.051442,-0.0035045,0.014381,-2.0089,0.020773,0.048547,3.8794e-06,0.54,0.04,0
0.30887,0.13885,0.049802,-0.0018951,0.014372,-0.00014366,0,0,0.46059,-0.21148,0,-0.0037353,0,0,0,0.049826,-0.0019186,0.014372,-0.11791,0.02076,0.045833,2.9335e-06,0.56,0.04,0
0.318,0.14857,0.049868,0.00040105,0.015081,0.00041116,0,0,0.45223,-0.19083,0,0.01069,0,0,0,0.049875,0.0003942,0.015081,0.46706,0.021783,0.04402,2.796e-06,0.58,0.04,0
0.32696,0.1578,0.049844,0.0016574,0.015451,-0.00017543,0,0,0.44712,-0.17931,0,-0.0045612,0,0,0,0.049856,0.0016462,0.015451,-0.21593,0.022317,0.043004,2.7132e-06,0.6,0.04,0
0.33588,0.16624,0.049934,0.0017711,0.015511,-0.0011898,0,0,0.44749,-0.17862,0,-0.030934,0,0,0,0.049976,0.0017291,0.015511,-1.4054,0.022405,0.043044,2.7261e-06,0.62,0.04,0
0.34486,0.17391,0.050295,0.0013252,0.015486,-0.0021153,0,0,0.45251,-0.18409,0,-0.054998,0,0,0,0.050395,0.0012249,0.015486,-2.4573,0.022369,0.043817,2.829e-06,0.64,0.04,0
0.35398,0.18105,0.050841,0.00064776,0.015447,-0.0027115,0,0,0.46012,-0.19238,0,-0.070498,0,0,0,0.050993,0.00049523,0.015447,-3.0788,0.022312,0.044929,2.9796e-06,0.66,0.04,0
0.36327,0.18797,0.051472,-0.00012019,0.015406,-0.002876,0,0,0.46887,-0.20184,0,-0.074775,0,0,0,0.051639,-0.00028654,0.015406,-3.1861,0.022253,0.046127,3.1461e-06,0.68,0.04,0
0.37274,0.19506,0.052105,-0.00087197,0.01537,-0.0025786,0,0,0.47756,-0.21115,0,-0.067044,0,0,0,0.052239,-0.0010059,0.01537,-2.7923,0.022201,0.047237,3.3045e-06,0.7,0.04,0
0.38237,0.20266,0.052644,-0.0015369,0.015332,-0.0018452,0,0,0.48505,-0.2193,0,-0.047975,0,0,0,0.052719,-0.0016118,0.015332,-1.962,0.022146,0.04815,3.4355e-06,0.72,0.04,0
0.39214,0.21107,0.05298,-0.0020885,0.015268,-0.00073287,0,0,0.49027,-0.22563,0,-0.019055,0,0,0,0.053007,-0.0021148,0.015268,-0.7725,0.022053,0.048811,3.5231e-06,0.74,0.04,0
0.40198,0.22049,0.053006,-0.0024993,0.015152,0.00068616,0,0,0.4921,-0.22947,0,0.01784,0,0,0,0.053037,-0.0025307,0.015152,0.70424,0.021886,0.049173,3.553e-06,0.76,0.04,0
0.41182,0.231,0.052622,-0.0026878,0.01498,0.0023059,0,0,0.48934,-0.22968,0,0.059952,0,0,0,0.052748,-0.0028146,0.01498,2.3845,0.021638,0.049146,3.5111e-06,0.78,0.04,0
0.42155,0.24257,0.051766,-0.00254,0.014768,0.0039541,0,0,0.48098,-0.225,0,0.10281,0,0,0,0.05209,-0.0028645,0.014768,4.1433,0.021331,0.048602,3.387e-06,0.8,0.04,0
0.43106,0.25498,0.050437,-0.0020077,0.014529,0.0054005,0,0,0.4668,-0.21497,0,0.14041,0,0,0,0.051029,-0.0025998,0.014529,5.8073,0.020986,0.047445,3.1789e-06,0.82,0.04,0
0.44023,0.26787,0.048705,-0.0011819,0.014257,0.006424,0,0,0.44783,-0.20071,0,0.16702,0,0,0,0.049559,-0.0020359,0.014257,7.1843,0.020594,0.045684,2.8989e-06,0.84,0.04,0
0.44897,0.28075,0.046711,-0.00025362,0.013937,0.0068935,0,0,0.42606,-0.18448,0,0.17923,0,0,0,0.047736,-0.0012785,0.013937,8.1082,0.020132,0.043454,2.5739e-06,0.86,0.04,0
0.45727,0.29311,0.044629,0.00059549,0.013567,0.0067984,0,0,0.4038,-0.16863,0,0.17676,0,0,0,0.045681,-0.00045678,0.013567,8.4722,0.019597,0.040968,2.2395e-06,0.88,0.04,0
0.46513,0.30444,0.042631,0.0012623,0.013168,0.0062196,0,0,0.38302,-0.15477,0,0.16171,0,0,0,0.043567,0.00032638,0.013168,8.234,0.019021,0.038464,1.9298e-06,0.9,0.04,0
0.47259,0.31429,0.040858,0.0017214,0.012774,0.0052794,0,0,0.3651,-0.14368,0,0.13726,0,0,0,0.041577,0.0010024,0.012774,7.4079,0.018451,0.036157,1.6685e-06,0.92,0.04,0
0.47973,0.32229,0.039407,0.0019966,0.012421,0.004101,0,0,0.35082,-0.13552,0,0.10662,0,0,0,0.039873,0.0015313,0.012421,6.0561,0.017942,0.034223,1.4672e-06,0.94,0.04,0
0.48662,0.32819,0.03834,0.0021362,0.012143,0.002786,0,0,0.34057,-0.13009,0,0.072435,0,0,0,0.038578,0.0018987,0.012143,4.2812,0.01754,0.032781,1.3278e-06,0.96,0.04,0
0.49335,0.3318,0.03769,0.0021927,0.011965,0.0019927,0,0,0.33443,-0.12704,0,0.05181,0,0,0,0.037813,0.0020698,0.011965,3.1933,0.017282,0.031966,1.252e-06,0.98,0.04,0
0.49669,0.33301,0.037472,0.0022065,0.011903,0.0018802,0,0,0.33239,-0.12606,0,0.048884,0,0,0,0.03758,0.002098,0.011903,3.0833,0.017194,0.031738,1.2308e-06,1,0.04,0
0.0074572,0.0077249,0.099463,0.037,0.040939,0.028931,0,0,0.76081,-0.051203,0,0.7522,0,0,0,0.11087,0.025591,0.040939,21.442,0.059134,0.078772,2.202e-05,0,0.06,0
0.015216,0.015565,0.099216,0.031196,0.039124,0.027762,0,0,0.7812,-0.10305,0,0.7218,0,0,0,0.10928,0.021128,0.039124,19.738,0.056512,0.080735,2.2549e-05,0.02,0.06,0
0.031248,0.031115,0.099135,0.020843,0.035993,0.024708,0,0,0.82085,-0.19696,0,0.6424,0,0,0,0.10649,0.013484,0.035993,16.252,0.05199,0.084081,2.328e-05,0.04,0.06,0
0.04805,0.045859,0.098781,0.013434,0.033665,0.020699,0,0,0.84651,-0.26299,0,0.53817,0,0,0,0.10371,0.008502,0.033665,12.985,0.048627,0.085469,2.2933e-05,0.06,0.06,0
0.065108,0.059053,0.097136,0.0087721,0.031772,0.016764,0,0,0.84973,-0.299,0,0.43587,0,0,0,0.10033,0.0055766,0.031772,10.386,0.045894,0.084755,2.1508e-05,0.08,0.06,0
0.082039,0.070496,0.094698,0.0058165,0.030154,0.01358,0,0,0.83907,-0.31639,0,0.35308,0,0,0,0.096804,0.0037106,0.030154,8.4682,0.043556,0.083092,1.9757e-05,0.1,0.06,0
0.098671,0.080231,0.092106,0.0039474,0.028816,0.011198,0,0,0.82277,-0.32329,0,0.29116,0,0,0,0.093555,0.002499,0.028816,7.0901,0.041623,0.081164,1.811e-05,0.12,0.06,0
0.11495,0.088341,0.089658,0.0028259,0.027745,0.0094435,0,0,0.80486,-0.32395,0,0.24553,0,0,0,0.090704,0.0017799,0.027745,6.0956,0.040076,0.079201,1.6669e-05,0.14,0.06,0
0.13087,0.094878,0.08742,0.0022733,0.026908,0.0081059,0,0,0.78666,-0.32025,0,0.21075,0,0,0,0.088206,0.0014871,0.026908,5.3487,0.038867,0.077214,1.5405e-05,0.16,0.06,0
0.14642,0.099841,0.08535,0.0021945,0.026263,0.0069865,0,0,0.76813,-0.31289,0,0.18165,0,0,0,0.085951,0.0015939,0.026263,4.7255,0.037936,0.075124,1.4251e-05,0.18,0.06,0
0.16159,0.10317,0.083369,0.0025028,0.025762,0.0058959,0,0,0.7489,-0.30236,0,0.15329,0,0,0,0.083815,0.0020565,0.025762,4.0986,0.037211,0.072859,1.3143e-05,0.2,0.06,0
0.17637,0.10476,0.081469,0.0030165,0.025346,0.0046615,0,0,0.7296,-0.29028,0,0.1212,0,0,0,0.081769,0.0027167,0.025346,3.3328,0.03661,0.070516,1.2084e-05,0.22,0.06,0
0.19077,0.10447,0.079775,0.0031858,0.024888,0.0032499,0,0,0.71352,-0.28213,0,0.084497,0,0,0,0.079939,0.0030212,0.024888,2.3761,0.03595,0.068649,1.1223e-05,0.24,0.06,0
0.20491,0.10226,0.078222,0.0018442,0.02402,0.0020573,0,0,0.70462,-0.28828,0,0.05349,0,0,0,0.078293,0.0017723,0.02402,1.5113,0.034695,0.068182,1.0719e-05,0.26,0.06,0
0.21896,0.098458,0.076756,-0.0014956,0.022578,0.0020327,0,0,0.70431,-0.31296,0,0.052851,0,0,0,0.076829,-0.0015684,0.022578,1.4299,0.032613,0.069554,1.0623e-05,0.28,0.06,0
0.23309,0.093782,0.077756,-0.0047923,0.021889,0.003573,0,0,0.68522,-0.32714,0,0.092582,0,0,0,0.07798,-0.0050166,0.021889,2.4808,0.031618,0.07335,1.3095e-05,0.3,0.06,0
0.24667,0.089586,0.081455,-0.0057094,0.022724,0.0053943,0,0,0.57844,-0.27957,0,0.12993,0,0,0,0.081944,-0.0061984,0.022724,3.8389,0.032823,0.077826,1.8925e-05,0.32,0.06,0
0.25734,0.087683,0.08103,-0.0063161,0.022414,0.0056939,0,0,0.37759,-0.17708,0,0.11657,0,0,0,0.081706,-0.0069919,0.022414,4.577,0.032376,0.078268,2.1856e-05,0.34,0.06,0
0.26329,0.088604,0.079724,-0.0050759,0.022394,0.0051523,0,0,0.19357,-0.088415,0,0.077179,0,0,0,0.080578,-0.0059299,0.022394,5.1621,0.032347,0.07646,2.0189e-05,0.36,0.06,0
0.26598,0.0911,0.08519,0.0011542,0.025903,0.0055871,0,0,0.10863,-0.047609,0,0.05404,0,0,0,0.086214,0.0001298,0.025903,5.9713,0.037416,0.07663,1.9547e-05,0.38,0.06,0
0.26783,0.094138,0.089248,0.0051401,0.028317,0.0058263,0,0,0.092195,-0.036505,0,0.037351,0,0,0,0.090059,0.0043293,0.028317,5.5734,0.040902,0.076651,1.9675e-05,0.4,0.06,0
0.26965,0.097427,0.087794,0.0052416,0.027911,0.0058093,0,0,0.090517,-0.032948,0,0.022887,0,0,0,0.088347,0.0046882,0.027911,4.6655,0.040315,0.074819,1.8355e-05,0.42,0.06,0
0.27139,0.10078,0.085778,0.006599,0.027713,0.0063574,0,0,0.087759,-0.030312,0,0.016517,0,0,0,0.086427,0.0059492,0.027713,4.2556,0.04003,0.072118,1.685e-05,0.44,0.06,0
0.2731,0.10421,0.082722,0.0071994,0.026976,0.0057966,0,0,0.084121,-0.030509,0,0.0037257,0,0,0,0.083607,0.0063141,0.026976,2.6011,0.038966,0.069336,1.5255e-05,0.46,0.06,0
0.27474,0.10782,0.074838,0.0039378,0.023633,0.0044395,0,0,0.091242,-0.037042,0,-0.012868,0,0,0,0.075907,0.0028685,0.023633,0.76916,0.034136,0.065241,1.2856e-05,0.48,0.06,0
0.2769,0.11177,0.066155,-0.00036809,0.019736,0.0028129,0,0,0.14946,-0.06537,0,-0.030469,0,0,0,0.067112,-0.0013251,0.019736,-0.027612,0.028508,0.060747,1.1174e-05,0.5,0.06,0
0.28139,0.11696,0.063111,-0.002599,0.018154,0.00080215,0,0,0.28043,-0.1323,0,-0.049479,0,0,0,0.063737,-0.0032246,0.018154,-0.72982,0.026222,0.05925,1.0573e-05,0.52,0.06,0
0.28922,0.1246,0.060064,-0.0041456,0.016776,-6.7895e-05,0,0,0.41883,-0.20723,0,-0.038749,0,0,0,0.060369,-0.0044509,0.016776,-0.77397,0.024231,0.057247,8.2583e-06,0.54,0.06,0
0.29894,0.1344,0.054989,-0.003121,0.01556,0.00048058,0,0,0.48079,-0.22772,0,0.0023843,0,0,0,0.055077,-0.0032089,0.01556,0.2954,0.022476,0.051547,4.8711e-06,0.56,0.06,0
0.30867,0.14469,0.052645,0.00068286,0.015998,0.00086604,0,0,0.4764,-0.1991,0,0.022517,0,0,0,0.05267,0.00065785,0.015998,0.94841,0.023109,0.046305,3.2846e-06,0.58,0.06,0
0.31799,0.15424,0.052027,0.0028204,0.016454,0.00014704,0,0,0.46244,-0.17724,0,0.0038231,0,0,0,0.052047,0.0027996,0.016454,0.14449,0.023767,0.04404,3.0144e-06,0.6,0.06,0
0.32716,0.1627,0.051521,0.002852,0.016312,-0.0010969,0,0,0.45772,-0.17498,0,-0.028519,0,0,0,0.051564,0.0028087,0.016312,-1.2925,0.023562,0.043603,2.9237e-06,0.62,0.06,0
0.3363,0.17026,0.051196,0.0021777,0.016012,-0.0021846,0,0,0.45739,-0.17985,0,-0.056798,0,0,0,0.051304,0.0020694,0.016012,-2.539,0.023129,0.043956,2.9275e-06,0.64,0.06,0
0.34546,0.17723,0.050942,0.001122,0.015619,-0.0029176,0,0,0.4592,-0.18846,0,-0.075858,0,0,0,0.051116,0.0009477,0.015619,-3.3332,0.022561,0.04468,2.9696e-06,0.66,0.06,0
0.35467,0.18396,0.050777,-0.00012209,0.015196,-0.0031764,0,0,0.46254,-0.19914,0,-0.082587,0,0,0,0.050975,-0.00032088,0.015196,-3.5571,0.02195,0.045566,3.0272e-06,0.68,0.06,0
0.36396,0.19085,0.050726,-0.0013378,0.014816,-0.0029097,0,0,0.46682,-0.21,0,-0.075653,0,0,0,0.050892,-0.001504,0.014816,-3.1952,0.021402,0.04644,3.0861e-06,0.7,0.06,0
0.37334,0.19827,0.050803,-0.0023839,0.014526,-0.0021587,0,0,0.4716,-0.21982,0,-0.056127,0,0,0,0.0509,-0.0024817,0.014526,-2.3311,0.020981,0.047235,3.1455e-06,0.72,0.06,0
0.38282,0.20653,0.050993,-0.0032663,0.014318,-0.00098922,0,0,0.47678,-0.2286,0,-0.02572,0,0,0,0.05103,-0.003303,0.014318,-1.0589,0.020682,0.048014,3.2146e-06,0.74,0.06,0
0.39241,0.21584,0.051244,-0.0040053,0.014172,0.00056602,0,0,0.48194,-0.2363,0,0.014717,0,0,0,0.051279,-0.00404,0.014172,0.57022,0.02047,0.048833,3.2982e-06,0.76,0.06,0
0.4021,0.22632,0.051454,-0.004459,0.014098,0.0024579,0,0,0.48562,-0.24125,0,0.063905,0,0,0,0.0516,-0.0046051,0.014098,2.5002,0.020364,0.049577,3.3862e-06,0.78,0.06,0
0.41184,0.23795,0.051502,-0.0043442,0.014147,0.0045108,0,0,0.48561,-0.24039,0,0.11728,0,0,0,0.051904,-0.0047468,0.014147,4.5878,0.020435,0.049962,3.4523e-06,0.8,0.06,0
0.42153,0.25054,0.0513,-0.0034901,0.014343,0.0063953,0,0,0.48044,-0.23183,0,0.16628,0,0,0,0.052069,-0.004259,0.014343,6.5804,0.020718,0.049712,3.4635e-06,0.82,0.06,0
0.43106,0.26371,0.050829,-0.0020618,0.01463,0.0077571,0,0,0.47059,-0.217,0,0.20169,0,0,0,0.051961,-0.0031939,0.01463,8.1856,0.021133,0.048754,3.3939e-06,0.84,0.06,0
0.44035,0.27692,0.050149,-0.00045409,0.014908,0.0083912,0,0,0.45813,-0.19971,0,0.21817,0,0,0,0.05151,-0.0018155,0.014908,9.1774,0.021534,0.047241,3.2424e-06,0.86,0.06,0
0.44938,0.28959,0.049376,0.00099218,0.01511,0.0082915,0,0,0.44545,-0.18354,0,0.21558,0,0,0,0.05076,-0.00039184,0.01511,9.4512,0.021826,0.045432,3.0355e-06,0.88,0.06,0
0.45817,0.30118,0.048625,0.0021143,0.015222,0.0075799,0,0,0.43424,-0.1704,0,0.19708,0,0,0,0.049836,0.00090347,0.015222,9.0108,0.021987,0.043576,2.8116e-06,0.9,0.06,0
0.46675,0.31122,0.047972,0.002882,0.015256,0.0064206,0,0,0.42531,-0.16087,0,0.16693,0,0,0,0.048884,0.0019703,0.015256,7.9327,0.022037,0.041884,2.605e-06,0.92,0.06,0
0.47518,0.31937,0.047456,0.0033356,0.015238,0.0049727,0,0,0.41884,-0.15473,0,0.12929,0,0,0,0.048034,0.002758,0.015238,6.3436,0.02201,0.040506,2.4384e-06,0.94,0.06,0
0.4835,0.32536,0.047091,0.0035561,0.015194,0.0033676,0,0,0.41466,-0.1513,0,0.087557,0,0,0,0.04738,0.003267,0.015194,4.3978,0.021947,0.039525,2.322e-06,0.96,0.06,0
0.49177,0.32901,0.046877,0.0036382,0.015154,0.0022882,0,0,0.41239,-0.14971,0,0.059493,0,0,0,0.047009,0.003506,0.015154,3.0419,0.02189,0.039007,2.2621e-06,0.98,0.06,0
0.49589,0.33024,0.046806,0.0036563,0.015139,0.0020367,0,0,0.41168,-0.14927,0,0.052953,0,0,0,0.046906,0.0035566,0.015139,2.728,0.021867,0.038875,2.2473e-06,1,0.06,0
0.0071284,0.0068985,0.095519,0.036831,0.039705,0.026197,0,0,0.72558,-0.037358,0,0.68112,0,0,0,0.10555,0.0268,0.039705,20.887,0.057352,0.073179,1.8056e-05,0,0.08,0
0.014512,0.013861,0.095687,0.032539,0.038468,0.025655,0,0,0.74385,-0.077069,0,0.66702,0,0,0,0.10488,0.023343,0.038468,19.619,0.055565,0.075169,1.885e-05,0.02,0.08,0
0.029754,0.027716,0.096461,0.024306,0.03623,0.024028,0,0,0.783,-0.15502,0,0.62474,0,0,0,0.10384,0.016924,0.03623,16.919,0.052332,0.079083,2.0361e-05,0.04,0.08,0
0.045832,0.041077,0.09727,0.017285,0.034366,0.021435,0,0,0.81774,-0.22206,0,0.55731,0,0,0,0.10276,0.011797,0.034366,14.15,0.04964,0.082055,2.127e-05,0.06,0.08,0
0.062464,0.053378,0.097242,0.012037,0.032784,0.018398,0,0,0.83796,-0.26971,0,0.47836,0,0,0,0.10113,0.0081539,0.032784,11.702,0.047354,0.083438,2.1279e-05,0.08,0.08,0
0.07935,0.064315,0.096482,0.0083799,0.031459,0.015549,0,0,0.84531,-0.30002,0,0.40427,0,0,0,0.0992,0.0056623,0.031459,9.7225,0.04544,0.083681,2.073e-05,0.1,0.08,0
0.096276,0.073791,0.095302,0.0059052,0.030362,0.013164,0,0,0.84421,-0.31794,0,0.34226,0,0,0,0.097234,0.0039733,0.030362,8.1951,0.043856,0.083266,1.994e-05,0.12,0.08,0
0.11312,0.081802,0.093982,0.0043242,0.029492,0.011269,0,0,0.83837,-0.32718,0,0.293,0,0,0,0.095398,0.0029089,0.029492,7.0402,0.042599,0.082476,1.9093e-05,0.14,0.08,0
0.12981,0.088354,0.092665,0.0034663,0.028839,0.0097788,0,0,0.82973,-0.32985,0,0.25425,0,0,0,0.093737,0.0023941,0.028839,6.1657,0.041657,0.081409,1.8249e-05,0.16,0.08,0
0.14631,0.093429,0.091372,0.0032335,0.028382,0.0085644,0,0,0.81888,-0.32693,0,0.22267,0,0,0,0.092206,0.0024001,0.028382,5.4787,0.040996,0.080043,1.7394e-05,0.18,0.08,0
0.16257,0.096961,0.090036,0.0035372,0.028072,0.007474,0,0,0.80553,-0.31895,0,0.19432,0,0,0,0.090686,0.0028874,0.028072,4.8766,0.040548,0.078306,1.6475e-05,0.2,0.08,0
0.17853,0.098807,0.088554,0.0041999,0.027826,0.0063009,0,0,0.78947,-0.30714,0,0.16382,0,0,0,0.089036,0.0037185,0.027826,4.2113,0.040194,0.076181,1.5445e-05,0.22,0.08,0
0.19414,0.098705,0.087049,0.0047266,0.027533,0.0048324,0,0,0.77371,-0.29648,0,0.12564,0,0,0,0.087355,0.0044212,0.027533,3.3053,0.03977,0.074132,1.444e-05,0.24,0.08,0
0.20948,0.096332,0.085709,0.0029513,0.026598,0.0034859,0,0,0.76844,-0.30741,0,0.090632,0,0,0,0.085875,0.002785,0.026598,2.3736,0.038419,0.074123,1.4037e-05,0.26,0.08,0
0.22488,0.091864,0.087005,-0.0019822,0.025507,0.0031766,0,0,0.75151,-0.33391,0,0.087484,0,0,0,0.087178,-0.0021551,0.025507,2.1409,0.036843,0.079231,1.8181e-05,0.28,0.08,0
0.23987,0.086923,0.091331,-0.0056469,0.025705,0.0033138,0,0,0.64113,-0.30529,0,0.10184,0,0,0,0.091639,-0.0059549,0.025705,2.3468,0.03713,0.086245,2.726e-05,0.3,0.08,0
0.25176,0.084156,0.091275,-0.0058036,0.025641,0.0022979,0,0,0.42125,-0.20045,0,0.082764,0,0,0,0.09165,-0.0061788,0.025641,1.883,0.037038,0.086434,3.0983e-05,0.32,0.08,0
0.25841,0.084713,0.087078,-0.0063108,0.02423,0.00057135,0,0,0.21451,-0.1001,0,0.038665,0,0,0,0.087359,-0.0065921,0.02423,1.0772,0.034999,0.082959,2.6228e-05,0.34,0.08,0
0.26133,0.08729,0.088896,-0.0057873,0.024933,0.00040119,0,0,0.11455,-0.054159,0,0.012313,0,0,0,0.089054,-0.0059451,0.024933,0.97532,0.036014,0.083955,2.1859e-05,0.36,0.08,0
0.26317,0.090332,0.095265,-0.00069222,0.028372,0.0026315,0,0,0.09064,-0.039748,0,0.0089778,0,0,0,0.095449,-0.00087536,0.028372,1.8883,0.040982,0.085566,2.1017e-05,0.38,0.08,0
0.26493,0.093466,0.097969,0.0035416,0.030453,0.00563,0,0,0.087771,-0.034985,0,0.014638,0,0,0,0.098375,0.0031358,0.030453,3.4285,0.043988,0.084948,2.0913e-05,0.4,0.08,0
0.26668,0.096759,0.097066,0.0044525,0.030456,0.0079783,0,0,0.086594,-0.033804,0,0.020744,0,0,0,0.09781,0.0037084,0.030456,4.8991,0.043991,0.083989,2.037e-05,0.42,0.08,0
0.26839,0.10016,0.094578,0.0059535,0.030159,0.0096663,0,0,0.083744,-0.031468,0,0.025132,0,0,0,0.095709,0.0048226,0.030159,6.1706,0.043564,0.081242,1.8831e-05,0.44,0.08,0
0.27003,0.10364,0.090607,0.0070867,0.029308,0.010866,0,0,0.079689,-0.028888,0,0.028253,0,0,0,0.092126,0.005568,0.029308,7.2442,0.042334,0.07747,1.6621e-05,0.46,0.08,0
0.27158,0.10722,0.084232,0.0048827,0.026734,0.011413,0,0,0.077586,-0.029783,0,0.028673,0,0,0,0.086003,0.0031117,0.026734,7.5372,0.038616,0.073979,1.4642e-05,0.48,0.08,0
0.27311,0.11081,0.075689,0.0018843,0.023272,0.010426,0,0,0.091825,-0.038075,0,0.023223,0,0,0,0.077393,0.00018032,0.023272,6.7477,0.033615,0.068656,1.3371e-05,0.5,0.08,0
0.27538,0.11474,0.07108,0.00038064,0.021438,0.0079041,0,0,0.16304,-0.072863,0,0.01171,0,0,0,0.072449,-0.00098829,0.021438,5.2557,0.030966,0.065198,1.4334e-05,0.52,0.08,0
0.28033,0.12055,0.070996,-0.003141,0.020356,0.0050836,0,0,0.30776,-0.1502,0,0.0079946,0,0,0,0.071862,-0.004007,0.020356,3.3348,0.029404,0.067122,1.6671e-05,0.54,0.08,0
0.28883,0.12964,0.067364,-0.0043736,0.018897,0.0032908,0,0,0.44821,-0.20994,0,0.034801,0,0,0,0.067752,-0.0047614,0.018897,2.3112,0.027296,0.064096,1.4301e-05,0.56,0.08,0
0.29906,0.14061,0.06039,0.0009042,0.018388,0.002654,0,0,0.50161,-0.20124,0,0.061201,0,0,0,0.060595,0.00069901,0.018388,2.4236,0.026561,0.053352,7.4663e-06,0.58,0.08,0
0.3091,0.15071,0.055926,0.0044917,0.018125,0.0015559,0,0,0.49141,-0.17724,0,0.040454,0,0,0,0.056051,0.0043669,0.018125,1.5883,0.026181,0.046365,3.7095e-06,0.6,0.08,0
0.31871,0.15924,0.053895,0.0041801,0.017422,-2.2757e-05,0,0,0.47414,-0.17215,0,-0.00059168,0,0,0,0.053944,0.0041305,0.017422,-0.073074,0.025166,0.044678,3.2661e-06,0.62,0.08,0
0.32807,0.16672,0.052338,0.0032634,0.01668,-0.0012497,0,0,0.46355,-0.17442,0,-0.032491,0,0,0,0.052408,0.0031933,0.01668,-1.4609,0.024094,0.044051,3.0437e-06,0.64,0.08,0
0.33725,0.17351,0.050979,0.0018003,0.015834,-0.0021605,0,0,0.45689,-0.18244,0,-0.056174,0,0,0,0.051097,0.0016825,0.015834,-2.4921,0.022871,0.04408,2.9167e-06,0.66,0.08,0
0.34634,0.18001,0.049839,-6.4372e-07,0.014952,-0.0026026,0,0,0.45354,-0.19438,0,-0.067667,0,0,0,0.049987,-0.00014784,0.014952,-2.9621,0.021597,0.044551,2.845e-06,0.68,0.08,0
0.3554,0.18666,0.048989,-0.0017132,0.014183,-0.0025231,0,0,0.45249,-0.20665,0,-0.065602,0,0,0,0.049122,-0.001846,0.014183,-2.8296,0.020486,0.045143,2.8006e-06,0.7,0.08,0
0.36444,0.19387,0.048537,-0.0030665,0.013641,-0.0020362,0,0,0.45365,-0.2172,0,-0.052941,0,0,0,0.048624,-0.0031537,0.013641,-2.2549,0.019704,0.045755,2.789e-06,0.72,0.08,0
0.37354,0.20193,0.048584,-0.0042089,0.013312,-0.0012452,0,0,0.45852,-0.22778,0,-0.032375,0,0,0,0.048625,-0.0042506,0.013312,-1.3696,0.019229,0.046645,2.8429e-06,0.74,0.08,0
0.38278,0.21103,0.049148,-0.0053788,0.013131,-7.0278e-05,0,0,0.46822,-0.24062,0,-0.0018272,0,0,0,0.049177,-0.0054083,0.013131,-0.11263,0.018967,0.048078,2.9883e-06,0.76,0.08,0
0.39227,0.22135,0.05011,-0.0063882,0.013116,0.0016506,0,0,0.48091,-0.25356,0,0.042917,0,0,0,0.050211,-0.00649,0.013116,1.6349,0.018946,0.04988,3.218e-06,0.78,0.08,0
0.40202,0.23296,0.051246,-0.0065741,0.013402,0.0038457,0,0,0.49198,-0.25968,0,0.099987,0,0,0,0.051567,-0.0068952,0.013402,3.781,0.019358,0.051416,3.4922e-06,0.8,0.08,0
0.41195,0.24571,0.052331,-0.0054254,0.014072,0.0060642,0,0,0.49737,-0.25346,0,0.15767,0,0,0,0.053017,-0.0061113,0.014072,5.9574,0.020326,0.052063,3.7483e-06,0.82,0.08,0
0.42192,0.25919,0.053211,-0.003218,0.014998,0.0077329,0,0,0.49677,-0.23681,0,0.20106,0,0,0,0.054285,-0.0042916,0.014998,7.7075,0.021664,0.051709,3.9208e-06,0.84,0.08,0
0.43182,0.27276,0.053848,-0.00075139,0.015929,0.0085354,0,0,0.49295,-0.21685,0,0.22192,0,0,0,0.055168,-0.0020714,0.015929,8.7251,0.023009,0.0507,3.9803e-06,0.86,0.08,0
0.44163,0.28577,0.054322,0.0014058,0.016718,0.008493,0,0,0.48885,-0.19906,0,0.22082,0,0,0,0.055666,6.2469e-05,0.016718,8.939,0.024149,0.04943,3.949e-06,0.88,0.08,0
0.45137,0.29762,0.054727,0.0030752,0.017341,0.0077717,0,0,0.48603,-0.18545,0,0.20206,0,0,0,0.05589,0.0019122,0.017341,8.4135,0.025048,0.048158,3.8697e-06,0.9,0.08,0
0.46107,0.30785,0.055091,0.0042156,0.017792,0.0065585,0,0,0.48489,-0.17649,0,0.17052,0,0,0,0.05595,0.0033564,0.017792,7.2717,0.0257,0.047069,3.7819e-06,0.92,0.08,0
0.47077,0.3161,0.055412,0.0048652,0.018083,0.0050434,0,0,0.48527,-0.17183,0,0.13113,0,0,0,0.055943,0.004334,0.018083,5.6908,0.02612,0.046294,3.716e-06,0.94,0.08,0
0.48049,0.32214,0.055677,0.0051529,0.018249,0.0033877,0,0,0.48656,-0.17025,0,0.08808,0,0,0,0.055936,0.0048937,0.018249,3.8641,0.026359,0.045848,3.6836e-06,0.96,0.08,0
0.49023,0.32581,0.055856,0.0052397,0.018329,0.0022883,0,0,0.48785,-0.17016,0,0.059496,0,0,0,0.055971,0.0051245,0.018329,2.62,0.026475,0.045699,3.6832e-06,0.98,0.08,0
0.49511,0.32704,0.05592,0.0052529,0.018352,0.0020347,0,0,0.48839,-0.17029,0,0.052902,0,0,0,0.056005,0.0051675,0.018352,2.3272,0.026508,0.045696,3.6909e-06,1,0.08,0
0.0069793,0.0062305,0.093635,0.036669,0.039091,0.023796,0,0,0.70907,-0.031492,0,0.6187,0,0,0,0.1023,0.028004,0.039091,19.939,0.056465,0.069438,1.5727e-05,0,0.1,0
0.014181,0.012483,0.093937,0.033148,0.038125,0.02349,0,0,0.72555,-0.064707,0,0.61073,0,0,0,0.10202,0.025066,0.038125,18.899,0.05507,0.071357,1.6555e-05,0.02,0.1,0
0.029022,0.024914,0.09506,0.0263,0.036408,0.022502,0,0,0.76247,-0.1314,0,0.58505,0,0,0,0.10185,0.019514,0.036408,16.668,0.052589,0.075344,1.8284e-05,0.04,0.1,0
0.04468,0.036977,0.096463,0.020061,0.034957,0.02077,0,0,0.79958,-0.19365,0,0.54003,0,0,0,0.10182,0.014706,0.034957,14.317,0.050494,0.078976,1.9775e-05,0.06,0.1,0
0.061005,0.048265,0.097342,0.014852,0.033658,0.018519,0,0,0.82789,-0.24448,0,0.48148,0,0,0,0.10137,0.010826,0.033658,12.122,0.048618,0.08157,2.0659e-05,0.08,0.1,0
0.077796,0.058495,0.097698,0.010851,0.032565,0.016157,0,0,0.84673,-0.28227,0,0.42009,0,0,0,0.10065,0.0078997,0.032565,10.221,0.047038,0.083212,2.1042e-05,0.1,0.1,0
0.094874,0.067514,0.097667,0.0079446,0.031684,0.013978,0,0,0.85779,-0.30861,0,0.36344,0,0,0,0.099823,0.0057885,0.031684,8.6598,0.045765,0.084134,2.1098e-05,0.12,0.1,0
0.11211,0.075254,0.097431,0.0059678,0.03102,0.012112,0,0,0.86335,-0.32567,0,0.31491,0,0,0,0.099026,0.0043731,0.03102,7.4181,0.044806,0.084542,2.0974e-05,0.14,0.1,0
0.12941,0.081684,0.097137,0.0048047,0.030582,0.010569,0,0,0.86521,-0.33511,0,0.27479,0,0,0,0.098342,0.0035992,0.030582,6.4464,0.044175,0.084546,2.0756e-05,0.16,0.1,0
0.14672,0.086764,0.096874,0.0043876,0.030378,0.009293,0,0,0.86444,-0.33788,0,0.24162,0,0,0,0.097806,0.0034555,0.030378,5.6809,0.04388,0.084183,2.0483e-05,0.18,0.1,0
0.16399,0.090416,0.096684,0.0046644,0.030405,0.008178,0,0,0.86164,-0.33462,0,0.21263,0,0,0,0.097413,0.0039362,0.030405,5.0411,0.043918,0.083453,2.0163e-05,0.2,0.1,0
0.18118,0.092478,0.09657,0.0055237,0.030628,0.0070304,0,0,0.85724,-0.32636,0,0.18279,0,0,0,0.09712,0.004973,0.030628,4.3951,0.04424,0.082374,1.9809e-05,0.22,0.1,0
0.19828,0.09261,0.096857,0.006786,0.031093,0.0053161,0,0,0.85493,-0.31599,0,0.13822,0,0,0,0.097214,0.0064286,0.031093,3.3984,0.044912,0.081313,1.9691e-05,0.24,0.1,0
0.21538,0.089967,0.10088,0.0043786,0.031578,0.0039056,0,0,0.83368,-0.31877,0,0.098266,0,0,0,0.10109,0.0041672,0.031578,2.4494,0.045612,0.086578,3.1254e-05,0.26,0.1,0
0.23197,0.08496,0.10796,-0.0018835,0.031823,0.0026998,0,0,0.71514,-0.30438,0,0.083334,0,0,0,0.10823,-0.0021506,0.031823,1.6166,0.045966,0.097959,5.2336e-05,0.28,0.1,0
0.24529,0.081039,0.10774,-0.0044769,0.030979,2.6735e-05,0,0,0.47616,-0.21727,0,0.055995,0,0,0,0.10812,-0.0048571,0.030979,0.12517,0.044748,0.10001,5.4947e-05,0.3,0.1,0
0.25283,0.080838,0.10113,-0.0044076,0.029018,-0.0021421,0,0,0.24401,-0.11108,0,0.016984,0,0,0,0.10143,-0.0047061,0.029018,-1.0166,0.041915,0.093942,4.075e-05,0.32,0.1,0
0.25612,0.083255,0.10024,-0.0060305,0.028264,-0.0018316,0,0,0.12897,-0.05987,0,-0.00022734,0,0,0,0.10038,-0.0061699,0.028264,-0.85113,0.040825,0.094185,3.1368e-05,0.34,0.1,0
0.25818,0.086365,0.10345,-0.0063033,0.029145,0.00022137,0,0,0.10071,-0.047886,0,0.00095374,0,0,0,0.10353,-0.0063806,0.029145,0.14227,0.042099,0.097156,2.841e-05,0.36,0.1,0
0.26012,0.08952,0.10349,-0.003061,0.030127,0.0032925,0,0,0.095365,-0.043145,0,0.0085605,0,0,0,0.10368,-0.0032543,0.030127,1.7768,0.043517,0.094775,2.6277e-05,0.38,0.1,0
0.26199,0.092739,0.1009,0.00054405,0.030434,0.0069594,0,0,0.091608,-0.038857,0,0.018094,0,0,0,0.10149,-4.2673e-05,0.030434,3.96,0.04396,0.09025,2.3823e-05,0.4,0.1,0
0.26379,0.096074,0.097806,0.0025005,0.030092,0.010426,0,0,0.088028,-0.035869,0,0.027107,0,0,0,0.099023,0.0012836,0.030092,6.1654,0.043466,0.086995,2.1794e-05,0.42,0.1,0
0.26551,0.099524,0.094736,0.0044314,0.02975,0.013079,0,0,0.084482,-0.032915,0,0.034007,0,0,0,0.096685,0.0024825,0.02975,8.0637,0.042973,0.083964,1.9991e-05,0.44,0.1,0
0.26717,0.10306,0.091695,0.0060037,0.02931,0.014977,0,0,0.081101,-0.030298,0,0.038939,0,0,0,0.094314,0.003385,0.02931,9.6008,0.042336,0.081141,1.8325e-05,0.46,0.1,0
0.26876,0.10664,0.088603,0.0055826,0.028256,0.015706,0,0,0.078452,-0.029475,0,0.040835,0,0,0,0.091522,0.0026644,0.028256,10.334,0.040814,0.07923,1.6877e-05,0.48,0.1,0
0.2703,0.11018,0.084425,0.0045727,0.026699,0.014894,0,0,0.078221,-0.030002,0,0.039502,0,0,0,0.087148,0.0018494,0.026699,10.092,0.038565,0.075989,1.5479e-05,0.5,0.1,0
0.27187,0.11372,0.078865,0.0041027,0.02489,0.013414,0,0,0.098094,-0.038544,0,0.041604,0,0,0,0.081333,0.0016346,0.02489,9.7511,0.035953,0.070996,1.5555e-05,0.52,0.1,0
0.27434,0.11805,0.076678,-0.0017496,0.022478,0.011098,0,0,0.1916,-0.083698,0,0.057438,0,0,0,0.078745,-0.0038168,0.022478,8.4757,0.032469,0.073229,2.0109e-05,0.54,0.1,0
0.28021,0.12561,0.075298,-0.006158,0.020742,0.0083427,0,0,0.36957,-0.15179,0,0.10723,0,0,0,0.076687,-0.0075462,0.020742,6.5283,0.029961,0.074562,2.0732e-05,0.56,0.1,0
0.29008,0.13654,0.06806,0.0010887,0.020745,0.0065933,0,0,0.50894,-0.18165,0,0.1501,0,0,0,0.069003,0.00014548,0.020745,5.8377,0.029964,0.061437,1.1456e-05,0.58,0.1,0
0.30098,0.14715,0.060718,0.0067152,0.02023,0.0046359,0,0,0.52634,-0.17569,0,0.12053,0,0,0,0.061296,0.0061364,0.02023,4.6529,0.029221,0.049639,4.7163e-06,0.6,0.1,0
0.31113,0.15582,0.056753,0.0057554,0.018753,0.0024612,0,0,0.49401,-0.16896,0,0.06399,0,0,0,0.056995,0.0055137,0.018753,2.65,0.027087,0.046305,3.7645e-06,0.62,0.1,0
0.32074,0.16329,0.053553,0.0045196,0.017422,0.00097439,0,0,0.46971,-0.16773,0,0.025334,0,0,0,0.053679,0.0043942,0.017422,1.1087,0.025165,0.044236,3.1915e-06,0.64,0.1,0
0.32992,0.16993,0.050809,0.0027142,0.016057,-0.00019102,0,0,0.45178,-0.17346,0,-0.0049666,0,0,0,0.050898,0.0026258,0.016057,-0.19044,0.023194,0.043159,2.8226e-06,0.66,0.1,0
0.33881,0.17618,0.048355,0.00031149,0.0146,-0.00091153,0,0,0.43882,-0.18575,0,-0.0237,0,0,0,0.048435,0.00023162,0.0146,-1.0158,0.021089,0.042872,2.5721e-06,0.68,0.1,0
0.34747,0.18258,0.046345,-0.0018168,0.013359,-0.0011631,0,0,0.42883,-0.19728,0,-0.03024,0,0,0,0.046415,-0.0018869,0.013359,-1.3011,0.019296,0.042771,2.3838e-06,0.7,0.1,0
0.35596,0.18958,0.045063,-0.0031298,0.01258,-0.0012773,0,0,0.42228,-0.20423,0,-0.033209,0,0,0,0.045118,-0.0031845,0.01258,-1.4576,0.018171,0.042664,2.263e-06,0.72,0.1,0
0.36436,0.19742,0.044737,-0.0042839,0.012136,-0.0014385,0,0,0.42381,-0.21346,0,-0.0374,0,0,0,0.044792,-0.0043393,0.012136,-1.6925,0.01753,0.043313,2.2693e-06,0.74,0.1,0
0.37291,0.20621,0.045634,-0.0059113,0.011917,-0.0013393,0,0,0.43833,-0.23177,0,-0.034821,0,0,0,0.045712,-0.005989,0.011917,-1.5816,0.017213,0.045476,2.4667e-06,0.76,0.1,0
0.3819,0.21617,0.047634,-0.0079018,0.01192,-0.00044134,0,0,0.46429,-0.25768,0,-0.011475,0,0,0,0.047742,-0.0080098,0.01192,-0.5714,0.017217,0.048936,2.8545e-06,0.78,0.1,0
0.39148,0.22756,0.050246,-0.0090623,0.012355,0.0015394,0,0,0.49258,-0.27843,0,0.040024,0,0,0,0.050439,-0.009255,0.012355,1.4351,0.017846,0.052353,3.3761e-06,0.8,0.1,0
0.4016,0.2404,0.053106,-0.0078538,0.013576,0.004064,0,0,0.51389,-0.27858,0,0.10566,0,0,0,0.053515,-0.0082629,0.013576,3.8367,0.019609,0.05427,3.9566e-06,0.82,0.1,0
0.41204,0.25424,0.055785,-0.0047077,0.015323,0.0061265,0,0,0.526,-0.2604,0,0.15929,0,0,0,0.056495,-0.0054174,0.015323,5.8035,0.022133,0.054591,4.4772e-06,0.84,0.1,0
0.42264,0.26825,0.057994,-0.0013118,0.017005,0.0072453,0,0,0.53286,-0.23811,0,0.18838,0,0,0,0.05893,-0.0022486,0.017005,6.9523,0.024562,0.054188,4.8558e-06,0.86,0.1,0
0.43335,0.28163,0.059848,0.0016347,0.018445,0.0074592,0,0,0.53824,-0.21853,0,0.19394,0,0,0,0.060835,0.00064728,0.018445,7.2758,0.026643,0.053561,5.1038e-06,0.88,0.1,0
0.44417,0.29376,0.061424,0.0039849,0.019623,0.0069112,0,0,0.54342,-0.20329,0,0.17969,0,0,0,0.062286,0.0031228,0.019623,6.851,0.028344,0.052885,5.2538e-06,0.9,0.1,0
0.45509,0.30416,0.062728,0.0055569,0.020485,0.0058054,0,0,0.54915,-0.19407,0,0.15094,0,0,0,0.063355,0.0049301,0.020485,5.827,0.02959,0.05241,5.3591e-06,0.92,0.1,0
0.46614,0.3125,0.063804,0.0063835,0.021056,0.0043923,0,0,0.55572,-0.19075,0,0.1142,0,0,0,0.064179,0.0060089,0.021056,4.437,0.030415,0.052297,5.4767e-06,0.94,0.1,0
0.47732,0.31855,0.064642,0.0066793,0.021396,0.0028927,0,0,0.56219,-0.19132,0,0.07521,0,0,0,0.064818,0.0065036,0.021396,2.9249,0.030906,0.052478,5.6118e-06,0.96,0.1,0
0.48862,0.3222,0.065186,0.0067183,0.021571,0.0020127,0,0,0.567,-0.19309,0,0.052329,0,0,0,0.065267,0.0066374,0.021571,2.0169,0.031159,0.052773,5.7342e-06,0.98,0.1,0
0.4943,0.32343,0.065376,0.0067064,0.021625,0.0018821,0,0,0.56877,-0.19394,0,0.048933,0,0,0,0.065442,0.0066401,0.021625,1.8688,0.031236,0.052926,5.7877e-06,1,0.1,0
0.0069112,0.0056388,0.092766,0.036627,0.038818,0.021583,0,0,0.70132,-0.028482,0,0.56115,0,0,0,0.10013,0.029258,0.038818,18.777,0.05607,0.066631,1.4136e-05,0,0.12,0
0.014026,0.011273,0.093116,0.03354,0.037997,0.021372,0,0,0.71655,-0.057939,0,0.55567,0,0,0,0.10004,0.026614,0.037997,17.869,0.054885,0.06848,1.4953e-05,0.02,0.12,0
0.028662,0.022459,0.094387,0.027572,0.036588,0.020677,0,0,0.75139,-0.1172,0,0.53761,0,0,0,0.10033,0.02163,0.036588,15.93,0.052849,0.072412,1.6726e-05,0.04,0.12,0
0.044082,0.033331,0.096095,0.02203,0.035438,0.019417,0,0,0.78855,-0.1743,0,0.50485,0,0,0,0.10094,0.017189,0.035438,13.879,0.051188,0.076295,1.8471e-05,0.06,0.12,0
0.060204,0.043598,0.097506,0.017113,0.034386,0.017687,0,0,0.82056,-0.22455,0,0.45987,0,0,0,0.10128,0.013342,0.034386,11.908,0.049668,0.079541,1.9856e-05,0.08,0.12,0
0.076905,0.053024,0.098593,0.01306,0.033496,0.015733,0,0,0.84626,-0.26567,0,0.40906,0,0,0,0.10144,0.010217,0.033496,10.121,0.048383,0.082101,2.0889e-05,0.1,0.12,0
0.094055,0.061447,0.099417,0.0099202,0.032801,0.013787,0,0,0.866,-0.29745,0,0.35846,0,0,0,0.10152,0.0078139,0.032801,8.5767,0.047379,0.084053,2.1646e-05,0.12,0.12,0
0.11154,0.068775,0.10009,0.0076597,0.032325,0.011997,0,0,0.88094,-0.32065,0,0.31191,0,0,0,0.10164,0.0061059,0.032325,7.2857,0.046691,0.085501,2.2218e-05,0.14,0.12,0
0.12929,0.074949,0.10074,0.0062438,0.032095,0.010416,0,0,0.89239,-0.33607,0,0.27083,0,0,0,0.10189,0.0050921,0.032095,6.2243,0.04636,0.086521,2.2684e-05,0.16,0.12,0
0.14724,0.079914,0.10151,0.0056693,0.032154,0.0090181,0,0,0.90162,-0.3443,0,0.23447,0,0,0,0.10237,0.0048122,0.032154,5.3383,0.046444,0.087162,2.3107e-05,0.18,0.12,0
0.16536,0.083576,0.10258,0.0059686,0.032563,0.0076856,0,0,0.91017,-0.34573,0,0.19983,0,0,0,0.1032,0.0053404,0.032563,4.5348,0.047036,0.08749,2.3569e-05,0.2,0.12,0
0.18365,0.085753,0.10427,0.0072225,0.033447,0.0061584,0,0,0.92066,-0.34092,0,0.16012,0,0,0,0.1047,0.0067928,0.033447,3.6432,0.048312,0.087674,2.4253e-05,0.22,0.12,0
0.20218,0.086065,0.10708,0.0095931,0.035001,0.0036193,0,0,0.937,-0.33031,0,0.094101,0,0,0,0.10733,0.0093403,0.035001,2.175,0.050557,0.08802,2.5505e-05,0.24,0.12,0
0.22113,0.083455,0.11542,0.0055231,0.036283,0.0016529,0,0,0.8665,-0.3007,0,0.031984,0,0,0,0.11562,0.0053233,0.036283,0.85638,0.052409,0.098795,4.7579e-05,0.26,0.12,0
0.23754,0.079167,0.12206,-0.0034496,0.035583,-0.00016466,0,0,0.60453,-0.22338,0,0.0093962,0,0,0,0.12243,-0.0038206,0.035583,-0.53223,0.051398,0.11229,7.6613e-05,0.28,0.12,0
0.24693,0.077456,0.11664,-0.0045723,0.033619,-0.0031272,0,0,0.30071,-0.12256,0,-0.0066254,0,0,0,0.11711,-0.0050418,0.033619,-2.2151,0.048561,0.10832,6.6812e-05,0.3,0.12,0
0.25069,0.079228,0.11221,-0.004017,0.032457,-0.0027173,0,0,0.14654,-0.064765,0,-0.011003,0,0,0,0.11249,-0.0043013,0.032457,-1.696,0.046882,0.10345,4.3975e-05,0.32,0.12,0
0.25296,0.082222,0.11328,-0.0070213,0.031877,0.00060558,0,0,0.11062,-0.05254,0,0.00093284,0,0,0,0.11341,-0.0071556,0.031877,0.2039,0.046044,0.10656,3.7209e-05,0.34,0.12,0
0.25508,0.085383,0.11131,-0.0080291,0.030985,0.0033819,0,0,0.10443,-0.050718,0,0.008793,0,0,0,0.1115,-0.0082153,0.030985,1.6021,0.044756,0.10572,3.3894e-05,0.36,0.12,0
0.25713,0.088606,0.10755,-0.0063689,0.030353,0.0062457,0,0,0.10035,-0.047739,0,0.016239,0,0,0,0.10798,-0.0068024,0.030353,3.1282,0.043844,0.10145,3.0479e-05,0.38,0.12,0
0.2591,0.091912,0.10405,-0.0035014,0.030164,0.0097212,0,0,0.096049,-0.043765,0,0.025275,0,0,0,0.10503,-0.004487,0.030164,5.1262,0.04357,0.096964,2.7548e-05,0.4,0.12,0
0.26098,0.095324,0.10053,-0.00071194,0.029946,0.013464,0,0,0.091762,-0.039855,0,0.035008,0,0,0,0.10241,-0.0025889,0.029946,7.4428,0.043255,0.093105,2.5122e-05,0.42,0.12,0
0.26277,0.098841,0.096873,0.0019043,0.029633,0.016744,0,0,0.087412,-0.036048,0,0.043535,0,0,0,0.099845,-0.0010676,0.029633,9.6963,0.042804,0.089606,2.2948e-05,0.44,0.12,0
0.26447,0.10243,0.092975,0.0041506,0.029138,0.018917,0,0,0.082988,-0.032483,0,0.049185,0,0,0,0.096925,0.00020027,0.029138,11.508,0.042088,0.085995,2.0715e-05,0.46,0.12,0
0.26609,0.10604,0.088841,0.0055866,0.028328,0.019401,0,0,0.078667,-0.029564,0,0.050443,0,0,0,0.09324,0.0011873,0.028328,12.466,0.040919,0.08193,1.8234e-05,0.48,0.12,0
0.26762,0.10961,0.0847,0.0063056,0.027302,0.018299,0,0,0.074618,-0.027295,0,0.047576,0,0,0,0.088911,0.0020952,0.027302,12.518,0.039436,0.077357,1.5652e-05,0.5,0.12,0
0.26907,0.11313,0.079329,0.005786,0.025534,0.017186,0,0,0.074374,-0.027187,0,0.047856,0,0,0,0.083303,0.0018117,0.025534,12.646,0.036883,0.072603,1.3752e-05,0.52,0.12,0
0.27056,0.11686,0.073129,-0.0012973,0.021549,0.015921,0,0,0.13583,-0.045711,0,0.086709,0,0,0,0.076852,-0.0050205,0.021549,12.364,0.031127,0.072679,1.3589e-05,0.54,0.12,0
0.27464,0.1231,0.069126,-0.0057338,0.019018,0.013578,0,0,0.3165,-0.095803,0,0.18649,0,0,0,0.072204,-0.0088123,0.019018,11.285,0.02747,0.071949,1.2425e-05,0.56,0.12,0
0.28359,0.13314,0.066503,0.0030694,0.020872,0.011153,0,0,0.49508,-0.14552,0,0.25581,0,0,0,0.068834,0.00073856,0.020872,10.395,0.030148,0.061016,8.3418e-06,0.58,0.12,0
0.29465,0.14368,0.063047,0.0090574,0.021631,0.0085364,0,0,0.53841,-0.16346,0,0.22195,0,0,0,0.064573,0.0075321,0.021631,8.6636,0.031245,0.051462,5.3167e-06,0.6,0.12,0
0.30513,0.15248,0.058973,0.00734,0.019894,0.0060686,0,0,0.50803,-0.1632,0,0.15778,0,0,0,0.059839,0.0064742,0.019894,6.4841,0.028736,0.048081,4.288e-06,0.62,0.12,0
0.31497,0.16001,0.05469,0.0056257,0.018095,0.0044597,0,0,0.47574,-0.1621,0,0.11595,0,0,0,0.05526,0.0050558,0.018095,5.0407,0.026137,0.045123,3.4571e-06,0.64,0.12,0
0.32416,0.16657,0.050265,0.0033518,0.016085,0.0034206,0,0,0.44434,-0.16553,0,0.088935,0,0,0,0.050755,0.0028612,0.016085,4.1073,0.023234,0.04285,2.7958e-06,0.66,0.12,0
0.33274,0.17258,0.045996,0.00075962,0.014027,0.0027313,0,0,0.4156,-0.17247,0,0.071015,0,0,0,0.04648,0.0002752,0.014027,3.5476,0.020261,0.041101,2.284e-06,0.68,0.12,0
0.34078,0.17877,0.042258,-0.00097559,0.012385,0.0018131,0,0,0.38836,-0.17369,0,0.04714,0,0,0,0.04259,-0.0013074,0.012385,2.6861,0.017889,0.038907,1.8628e-06,0.7,0.12,0
0.34828,0.1857,0.039408,-0.0018323,0.011273,0.0003806,0,0,0.36575,-0.17036,0,0.0098955,0,0,0,0.039543,-0.0019677,0.011273,0.81683,0.016283,0.036731,1.5594e-06,0.72,0.12,0
0.35541,0.19339,0.038179,-0.0029631,0.010565,-0.0014189,0,0,0.35898,-0.17586,0,-0.036892,0,0,0,0.038313,-0.0030971,0.010565,-1.9383,0.01526,0.036552,1.4785e-06,0.74,0.12,0
0.36264,0.20176,0.039226,-0.0049554,0.010281,-0.003148,0,0,0.37628,-0.19808,0,-0.081849,0,0,0,0.039583,-0.0053127,0.010281,-4.3193,0.014851,0.039486,1.6877e-06,0.76,0.12,0
0.37047,0.21105,0.042654,-0.0078789,0.010433,-0.0040174,0,0,0.41888,-0.23805,0,-0.10445,0,0,0,0.043242,-0.0084662,0.010433,-4.9089,0.015069,0.045322,2.2325e-06,0.78,0.12,0
0.37939,0.22182,0.047647,-0.010826,0.011046,-0.0033143,0,0,0.47581,-0.28434,0,-0.086171,0,0,0,0.048277,-0.011455,0.011046,-3.4323,0.015956,0.052258,3.0791e-06,0.8,0.12,0
0.3895,0.23456,0.053124,-0.010989,0.01264,-0.0008975,0,0,0.52629,-0.30719,0,-0.023335,0,0,0,0.053642,-0.011508,0.01264,-0.68814,0.018258,0.057065,4.1141e-06,0.82,0.12,0
0.40044,0.24877,0.058548,-0.0074072,0.015342,0.0021836,0,0,0.56167,-0.29574,0,0.056773,0,0,0,0.058955,-0.0078146,0.015342,2.1079,0.022161,0.058747,5.2314e-06,0.84,0.12,0
0.41197,0.26324,0.063225,-0.0026864,0.018161,0.0043821,0,0,0.58582,-0.27102,0,0.11394,0,0,0,0.063665,-0.0031273,0.018161,3.9746,0.026233,0.059112,6.2316e-06,0.86,0.12,0
0.42388,0.27703,0.066715,0.0014432,0.020447,0.0052861,0,0,0.60148,-0.24706,0,0.13744,0,0,0,0.067228,0.00092995,0.020447,4.7603,0.029535,0.059022,6.9096e-06,0.88,0.12,0
0.43602,0.28949,0.069328,0.0047262,0.022216,0.0051564,0,0,0.61245,-0.22737,0,0.13407,0,0,0,0.069798,0.0042557,0.022216,4.6661,0.03209,0.058668,7.3255e-06,0.9,0.12,0
0.44838,0.30009,0.071412,0.0068063,0.023466,0.0042782,0,0,0.62331,-0.21657,0,0.11123,0,0,0,0.071749,0.0064693,0.023466,3.8953,0.033895,0.05866,7.6769e-06,0.92,0.12,0
0.46096,0.30847,0.073128,0.0077302,0.024257,0.0030892,0,0,0.63532,-0.21485,0,0.080318,0,0,0,0.073317,0.0075405,0.024257,2.8156,0.035038,0.059216,8.0738e-06,0.94,0.12,0
0.47379,0.31449,0.074479,0.0079139,0.024718,0.0019206,0,0,0.6469,-0.21845,0,0.049935,0,0,0,0.074562,0.0078312,0.024718,1.7447,0.035704,0.060094,8.4908e-06,0.96,0.12,0
0.48683,0.31809,0.075362,0.0078168,0.024953,0.0014773,0,0,0.6553,-0.22278,0,0.03841,0,0,0,0.075406,0.0077718,0.024953,1.3058,0.036044,0.06089,8.8237e-06,0.98,0.12,0
0.4934,0.31929,0.07567,0.0077499,0.025026,0.0015836,0,0,0.65837,-0.22459,0,0.041174,0,0,0,0.075717,0.0077027,0.025026,1.3702,0.036149,0.06122,8.9553e-06,1,0.12,0
0.0068792,0.0050913,0.092357,0.036667,0.038707,0.019497,0,0,0.69745,-0.026523,0,0.50693,0,0,0,0.098534,0.03049,0.038707,17.498,0.05591,0.064347,1.2925e-05,0,0.14,0
0.013949,0.010165,0.092723,0.033864,0.037976,0.019322,0,0,0.71171,-0.053458,0,0.50236,0,0,0,0.098545,0.028042,0.037976,16.677,0.054855,0.066126,1.3715e-05,0.02,0.14,0
0.028468,0.020226,0.094047,0.028504,0.036765,0.018751,0,0,0.74466,-0.1074,0,0.48752,0,0,0,0.099085,0.023466,0.036765,14.933,0.053105,0.069946,1.5458e-05,0.04,0.14,0
0.043735,0.030005,0.095902,0.023527,0.035829,0.017725,0,0,0.78095,-0.15992,0,0.46084,0,0,0,0.10006,0.019367,0.035829,13.086,0.051753,0.07387,1.7284e-05,0.06,0.14,0
0.059707,0.039283,0.097615,0.018958,0.034972,0.016289,0,0,0.81436,-0.20818,0,0.42351,0,0,0,0.1009,0.015669,0.034972,11.28,0.050515,0.077422,1.8925e-05,0.08,0.14,0
0.07631,0.047869,0.099166,0.015008,0.034252,0.014595,0,0,0.84388,-0.25017,0,0.37948,0,0,0,0.10167,0.012506,0.034252,9.5884,0.049475,0.08053,2.0364e-05,0.1,0.14,0
0.093462,0.055616,0.10058,0.011791,0.033711,0.012814,0,0,0.86929,-0.28496,0,0.33316,0,0,0,0.10243,0.0099434,0.033711,8.0673,0.048694,0.083193,2.1628e-05,0.12,0.14,0
0.11108,0.062428,0.10193,0.009362,0.033386,0.011075,0,0,0.89101,-0.31231,0,0.28794,0,0,0,0.10326,0.0080258,0.033386,6.7412,0.048224,0.08543,2.2762e-05,0.14,0.14,0
0.1291,0.068241,0.10329,0.0077687,0.033318,0.0094374,0,0,0.90966,-0.33214,0,0.24537,0,0,0,0.10424,0.006819,0.033318,5.5985,0.048126,0.087247,2.3805e-05,0.16,0.14,0
0.14747,0.072993,0.10479,0.0070912,0.033565,0.0078698,0,0,0.92595,-0.34416,0,0.20461,0,0,0,0.10545,0.0064343,0.033565,4.5845,0.048483,0.088622,2.4788e-05,0.18,0.14,0
0.16614,0.076587,0.10658,0.0074704,0.034215,0.0062133,0,0,0.94073,-0.34768,0,0.16155,0,0,0,0.107,0.0070476,0.034215,3.5803,0.049421,0.089519,2.5739e-05,0.2,0.14,0
0.1851,0.078841,0.10886,0.0091548,0.035405,0.0041003,0,0,0.95494,-0.34125,0,0.10661,0,0,0,0.10909,0.0089254,0.035405,2.3494,0.05114,0.089905,2.6697e-05,0.22,0.14,0
0.20434,0.079398,0.11141,0.012544,0.037187,0.00087415,0,0,0.96493,-0.32035,0,0.022728,0,0,0,0.11154,0.012413,0.037187,0.46231,0.053714,0.089372,2.7377e-05,0.24,0.14,0
0.22369,0.077686,0.11402,0.0078141,0.036551,-0.0019134,0,0,0.85356,-0.25623,0,-0.056211,0,0,0,0.11427,0.0075699,0.036551,-1.3624,0.052795,0.096132,3.5929e-05,0.26,0.14,0
0.23883,0.075405,0.11413,-0.0046761,0.032837,-0.0034822,0,0,0.52957,-0.14998,0,-0.067596,0,0,0,0.11458,-0.0051251,0.032837,-2.4542,0.047431,0.10691,4.7531e-05,0.28,0.14,0
0.24552,0.075664,0.11274,-0.008168,0.031373,-0.0035099,0,0,0.21908,-0.073519,0,-0.032882,0,0,0,0.11316,-0.008579,0.031373,-2.2984,0.045317,0.10791,4.5132e-05,0.3,0.14,0
0.24783,0.07815,0.11404,-0.0073735,0.031999,-1.1725e-05,0,0,0.11338,-0.05353,0,-0.0033922,0,0,0,0.11425,-0.007587,0.031999,-0.21021,0.046221,0.10766,3.8682e-05,0.32,0.14,0
0.25,0.081162,0.11432,-0.0096091,0.031413,0.0039826,0,0,0.10778,-0.053329,0,0.010355,0,0,0,0.11451,-0.0098009,0.031413,1.8478,0.045375,0.10968,3.7029e-05,0.34,0.14,0
0.25214,0.084336,0.11197,-0.010548,0.030426,0.0063409,0,0,0.106,-0.053266,0,0.016486,0,0,0,0.11234,-0.010918,0.030426,2.9567,0.043948,0.10865,3.5209e-05,0.36,0.14,0
0.25424,0.087611,0.10959,-0.0097203,0.02996,0.0090298,0,0,0.10352,-0.051585,0,0.023477,0,0,0,0.11033,-0.010465,0.02996,4.3047,0.043276,0.10651,3.3299e-05,0.38,0.14,0
0.25628,0.090988,0.10704,-0.0076416,0.029819,0.012599,0,0,0.10038,-0.048698,0,0.032758,0,0,0,0.1085,-0.0091085,0.029819,6.199,0.043071,0.10378,3.1438e-05,0.4,0.14,0
0.25826,0.09448,0.104,-0.0048593,0.029743,0.016709,0,0,0.096536,-0.044982,0,0.043443,0,0,0,0.10663,-0.0074895,0.029743,8.5337,0.042961,0.10081,2.9554e-05,0.42,0.14,0
0.26015,0.098082,0.10026,-0.0015994,0.029599,0.020636,0,0,0.091862,-0.040558,0,0.053654,0,0,0,0.10441,-0.0057497,0.029599,11.023,0.042754,0.097432,2.744e-05,0.44,0.14,0
0.26193,0.10176,0.095575,0.0019345,0.029253,0.023547,0,0,0.086218,-0.035514,0,0.061221,0,0,0,0.10129,-0.0037811,0.029253,13.327,0.042254,0.09307,2.471e-05,0.46,0.14,0
0.2636,0.10545,0.089769,0.0053541,0.028537,0.024719,0,0,0.079602,-0.030138,0,0.06427,0,0,0,0.096637,-0.0015132,0.028537,15.12,0.04122,0.087111,2.1091e-05,0.48,0.14,0
0.26512,0.10909,0.083049,0.0078186,0.02726,0.023986,0,0,0.072526,-0.025274,0,0.062365,0,0,0,0.090292,0.00057575,0.02726,16.153,0.039376,0.079798,1.6889e-05,0.5,0.14,0
0.2665,0.11264,0.076634,0.0071053,0.025122,0.022323,0,0,0.066966,-0.023422,0,0.058039,0,0,0,0.083444,0.00029576,0.025122,16.232,0.036287,0.073938,1.3301e-05,0.52,0.14,0
0.2678,0.11614,0.069923,0.00063621,0.021168,0.020218,0,0,0.12302,-0.033528,0,0.10122,0,0,0,0.075703,-0.0051434,0.021168,15.384,0.030576,0.07171,9.7516e-06,0.54,0.14,0
0.27142,0.1216,0.064572,-0.0010604,0.019054,0.017347,0,0,0.29924,-0.066444,0,0.22681,0,0,0,0.069225,-0.0057127,0.019054,14.625,0.027522,0.066755,6.3865e-06,0.56,0.14,0
0.27977,0.13063,0.063854,0.0075998,0.021436,0.01434,0,0,0.47747,-0.11151,0,0.32188,0,0,0,0.06752,0.0039341,0.021436,13.919,0.030963,0.057299,5.4895e-06,0.58,0.14,0
0.29052,0.14061,0.063577,0.011461,0.022512,0.011717,0,0,0.53385,-0.14365,0,0.30463,0,0,0,0.066215,0.0088239,0.022512,12.072,0.032517,0.051924,5.5512e-06,0.6,0.14,0
0.30112,0.14929,0.060824,0.0087664,0.020877,0.0096741,0,0,0.51931,-0.15744,0,0.25153,0,0,0,0.062664,0.0069271,0.020877,10.087,0.030156,0.050238,4.8971e-06,0.62,0.14,0
0.31129,0.1568,0.057173,0.0065464,0.019116,0.0084699,0,0,0.49474,-0.1634,0,0.22022,0,0,0,0.058665,0.005054,0.019116,9.0657,0.027612,0.04815,4.2126e-06,0.64,0.14,0
0.32091,0.16331,0.054334,0.0039514,0.017486,0.0080241,0,0,0.44874,-0.16193,0,0.20225,0,0,0,0.0558,0.002486,0.017486,8.8351,0.025257,0.047632,4.5576e-06,0.66,0.14,0
0.32945,0.16928,0.051807,0.0018526,0.016098,0.0072969,0,0,0.3728,-0.14725,0,0.17525,0,0,0,0.053301,0.00035817,0.016098,9.027,0.023252,0.047117,5.8325e-06,0.68,0.14,0
0.33624,0.17564,0.047463,0.0012872,0.014625,0.00513,0,0,0.30215,-0.12728,0,0.12338,0,0,0,0.048589,0.000161,0.014625,8.0579,0.021125,0.0431,6.4244e-06,0.7,0.14,0
0.34174,0.18277,0.043905,0.00078527,0.013407,0.0019429,0,0,0.26476,-0.11582,0,0.051131,0,0,0,0.044387,0.00030281,0.013407,4.0686,0.019366,0.039238,6.9183e-06,0.72,0.14,0
0.34683,0.19038,0.043361,-0.00058995,0.012831,-0.0015672,0,0,0.25603,-0.11978,0,-0.030246,0,0,0,0.043664,-0.00089303,0.012831,-2.1336,0.018534,0.039547,8.1979e-06,0.74,0.14,0
0.35198,0.19829,0.045048,-0.0026889,0.012708,-0.0051227,0,0,0.27098,-0.14084,0,-0.11154,0,0,0,0.04594,-0.0035802,0.012708,-7.561,0.018356,0.043767,9.8446e-06,0.76,0.14,0
0.35767,0.20665,0.049526,-0.0055317,0.013198,-0.0080076,0,0,0.3135,-0.18195,0,-0.18003,0,0,0,0.051279,-0.0072848,0.013198,-10.118,0.019064,0.051595,1.2182e-05,0.78,0.14,0
0.36452,0.21619,0.057327,-0.010851,0.013943,-0.00936,0,0,0.39347,-0.24365,0,-0.21031,0,0,0,0.059356,-0.012879,0.013943,-9.3212,0.02014,0.063409,1.4777e-05,0.8,0.14,0
0.37371,0.22811,0.064511,-0.015211,0.01479,-0.0079589,0,0,0.51231,-0.30939,0,-0.17582,0,0,0,0.065913,-0.016612,0.01479,-6.0722,0.021364,0.072243,1.4206e-05,0.82,0.14,0
0.38563,0.24241,0.068306,-0.012013,0.016888,-0.0037709,0,0,0.62282,-0.34291,0,-0.085503,0,0,0,0.06888,-0.012587,0.016888,-2.2626,0.024394,0.071488,1.0809e-05,0.84,0.14,0
0.39894,0.2574,0.071875,-0.0051499,0.020017,0.00032364,0,0,0.67414,-0.32718,0,0.0084146,0,0,0,0.072075,-0.0053501,0.020017,0.56666,0.028914,0.068392,9.5095e-06,0.86,0.14,0
0.4126,0.27174,0.075949,0.00069475,0.022993,0.0023952,0,0,0.68843,-0.28988,0,0.062276,0,0,0,0.076117,0.00052696,0.022993,2.0267,0.033212,0.067252,1.0204e-05,0.88,0.14,0
0.42648,0.28466,0.079092,0.0053251,0.025325,0.0027799,0,0,0.69897,-0.26,0,0.072278,0,0,0,0.079259,0.005158,0.025325,2.3089,0.036581,0.066365,1.0737e-05,0.9,0.14,0
0.44056,0.2955,0.081634,0.007941,0.026872,0.0021282,0,0,0.7119,-0.24611,0,0.055332,0,0,0,0.081752,0.0078232,0.026872,1.7941,0.038816,0.066485,1.1319e-05,0.92,0.14,0
0.45495,0.3039,0.08383,0.008774,0.027781,0.0012116,0,0,0.72863,-0.24709,0,0.031502,0,0,0,0.083891,0.0087123,0.027781,1.055,0.040128,0.06769,1.2118e-05,0.94,0.14,0
0.4697,0.30981,0.085611,0.0086464,0.028277,0.00052602,0,0,0.74534,-0.2552,0,0.013677,0,0,0,0.085637,0.0086208,0.028277,0.48781,0.040845,0.069312,1.2972e-05,0.96,0.14,0
0.48477,0.31329,0.086792,0.0083087,0.02853,0.00071316,0,0,0.7574,-0.26288,0,0.018542,0,0,0,0.086815,0.0082853,0.02853,0.57176,0.04121,0.070619,1.3625e-05,0.98,0.14,0
0.49236,0.31444,0.087204,0.0081571,0.028608,0.0011537,0,0,0.76175,-0.26587,0,0.029996,0,0,0,0.087238,0.0081235,0.028608,0.87007,0.041323,0.071121,1.3871e-05,1,0.14,0
0.0068582,0.0045779,0.092092,0.036744,0.038651,0.017524,0,0,0.69473,-0.024785,0,0.45561,0,0,0,0.0972,0.031636,0.038651,16.169,0.055829,0.06237,1.1922e-05,0,0.16,0
0.013895,0.0091348,0.092456,0.03417,0.037988,0.017353,0,0,0.70809,-0.049631,0,0.45119,0,0,0,0.097272,0.029354,0.037988,15.415,0.054871,0.064065,1.2673e-05,0.02,0.16,0
0.028323,0.018163,0.093775,0.029293,0.03692,0.016818,0,0,0.7391,-0.09915,0,0.43726,0,0,0,0.097944,0.025124,0.03692,13.812,0.053329,0.067717,1.4339e-05,0.04,0.16,0
0.043459,0.026934,0.095669,0.024785,0.036136,0.015881,0,0,0.77393,-0.14757,0,0.41291,0,0,0,0.099113,0.021342,0.036136,12.102,0.052197,0.071546,1.6137e-05,0.06,0.16,0
0.059281,0.035271,0.097527,0.02056,0.035426,0.014575,0,0,0.80731,-0.19326,0,0.37895,0,0,0,0.10024,0.017845,0.035426,10.4,0.051171,0.075177,1.7865e-05,0.08,0.16,0
0.075751,0.043017,0.099338,0.016783,0.034836,0.013005,0,0,0.83852,-0.23469,0,0.33814,0,0,0,0.10138,0.014738,0.034836,8.7662,0.050319,0.078558,1.9514e-05,0.1,0.16,0
0.092821,0.050049,0.10111,0.013587,0.03441,0.0113,0,0,0.86715,-0.2707,0,0.29379,0,0,0,0.10259,0.012111,0.03441,7.2552,0.049704,0.081652,2.1089e-05,0.12,0.16,0
0.11044,0.056282,0.10288,0.011078,0.034189,0.0095681,0,0,0.89304,-0.30044,0,0.24877,0,0,0,0.10391,0.010055,0.034189,5.8986,0.049384,0.084418,2.2598e-05,0.14,0.16,0
0.12854,0.061664,0.10468,0.0093725,0.034216,0.007871,0,0,0.91605,-0.32297,0,0.20465,0,0,0,0.10536,0.0086931,0.034216,4.6967,0.049424,0.086772,2.403e-05,0.16,0.16,0
0.14708,0.066148,0.10652,0.0086317,0.034546,0.0061877,0,0,0.93568,-0.33689,0,0.16088,0,0,0,0.10694,0.008209,0.034546,3.6055,0.0499,0.088556,2.5323e-05,0.18,0.16,0
0.16597,0.069669,0.10836,0.0091097,0.03524,0.0043758,0,0,0.95053,-0.3397,0,0.11377,0,0,0,0.10859,0.0088813,0.03524,2.5148,0.050903,0.089489,2.6321e-05,0.2,0.16,0
0.1851,0.072103,0.10996,0.011197,0.036346,0.0021381,0,0,0.95694,-0.32694,0,0.055589,0,0,0,0.11005,0.011105,0.036346,1.2155,0.0525,0.089056,2.6671e-05,0.22,0.16,0
0.20425,0.073251,0.11064,0.015604,0.037873,-0.00076966,0,0,0.94598,-0.28951,0,-0.020011,0,0,0,0.11072,0.015528,0.037873,-0.53429,0.054706,0.086245,2.5612e-05,0.24,0.16,0
0.22294,0.073079,0.10863,0.012623,0.036376,-0.0035316,0,0,0.81994,-0.21015,0,-0.082483,0,0,0,0.10886,0.012391,0.036376,-2.2706,0.052543,0.0876,2.2619e-05,0.26,0.16,0
0.23705,0.072929,0.10628,-0.0021061,0.031251,-0.0046166,0,0,0.50251,-0.11411,0,-0.077817,0,0,0,0.10662,-0.0024502,0.031251,-2.789,0.045141,0.097783,2.303e-05,0.28,0.16,0
0.24304,0.074417,0.10722,-0.011509,0.028712,-0.0028143,0,0,0.20159,-0.062151,0,-0.027964,0,0,0,0.10744,-0.011729,0.028712,-1.5408,0.041473,0.10541,2.879e-05,0.3,0.16,0
0.24511,0.077101,0.10878,-0.01185,0.029079,0.0011225,0,0,0.10361,-0.053207,0,0.0029184,0,0,0,0.10889,-0.011962,0.029079,0.52765,0.042003,0.10645,3.24e-05,0.32,0.16,0
0.24718,0.080089,0.10972,-0.012256,0.029238,0.004549,0,0,0.10462,-0.053942,0,0.011827,0,0,0,0.10992,-0.01246,0.029238,2.1168,0.042233,0.10776,3.3418e-05,0.34,0.16,0
0.24929,0.083252,0.11069,-0.013233,0.029238,0.0071288,0,0,0.10589,-0.055213,0,0.018535,0,0,0,0.11114,-0.013675,0.029238,3.2736,0.042233,0.10984,3.4715e-05,0.36,0.16,0
0.25142,0.086543,0.11088,-0.013345,0.02926,0.010293,0,0,0.1061,-0.055386,0,0.026763,0,0,0,0.11178,-0.01425,0.02926,4.7029,0.042264,0.11088,3.543e-05,0.38,0.16,0
0.25354,0.089964,0.11014,-0.0122,0.029381,0.014459,0,0,0.10498,-0.054055,0,0.037593,0,0,0,0.11192,-0.013983,0.029381,6.6542,0.042439,0.11079,3.5546e-05,0.4,0.16,0
0.25562,0.093525,0.10837,-0.0097668,0.029581,0.019358,0,0,0.10242,-0.051152,0,0.05033,0,0,0,0.11159,-0.012992,0.029581,9.0836,0.042728,0.10969,3.5114e-05,0.42,0.16,0
0.25763,0.097219,0.10536,-0.0060986,0.02978,0.024353,0,0,0.098259,-0.046642,0,0.063317,0,0,0,0.11061,-0.011344,0.02978,11.818,0.043015,0.10747,3.3969e-05,0.44,0.16,0
0.25955,0.10101,0.10081,-0.001337,0.029842,0.028642,0,0,0.09226,-0.040533,0,0.074469,0,0,0,0.10846,-0.0089872,0.029842,14.654,0.043106,0.10365,3.1721e-05,0.46,0.16,0
0.26133,0.10484,0.094445,0.0040605,0.029552,0.031396,0,0,0.084361,-0.033138,0,0.081629,0,0,0,0.10446,-0.0059547,0.029552,17.376,0.042686,0.097642,2.7982e-05,0.48,0.16,0
0.26292,0.1086,0.086697,0.0089503,0.028694,0.031933,0,0,0.075403,-0.025667,0,0.083025,0,0,0,0.098318,-0.002671,0.028694,19.587,0.041447,0.089537,2.2965e-05,0.5,0.16,0
0.26434,0.1122,0.079171,0.0098343,0.026702,0.029794,0,0,0.06821,-0.021928,0,0.077465,0,0,0,0.090429,-0.0014231,0.026702,20.083,0.038569,0.081521,1.7732e-05,0.52,0.16,0
0.26565,0.11552,0.072015,0.0047941,0.023043,0.025234,0,0,0.12229,-0.029296,0,0.11399,0,0,0,0.080734,-0.0039246,0.023043,18.388,0.033284,0.075094,1.251e-05,0.54,0.16,0
0.26923,0.12044,0.066647,0.0045951,0.021373,0.019921,0,0,0.29514,-0.052136,0,0.23809,0,0,0,0.072676,-0.0014338,0.021373,16.661,0.030872,0.066209,8.0299e-06,0.56,0.16,0
0.27746,0.12868,0.065301,0.01198,0.023184,0.015894,0,0,0.47341,-0.089925,0,0.34777,0,0,0,0.06976,0.0075205,0.023184,15.629,0.033488,0.056378,6.1477e-06,0.58,0.16,0
0.28817,0.13794,0.064965,0.01352,0.023545,0.013633,0,0,0.53846,-0.13034,0,0.35445,0,0,0,0.068409,0.010076,0.023545,13.972,0.03401,0.052914,5.9727e-06,0.6,0.16,0
0.299,0.14618,0.063669,0.010152,0.022146,0.012335,0,0,0.5398,-0.15593,0,0.3207,0,0,0,0.066407,0.007414,0.022146,12.328,0.031989,0.053183,5.817e-06,0.62,0.16,0
0.30976,0.15347,0.064388,0.0087462,0.02194,0.011164,0,0,0.51833,-0.16294,0,0.29254,0,0,0,0.06675,0.0063843,0.02194,11.205,0.031691,0.054296,6.9255e-06,0.64,0.16,0
0.31996,0.16004,0.067033,0.0065838,0.022085,0.009484,0,0,0.42961,-0.14373,0,0.24353,0,0,0,0.0691,0.0045169,0.022085,10.071,0.031901,0.057873,1.031e-05,0.66,0.16,0
0.3278,0.16659,0.068564,0.0035907,0.021646,0.006935,0,0,0.28589,-0.10411,0,0.17137,0,0,0,0.070379,0.0017762,0.021646,9.2475,0.031267,0.061203,1.4032e-05,0.68,0.16,0
0.33242,0.17363,0.070615,0.0031708,0.022136,0.0036671,0,0,0.18438,-0.075107,0,0.10462,0,0,0,0.07203,0.0017561,0.022136,7.8965,0.031974,0.062698,1.7676e-05,0.7,0.16,0
0.33557,0.18107,0.074549,0.0032153,0.023329,0.00015724,0,0,0.15661,-0.06743,0,0.042142,0,0,0,0.075253,0.0025107,0.023329,3.734,0.033698,0.064933,2.2681e-05,0.72,0.16,0
0.33868,0.1886,0.078493,0.0017797,0.024082,-0.0033664,0,0,0.1584,-0.07228,0,-0.023041,0,0,0,0.078929,0.0013442,0.024082,-2.544,0.034785,0.069111,2.8126e-05,0.74,0.16,0
0.34191,0.19613,0.081199,-0.00041089,0.024237,-0.0068829,0,0,0.16718,-0.085824,0,-0.086764,0,0,0,0.082289,-0.0015007,0.024237,-7.8332,0.035008,0.074425,3.217e-05,0.76,0.16,0
0.34537,0.20377,0.083194,-0.0033527,0.023952,-0.0099199,0,0,0.18532,-0.11029,0,-0.14916,0,0,0,0.085381,-0.0055394,0.023952,-10.606,0.034598,0.080557,3.4946e-05,0.78,0.16,0
0.34932,0.21195,0.085147,-0.010937,0.022263,-0.0116,0,0,0.24736,-0.15532,0,-0.18997,0,0,0,0.087733,-0.013523,0.022263,-10.39,0.032158,0.089265,3.5979e-05,0.8,0.16,0
0.35586,0.22195,0.087452,-0.019221,0.020469,-0.011169,0,0,0.41655,-0.24307,0,-0.19685,0,0,0,0.089251,-0.02102,0.020469,-7.8095,0.029567,0.096656,3.4331e-05,0.82,0.16,0
0.36754,0.23494,0.088729,-0.016822,0.021572,-0.0082013,0,0,0.64424,-0.34946,0,-0.1673,0,0,0,0.089575,-0.017668,0.021572,-4.7085,0.03116,0.094035,2.8667e-05,0.84,0.16,0
0.38296,0.25015,0.087609,-0.008481,0.023738,-0.0038348,0,0,0.77983,-0.38952,0,-0.091589,0,0,0,0.087921,-0.0087932,0.023738,-2.017,0.034289,0.085265,2.0403e-05,0.86,0.16,0
0.39911,0.26544,0.088149,-0.00069387,0.026236,-0.00065219,0,0,0.80486,-0.35009,0,-0.016957,0,0,0,0.08823,-0.00077469,0.026236,-0.21852,0.037897,0.079074,1.6274e-05,0.88,0.16,0
0.41516,0.27909,0.091115,0.0059181,0.02911,0.00013061,0,0,0.80607,-0.30149,0,0.0033957,0,0,0,0.091162,0.005871,0.02911,0.22194,0.042048,0.076387,1.6406e-05,0.9,0.16,0
0.43135,0.29024,0.093842,0.0090163,0.030858,-0.00048712,0,0,0.8188,-0.28394,0,-0.012665,0,0,0,0.093895,0.0089643,0.030858,-0.19066,0.044572,0.076376,1.7232e-05,0.92,0.16,0
0.44791,0.29859,0.096296,0.0093386,0.03169,-0.0011061,0,0,0.83987,-0.29057,0,-0.028758,0,0,0,0.096344,0.0092908,0.03169,-0.60824,0.045775,0.078296,1.8614e-05,0.94,0.16,0
0.46495,0.30428,0.098388,0.0086903,0.032124,-0.0011583,0,0,0.86144,-0.30463,0,-0.030115,0,0,0,0.09842,0.0086581,0.032124,-0.66092,0.046401,0.080634,2.008e-05,0.96,0.16,0
0.48237,0.30757,0.09975,0.0080416,0.032338,-0.00019506,0,0,0.87636,-0.31585,0,-0.0050715,0,0,0,0.099775,0.0080169,0.032338,-0.082841,0.04671,0.082339,2.1121e-05,0.98,0.16,0
0.49116,0.30865,0.10021,0.007787,0.0324,0.00063844,0,0,0.88157,-0.31997,0,0.016599,0,0,0,0.10024,0.0077589,0.0324,0.42353,0.0468,0.082956,2.1494e-05,1,0.16,0
0.0068342,0.0040999,0.091788,0.036827,0.038584,0.015675,0,0,0.69165,-0.022849,0,0.40755,0,0,0,0.095968,0.032647,0.038584,14.847,0.055733,0.060586,1.1046e-05,0,0.18,0
0.013833,0.0081799,0.092137,0.034477,0.037984,0.015495,0,0,0.70399,-0.045597,0,0.40286,0,0,0,0.096072,0.030542,0.037984,14.153,0.054866,0.062168,1.1741e-05,0.02,0.18,0
0.02816,0.01626,0.093403,0.030048,0.037035,0.014944,0,0,0.73278,-0.090839,0,0.38854,0,0,0,0.096792,0.026658,0.037035,12.661,0.053495,0.065583,1.3284e-05,0.04,0.18,0
0.043144,0.024102,0.095251,0.025956,0.036362,0.014009,0,0,0.76555,-0.13528,0,0.36424,0,0,0,0.09802,0.023186,0.036362,11.037,0.052523,0.069209,1.4977e-05,0.06,0.18,0
0.058782,0.031553,0.097129,0.022059,0.035756,0.012723,0,0,0.79784,-0.17807,0,0.33081,0,0,0,0.099273,0.019915,0.035756,9.3878,0.051648,0.072755,1.6672e-05,0.08,0.18,0
0.075058,0.038481,0.099037,0.018484,0.035256,0.011174,0,0,0.82915,-0.21804,0,0.29053,0,0,0,0.1006,0.016917,0.035256,7.7729,0.050926,0.076202,1.8375e-05,0.1,0.18,0
0.091948,0.044788,0.10098,0.015362,0.034902,0.0094689,0,0,0.85899,-0.25402,0,0.24619,0,0,0,0.10206,0.014283,0.034902,6.2506,0.050414,0.079503,2.0087e-05,0.12,0.18,0
0.10942,0.050411,0.10296,0.012828,0.034735,0.0077096,0,0,0.88687,-0.28479,0,0.20045,0,0,0,0.10365,0.012132,0.034735,4.8627,0.050173,0.082577,2.1793e-05,0.14,0.18,0
0.12742,0.055322,0.10495,0.011042,0.034799,0.0059721,0,0,0.91201,-0.30883,0,0.15527,0,0,0,0.10537,0.010626,0.034799,3.6273,0.050265,0.08527,2.3439e-05,0.16,0.18,0
0.1459,0.059517,0.10689,0.010228,0.035136,0.0042885,0,0,0.93283,-0.3238,0,0.1115,0,0,0,0.10712,0.010005,0.035136,2.5328,0.050752,0.087304,2.4878e-05,0.18,0.18,0
0.16474,0.062999,0.10856,0.010728,0.035785,0.0026297,0,0,0.94603,-0.32575,0,0.068371,0,0,0,0.10866,0.010629,0.035785,1.5288,0.05169,0.088184,2.5794e-05,0.2,0.18,0
0.18374,0.065764,0.10953,0.013094,0.036786,0.00091784,0,0,0.94562,-0.308,0,0.023864,0,0,0,0.10956,0.013062,0.036786,0.52323,0.053135,0.0871,2.562e-05,0.22,0.18,0
0.20256,0.067817,0.10938,0.018174,0.038266,-0.00084582,0,0,0.92446,-0.26119,0,-0.021991,0,0,0,0.10941,0.018138,0.038266,-0.57249,0.055272,0.083096,2.3703e-05,0.24,0.18,0
0.22072,0.06928,0.10771,0.016405,0.037235,-0.002439,0,0,0.79539,-0.18134,0,-0.052051,0,0,0,0.10782,0.016298,0.037235,-1.5548,0.053784,0.083574,2.1461e-05,0.26,0.18,0
0.23438,0.070841,0.10587,4.5493e-05,0.031775,-0.0031777,0,0,0.48776,-0.1013,0,-0.044138,0,0,0,0.10601,-9.661e-05,0.031775,-1.8265,0.045897,0.095256,2.3428e-05,0.28,0.18,0
0.24023,0.073178,0.10551,-0.013673,0.02755,-0.0023548,0,0,0.19754,-0.062536,0,-0.016516,0,0,0,0.10559,-0.01376,0.02755,-1.1911,0.039795,0.10537,2.8297e-05,0.3,0.18,0
0.24228,0.076022,0.10614,-0.014915,0.027368,-0.00024862,0,0,0.1024,-0.054967,0,-0.0006464,0,0,0,0.10619,-0.014968,0.027368,-0.10369,0.039531,0.10651,3.0606e-05,0.32,0.18,0
0.24432,0.079004,0.10789,-0.014529,0.028007,0.0024138,0,0,0.10384,-0.055297,0,0.0062759,0,0,0,0.108,-0.014646,0.028007,1.1179,0.040455,0.10785,3.2152e-05,0.34,0.18,0
0.24643,0.082127,0.11052,-0.016289,0.028268,0.0055741,0,0,0.10692,-0.057924,0,0.014493,0,0,0,0.11084,-0.016609,0.028268,2.5002,0.040832,0.11197,3.5061e-05,0.36,0.18,0
0.2486,0.085395,0.11268,-0.017547,0.02854,0.0096207,0,0,0.10938,-0.059914,0,0.025014,0,0,0,0.11348,-0.018347,0.02854,4.1973,0.041225,0.11575,3.7893e-05,0.38,0.18,0
0.25081,0.088826,0.11383,-0.01743,0.02892,0.014727,0,0,0.11038,-0.060256,0,0.038289,0,0,0,0.11559,-0.019189,0.02892,6.3288,0.041774,0.11831,4.018e-05,0.4,0.18,0
0.25302,0.092434,0.11381,-0.01558,0.029468,0.020686,0,0,0.10964,-0.058563,0,0.053783,0,0,0,0.1172,-0.018974,0.029468,8.8861,0.042565,0.11956,4.1878e-05,0.42,0.18,0
0.25519,0.096216,0.11244,-0.011802,0.030192,0.02701,0,0,0.10693,-0.054592,0,0.070225,0,0,0,0.11826,-0.01762,0.030192,11.79,0.043611,0.11939,4.2868e-05,0.44,0.18,0
0.25729,0.10014,0.10943,-0.0061206,0.030993,0.032997,0,0,0.10197,-0.048248,0,0.085792,0,0,0,0.11841,-0.0151,0.030993,14.932,0.044768,0.11746,4.274e-05,0.46,0.18,0
0.25927,0.10413,0.1044,0.00098675,0.031617,0.037812,0,0,0.094621,-0.039819,0,0.098311,0,0,0,0.11697,-0.011584,0.031617,18.18,0.045668,0.11332,4.0885e-05,0.48,0.18,0
0.26108,0.10807,0.097047,0.0081508,0.031559,0.040298,0,0,0.085134,-0.030431,0,0.10478,0,0,0,0.11276,-0.0075662,0.031559,21.18,0.045586,0.10632,3.6323e-05,0.5,0.18,0
0.26268,0.11176,0.088697,0.012861,0.030467,0.03881,0,0,0.075698,-0.022889,0,0.10091,0,0,0,0.10517,-0.0036133,0.030467,22.713,0.044008,0.096391,2.9099e-05,0.52,0.18,0
0.26411,0.11497,0.079805,0.01172,0.027457,0.032293,0,0,0.12745,-0.025132,0,0.13317,0,0,0,0.093028,-0.0015031,0.027457,21.344,0.039661,0.084044,2.0147e-05,0.54,0.18,0
0.26777,0.11951,0.071861,0.011141,0.024901,0.02384,0,0,0.30192,-0.042983,0,0.26454,0,0,0,0.080382,0.0026205,0.024901,18.861,0.035968,0.069733,1.1838e-05,0.56,0.18,0
0.27618,0.12703,0.068569,0.015741,0.025293,0.018178,0,0,0.48546,-0.077439,0,0.39276,0,0,0,0.074358,0.0099525,0.025293,17.23,0.036535,0.058509,7.7068e-06,0.58,0.18,0
0.28719,0.1354,0.068032,0.016249,0.025284,0.015182,0,0,0.55572,-0.11746,0,0.39474,0,0,0,0.072281,0.012,0.025284,15.136,0.036522,0.054883,6.8575e-06,0.6,0.18,0
0.29841,0.14305,0.070115,0.01369,0.025142,0.011972,0,0,0.54801,-0.14067,0,0.33459,0,0,0,0.073413,0.010393,0.025142,12.268,0.036316,0.057115,9.0051e-06,0.62,0.18,0
0.30932,0.15022,0.076597,0.013305,0.02697,0.0074763,0,0,0.47386,-0.13341,0,0.26152,0,0,0,0.079507,0.010394,0.02697,8.8628,0.038957,0.06252,1.4958e-05,0.64,0.18,0
0.31822,0.15734,0.081503,0.0099443,0.027434,0.0023783,0,0,0.32344,-0.098597,0,0.15766,0,0,0,0.083692,0.007755,0.027434,5.2273,0.039627,0.068319,2.0367e-05,0.66,0.18,0
0.32353,0.16488,0.087534,0.0046618,0.027659,-0.0020999,0,0,0.18092,-0.06325,0,0.065306,0,0,0,0.089087,0.0031089,0.027659,2.4654,0.039951,0.07677,2.5002e-05,0.68,0.18,0
0.32626,0.17254,0.10105,0.0039812,0.031508,-0.0047265,0,0,0.11891,-0.048247,0,0.019519,0,0,0,0.10224,0.0027875,0.031508,0.54989,0.045512,0.088694,3.2436e-05,0.7,0.18,0
0.32846,0.18007,0.11355,0.0047649,0.035493,-0.0059949,0,0,0.11464,-0.047776,0,-0.002858,0,0,0,0.11432,0.003994,0.035493,-1.3173,0.051268,0.098452,4.1268e-05,0.72,0.18,0
0.33084,0.18749,0.11997,0.0034417,0.037022,-0.0070711,0,0,0.12191,-0.052167,0,-0.022127,0,0,0,0.12054,0.0028723,0.037022,-3.408,0.053476,0.10486,4.8527e-05,0.74,0.18,0
0.33334,0.19486,0.12225,0.00094893,0.03696,-0.0080037,0,0,0.12582,-0.0579,0,-0.040058,0,0,0,0.12301,0.00019343,0.03696,-5.0688,0.053387,0.10922,5.2375e-05,0.76,0.18,0
0.33588,0.20224,0.12065,-0.0032192,0.03523,-0.0085264,0,0,0.12693,-0.066061,0,-0.058579,0,0,0,0.12181,-0.0043743,0.03523,-5.8413,0.050888,0.11188,5.267e-05,0.78,0.18,0
0.33842,0.20975,0.11283,-0.012189,0.030192,-0.0080793,0,0,0.14856,-0.085838,0,-0.074593,0,0,0,0.11412,-0.013478,0.030192,-5.7746,0.043611,0.11252,4.9363e-05,0.8,0.18,0
0.34207,0.21778,0.10511,-0.020836,0.025282,-0.0072593,0,0,0.2626,-0.14615,0,-0.097131,0,0,0,0.10607,-0.021801,0.025282,-4.9987,0.036519,0.11215,4.9156e-05,0.82,0.18,0
0.35013,0.22787,0.10782,-0.019339,0.026543,-0.0068291,0,0,0.51142,-0.26838,0,-0.13091,0,0,0,0.10847,-0.019988,0.026543,-3.9472,0.03834,0.11269,5.5613e-05,0.84,0.18,0
0.36463,0.24165,0.11021,-0.011876,0.029502,-0.0054408,0,0,0.78175,-0.38739,0,-0.13077,0,0,0,0.11063,-0.012289,0.029502,-2.7966,0.042613,0.10828,5.0981e-05,0.86,0.18,0
0.38298,0.25774,0.10661,-0.0024014,0.031262,-0.0033536,0,0,0.91836,-0.4041,0,-0.088696,0,0,0,0.10679,-0.0025813,0.031262,-1.713,0.045157,0.097037,3.4407e-05,0.88,0.18,0
0.4018,0.2726,0.10604,0.0065968,0.033792,-0.0026698,0,0,0.93928,-0.35354,0,-0.069415,0,0,0,0.10615,0.0064896,0.033792,-1.4193,0.048811,0.089228,2.6193e-05,0.9,0.18,0
0.42055,0.28414,0.10853,0.0098754,0.035521,-0.0032517,0,0,0.9491,-0.3334,0,-0.084543,0,0,0,0.10867,0.0097388,0.035521,-1.7797,0.051309,0.088887,2.7054e-05,0.92,0.18,0
0.43977,0.29228,0.11101,0.0092587,0.036081,-0.0034959,0,0,0.97409,-0.34869,0,-0.090894,0,0,0,0.11115,0.0091204,0.036081,-1.8885,0.052117,0.091577,2.9242e-05,0.94,0.18,0
0.45952,0.29762,0.11302,0.0080042,0.036308,-0.0028103,0,0,0.9973,-0.36795,0,-0.073067,0,0,0,0.11311,0.0079154,0.036308,-1.4911,0.052445,0.094267,3.1217e-05,0.96,0.18,0
0.47966,0.30066,0.11422,0.0070091,0.036369,-0.0010687,0,0,1.0121,-0.38168,0,-0.027786,0,0,0,0.11426,0.0069663,0.036369,-0.55188,0.052533,0.096036,3.2472e-05,0.98,0.18,0
0.4898,0.30164,0.11461,0.0066419,0.036377,0.00013262,0,0,1.0171,-0.38655,0,0.0034482,0,0,0,0.11464,0.006613,0.036377,0.08737,0.052544,0.09665,3.2904e-05,1,0.18,0
0.0068003,0.003664,0.091356,0.036899,0.038476,0.013983,0,0,0.68743,-0.020506,0,0.36356,0,0,0,0.094756,0.033499,0.038476,13.588,0.055577,0.058939,1.0259e-05,0,0.2,0
0.013749,0.0073109,0.091679,0.034795,0.037942,0.013784,0,0,0.69857,-0.04091,0,0.35838,0,0,0,0.094872,0.031602,0.037942,12.949,0.054805,0.060371,1.088e-05,0.02,0.2,0
0.027943,0.01453,0.092847,0.030826,0.037102,0.01319,0,0,0.72468,-0.081585,0,0.34293,0,0,0,0.095571,0.028102,0.037102,11.549,0.053592,0.063466,1.2257e-05,0.04,0.2,0
0.042736,0.021523,0.09457,0.027132,0.03651,0.012205,0,0,0.75477,-0.12192,0,0.31734,0,0,0,0.096752,0.02495,0.03651,9.9756,0.052737,0.066791,1.3784e-05,0.06,0.2,0
0.058134,0.028148,0.096362,0.023552,0.035974,0.010872,0,0,0.78504,-0.16148,0,0.28268,0,0,0,0.097995,0.021919,0.035974,8.3369,0.051963,0.070126,1.5356e-05,0.08,0.2,0
0.074137,0.034295,0.098228,0.020189,0.035525,0.0092773,0,0,0.81514,-0.19937,0,0.24121,0,0,0,0.099361,0.019055,0.035525,6.7051,0.051314,0.07348,1.6995e-05,0.1,0.2,0
0.090739,0.039888,0.10017,0.017166,0.0352,0.007521,0,0,0.84458,-0.23444,0,0.19555,0,0,0,0.10089,0.016444,0.0352,5.1481,0.050844,0.076813,1.8703e-05,0.12,0.2,0
0.10792,0.044891,0.10217,0.014629,0.035041,0.0057077,0,0,0.87272,-0.26534,0,0.1484,0,0,0,0.10259,0.014216,0.035041,3.7202,0.050614,0.080023,2.0457e-05,0.14,0.2,0
0.12565,0.04931,0.10421,0.012762,0.035092,0.0039396,0,0,0.89855,-0.29029,0,0.10243,0,0,0,0.10442,0.012553,0.035092,2.4611,0.050689,0.082931,2.2188e-05,0.16,0.2,0
0.14386,0.053196,0.10619,0.01181,0.0354,0.0023216,0,0,0.92026,-0.30667,0,0.06036,0,0,0,0.10628,0.01172,0.0354,1.4012,0.051133,0.085225,2.3733e-05,0.18,0.2,0
0.16246,0.056639,0.10788,0.012137,0.036004,0.0009783,0,0,0.93435,-0.31027,0,0.025436,0,0,0,0.10791,0.012105,0.036004,0.5745,0.052006,0.086373,2.4757e-05,0.2,0.2,0
0.18124,0.059783,0.10886,0.014309,0.036951,6.1857e-05,0,0,0.93483,-0.29434,0,0.0016083,0,0,0,0.10887,0.0143,0.036951,0.027043,0.053374,0.085533,2.4684e-05,0.22,0.2,0
0.19985,0.062803,0.10875,0.019146,0.038368,-0.00032724,0,0,0.91494,-0.24989,0,-0.0085081,0,0,0,0.10876,0.019135,0.038368,-0.21319,0.055421,0.081753,2.2876e-05,0.24,0.2,0
0.21783,0.065826,0.10723,0.017296,0.037359,-0.00038397,0,0,0.78826,-0.17381,0,-0.0076978,0,0,0,0.10726,0.017265,0.037359,-0.23576,0.053963,0.082325,2.0901e-05,0.26,0.2,0
0.23138,0.068876,0.10561,0.00077506,0.031916,-0.00090101,0,0,0.48412,-0.098218,0,-0.0048709,0,0,0,0.10566,0.00072685,0.031916,-0.43232,0.046101,0.094273,2.3222e-05,0.28,0.2,0
0.2372,0.071915,0.10546,-0.013884,0.027473,-0.0020787,0,0,0.19688,-0.062464,0,-0.0057405,0,0,0,0.10553,-0.01395,0.027473,-0.9614,0.039683,0.10546,2.8398e-05,0.3,0.2,0
0.23926,0.074902,0.10644,-0.016445,0.026999,-0.002478,0,0,0.10327,-0.056477,0,-0.0064428,0,0,0,0.10653,-0.016532,0.026999,-1.145,0.038998,0.10809,3.1188e-05,0.32,0.2,0
0.24133,0.077877,0.10872,-0.017178,0.027462,-0.00088146,0,0,0.10563,-0.058033,0,-0.0022918,0,0,0,0.10881,-0.017265,0.027462,-0.39996,0.039668,0.11071,3.3369e-05,0.34,0.2,0
0.24348,0.080935,0.11209,-0.020013,0.027624,0.0025644,0,0,0.10981,-0.061929,0,0.0066674,0,0,0,0.11226,-0.020175,0.027624,1.1021,0.039902,0.11616,3.7074e-05,0.36,0.2,0
0.24572,0.084147,0.11534,-0.022406,0.027881,0.0073694,0,0,0.1137,-0.065373,0,0.01916,0,0,0,0.11587,-0.022934,0.027881,3.0454,0.040273,0.12164,4.1124e-05,0.38,0.2,0
0.24803,0.087554,0.11797,-0.023361,0.028383,0.013292,0,0,0.11646,-0.067267,0,0.03456,0,0,0,0.11938,-0.024769,0.028383,5.3286,0.040997,0.12626,4.5182e-05,0.4,0.2,0
0.25038,0.091182,0.11984,-0.022275,0.029271,0.020161,0,0,0.11774,-0.067009,0,0.052418,0,0,0,0.12286,-0.02529,0.029271,7.9413,0.04228,0.12978,4.9297e-05,0.42,0.2,0
0.25274,0.095035,0.12084,-0.018687,0.030645,0.027611,0,0,0.11725,-0.064131,0,0.071789,0,0,0,0.12636,-0.024208,0.030645,10.849,0.044264,0.13199,5.3451e-05,0.44,0.2,0
0.25507,0.099081,0.12081,-0.012345,0.03254,0.035023,0,0,0.11475,-0.058351,0,0.091061,0,0,0,0.12976,-0.021288,0.03254,13.971,0.047002,0.1326,5.7411e-05,0.46,0.2,0
0.25733,0.10324,0.11949,-0.0037183,0.034732,0.041538,0,0,0.11019,-0.049986,0,0.108,0,0,0,0.13251,-0.016734,0.034732,17.162,0.050169,0.13131,6.037e-05,0.48,0.2,0
0.25948,0.10738,0.11623,0.005781,0.036602,0.046196,0,0,0.10351,-0.040067,0,0.12011,0,0,0,0.13333,-0.011323,0.036602,20.229,0.05287,0.12764,6.128e-05,0.5,0.2,0
0.26147,0.11128,0.10912,0.014009,0.036938,0.046613,0,0,0.093833,-0.029808,0,0.12119,0,0,0,0.12845,-0.0053214,0.036938,22.54,0.053355,0.11847,5.4748e-05,0.52,0.2,0
0.26323,0.11451,0.096987,0.017205,0.034258,0.041086,0,0,0.15717,-0.026125,0,0.1608,0,0,0,0.115,-0.00080951,0.034258,22.585,0.049483,0.10311,3.856e-05,0.54,0.2,0
0.26776,0.11872,0.089186,0.018093,0.032184,0.031514,0,0,0.34209,-0.039951,0,0.30364,0,0,0,0.10284,0.0044351,0.032184,20.387,0.046488,0.088395,2.9731e-05,0.56,0.2,0
0.27729,0.12559,0.090282,0.020631,0.033274,0.021943,0,0,0.48588,-0.066578,0,0.42356,0,0,0,0.098842,0.012071,0.033274,18.029,0.048062,0.07866,3.7024e-05,0.58,0.2,0
0.28793,0.13324,0.092012,0.020888,0.03387,0.014943,0,0,0.50286,-0.089932,0,0.38092,0,0,0,0.096938,0.015962,0.03387,15.275,0.048923,0.073717,5.0718e-05,0.6,0.2,0
0.29777,0.14051,0.09622,0.020727,0.035084,0.0065231,0,0,0.46038,-0.097825,0,0.2495,0,0,0,0.099671,0.017276,0.035084,9.3742,0.050677,0.075125,5.9906e-05,0.62,0.2,0
0.30672,0.1479,0.10253,0.020062,0.036777,-0.0038221,0,0,0.34715,-0.08242,0,0.11903,0,0,0,0.10578,0.016807,0.036777,1.8222,0.053122,0.0809,5.5979e-05,0.64,0.2,0
0.31259,0.15575,0.10778,0.013407,0.036357,-0.010366,0,0,0.20566,-0.058755,0,0.023578,0,0,0,0.11046,0.010728,0.036357,-2.7964,0.052516,0.089777,4.976e-05,0.66,0.2,0
0.31569,0.16385,0.11835,0.0063605,0.037413,-0.012969,0,0,0.13273,-0.04857,0,-0.020767,0,0,0,0.12028,0.0044268,0.037413,-4.6063,0.054041,0.10342,5.2003e-05,0.68,0.2,0
0.31807,0.17166,0.13105,0.0050015,0.040814,-0.013124,0,0,0.12065,-0.047959,0,-0.031988,0,0,0,0.13255,0.0034968,0.040814,-5.2787,0.058954,0.11503,5.6973e-05,0.7,0.2,0
0.32051,0.17916,0.13798,0.0052404,0.042966,-0.011689,0,0,0.12352,-0.049044,0,-0.03039,0,0,0,0.13907,0.0041543,0.042966,-4.9298,0.062063,0.1203,6.0602e-05,0.72,0.2,0
0.32301,0.18651,0.14052,0.0038415,0.043308,-0.010054,0,0,0.12637,-0.051306,0,-0.026142,0,0,0,0.14129,0.0030736,0.043308,-4.1765,0.062556,0.12313,6.3081e-05,0.74,0.2,0
0.32556,0.19381,0.1412,0.0011524,0.042705,-0.0082325,0,0,0.12804,-0.054019,0,-0.021405,0,0,0,0.14171,0.00064318,0.042705,-3.3702,0.061685,0.12544,6.4628e-05,0.76,0.2,0
0.32813,0.20113,0.14041,-0.0038342,0.040974,-0.0061546,0,0,0.12927,-0.05825,0,-0.016002,0,0,0,0.14073,-0.0041522,0.040974,-2.4993,0.059184,0.12843,6.5863e-05,0.78,0.2,0
0.33073,0.20843,0.13587,-0.012936,0.036879,-0.0040634,0,0,0.13373,-0.068039,0,-0.013932,0,0,0,0.13608,-0.01315,0.036879,-1.9027,0.053269,0.1316,6.6619e-05,0.8,0.2,0
0.33345,0.2156,0.12761,-0.020168,0.032232,-0.0025569,0,0,0.16821,-0.091079,0,-0.021515,0,0,0,0.1278,-0.020359,0.032232,-1.6574,0.046558,0.13014,6.9513e-05,0.82,0.2,0
0.3377,0.22327,0.1272,-0.018323,0.032663,-0.0018839,0,0,0.31291,-0.1586,0,-0.04438,0,0,0,0.12747,-0.018597,0.032663,-1.2398,0.04718,0.1284,8.7002e-05,0.84,0.2,0
0.34734,0.23396,0.13698,-0.012767,0.037263,-0.002773,0,0,0.61005,-0.28913,0,-0.083974,0,0,0,0.13735,-0.013136,0.037263,-1.2142,0.053825,0.13271,0.00012037,0.86,0.2,0
0.36448,0.24908,0.13969,-0.0039436,0.040723,-0.0041596,0,0,0.92213,-0.39011,0,-0.10441,0,0,0,0.13998,-0.0042392,0.040723,-1.7402,0.058822,0.12791,0.00011964,0.88,0.2,0
0.38598,0.26495,0.13221,0.0074224,0.041891,-0.0043069,0,0,1.0834,-0.39962,0,-0.10427,0,0,0,0.13241,0.0072246,0.041891,-2.0299,0.060509,0.11202,7.2562e-05,0.9,0.2,0
0.40829,0.27691,0.1279,0.011143,0.041713,-0.0047882,0,0,1.1204,-0.39742,0,-0.12449,0,0,0,0.12813,0.010919,0.041713,-2.3645,0.060253,0.10525,4.5196e-05,0.92,0.2,0
0.4308,0.28464,0.12839,0.0088804,0.041182,-0.0050771,0,0,1.1338,-0.41993,0,-0.13201,0,0,0,0.12862,0.0086579,0.041182,-2.4286,0.059486,0.10746,4.615e-05,0.94,0.2,0
0.45364,0.28956,0.12917,0.006807,0.040793,-0.003896,0,0,1.1489,-0.44181,0,-0.1013,0,0,0,0.12931,0.0066704,0.040793,-1.8252,0.058923,0.10963,4.7515e-05,0.96,0.2,0
0.47675,0.29231,0.12966,0.0053867,0.040514,-0.0016661,0,0,1.1589,-0.45665,0,-0.043318,0,0,0,0.12972,0.0053292,0.040514,-0.76815,0.05852,0.11106,4.8446e-05,0.98,0.2,0
0.48836,0.29319,0.12983,0.0048891,0.040415,-0.00024285,0,0,1.1624,-0.46184,0,-0.0063141,0,0,0,0.12986,0.0048593,0.040415,-0.1055,0.058378,0.11156,4.8776e-05,1,0.2,0
0.0067548,0.0032796,0.090775,0.036961,0.038321,0.012488,0,0,0.68191,-0.017681,0,0.32469,0,0,0,0.093547,0.034189,0.038321,12.445,0.055352,0.057413,9.5487e-06,0,0.22,0
0.013638,0.0065435,0.091061,0.035136,0.037859,0.012265,0,0,0.69162,-0.035403,0,0.31889,0,0,0,0.093655,0.032541,0.037859,11.858,0.054685,0.058653,1.0077e-05,0.02,0.22,0
0.027665,0.012997,0.09209,0.031663,0.037126,0.011612,0,0,0.71453,-0.07102,0,0.30191,0,0,0,0.094274,0.029478,0.037126,10.536,0.053626,0.061347,1.1251e-05,0.04,0.22,0
0.042219,0.019225,0.093616,0.028364,0.036594,0.010552,0,0,0.74128,-0.10699,0,0.27436,0,0,0,0.095317,0.026663,0.036594,8.9852,0.052858,0.064281,1.2566e-05,0.06,0.22,0
0.057316,0.025093,0.095226,0.025096,0.036097,0.0091386,0,0,0.76869,-0.14301,0,0.2376,0,0,0,0.09644,0.023882,0.036097,7.3252,0.05214,0.0673,1.3952e-05,0.08,0.22,0
0.072967,0.030506,0.096927,0.021944,0.035661,0.0074649,0,0,0.79645,-0.17832,0,0.19409,0,0,0,0.097707,0.021164,0.035661,5.6477,0.051511,0.070435,1.5439e-05,0.1,0.22,0
0.089174,0.03541,0.098716,0.019028,0.035323,0.0056317,0,0,0.8241,-0.21183,0,0.14642,0,0,0,0.099156,0.018588,0.035323,4.0335,0.051022,0.073652,1.7031e-05,0.12,0.22,0
0.10593,0.039797,0.10059,0.016494,0.035124,0.003747,0,0,0.85101,-0.24219,0,0.097422,0,0,0,0.1008,0.016285,0.035124,2.5495,0.050735,0.076851,1.8709e-05,0.14,0.22,0
0.12321,0.043711,0.10252,0.014525,0.035114,0.001932,0,0,0.87631,-0.26767,0,0.050231,0,0,0,0.1026,0.014443,0.035114,1.2521,0.050721,0.079863,2.0411e-05,0.16,0.22,0
0.14098,0.04725,0.10449,0.013356,0.035354,0.00033991,0,0,0.89878,-0.28597,0,0.0088376,0,0,0,0.10453,0.013322,0.035354,0.20149,0.051067,0.082428,2.2025e-05,0.18,0.22,0
0.15917,0.050588,0.10641,0.013308,0.035914,-0.00080146,0,0,0.91639,-0.29388,0,-0.020838,0,0,0,0.10644,0.013276,0.035914,-0.50846,0.051876,0.084158,2.3335e-05,0.2,0.22,0
0.17764,0.05399,0.10803,0.014808,0.03685,-0.0011478,0,0,0.92529,-0.28655,0,-0.029843,0,0,0,0.10806,0.014777,0.03685,-0.71185,0.053228,0.084439,2.3942e-05,0.22,0.22,0
0.19618,0.057822,0.10876,0.018533,0.038188,-0.00040969,0,0,0.91743,-0.25551,0,-0.010652,0,0,0,0.10878,0.018511,0.038188,-0.2355,0.05516,0.082239,2.3119e-05,0.24,0.22,0
0.21434,0.062328,0.10723,0.015538,0.036829,0.00059662,0,0,0.79787,-0.18656,0,0.020479,0,0,0,0.10729,0.015471,0.036829,0.50975,0.053198,0.08377,2.113e-05,0.26,0.22,0
0.22809,0.066912,0.10553,0.00041588,0.031784,0.00024437,0,0,0.49091,-0.10397,0,0.025657,0,0,0,0.10565,0.00029649,0.031784,0.44378,0.04591,0.094643,2.2807e-05,0.28,0.22,0
0.23397,0.07068,0.10684,-0.011987,0.028455,-0.0021,0,0,0.19916,-0.061597,0,0.0035764,0,0,0,0.10698,-0.012134,0.028455,-0.82838,0.041101,0.1053,2.9088e-05,0.3,0.22,0
0.23606,0.073762,0.10914,-0.016276,0.027859,-0.0045274,0,0,0.10567,-0.057376,0,-0.011771,0,0,0,0.10935,-0.016487,0.027859,-2.0351,0.040241,0.11056,3.3738e-05,0.32,0.22,0
0.2382,0.076683,0.11153,-0.01992,0.027482,-0.0040926,0,0,0.10926,-0.061622,0,-0.010641,0,0,0,0.11171,-0.020105,0.027482,-1.7832,0.039696,0.11562,3.6576e-05,0.34,0.22,0
0.24043,0.07965,0.11467,-0.024068,0.02718,-0.00070659,0,0,0.11373,-0.066622,0,-0.0018371,0,0,0,0.11477,-0.024176,0.02718,-0.30731,0.03926,0.1217,4.0182e-05,0.36,0.22,0
0.24275,0.08278,0.11798,-0.027584,0.027118,0.0042519,0,0,0.11812,-0.071113,0,0.011055,0,0,0,0.11825,-0.027852,0.027118,1.6546,0.039171,0.12782,4.4332e-05,0.38,0.22,0
0.24515,0.086135,0.12143,-0.029695,0.02752,0.010396,0,0,0.12208,-0.07438,0,0.02703,0,0,0,0.12233,-0.030596,0.02752,3.9075,0.039751,0.13371,4.933e-05,0.4,0.22,0
0.24763,0.089754,0.12505,-0.029475,0.028672,0.017571,0,0,0.12529,-0.075591,0,0.045683,0,0,0,0.12726,-0.031689,0.028672,6.4151,0.041414,0.13898,5.5597e-05,0.42,0.22,0
0.25017,0.093651,0.12873,-0.02626,0.03074,0.025439,0,0,0.12738,-0.074099,0,0.066142,0,0,0,0.13309,-0.030628,0.03074,9.127,0.044402,0.14327,6.3339e-05,0.44,0.22,0
0.25273,0.097804,0.13242,-0.019521,0.03387,0.033363,0,0,0.12812,-0.069408,0,0.086743,0,0,0,0.13979,-0.026885,0.03387,11.941,0.048924,0.14611,7.243e-05,0.46,0.22,0
0.25529,0.10213,0.13683,-0.0088766,0.038386,0.04032,0,0,0.12798,-0.061441,0,0.10483,0,0,0,0.14766,-0.019708,0.038386,14.63,0.055446,0.14722,8.3042e-05,0.48,0.22,0
0.25785,0.10646,0.14177,0.0035759,0.043605,0.045132,0,0,0.12762,-0.052037,0,0.11734,0,0,0,0.15588,-0.010526,0.043605,16.811,0.062985,0.14705,9.4142e-05,0.5,0.22,0
0.26039,0.11057,0.13939,0.012666,0.045616,0.045305,0,0,0.13428,-0.045224,0,0.12218,0,0,0,0.15505,-0.0029999,0.045616,18.134,0.065889,0.14026,0.00010006,0.52,0.22,0
0.26309,0.11393,0.13589,0.024129,0.048007,0.045385,0,0,0.22746,-0.03879,0,0.18262,0,0,0,0.15394,0.0060798,0.048007,19.408,0.069343,0.13253,0.0001923,0.54,0.22,0
0.26925,0.11791,0.14382,0.036079,0.053969,0.040761,0,0,0.3947,-0.042008,0,0.2958,0,0,0,0.16171,0.01818,0.053969,18.325,0.077955,0.13036,0.00029734,0.56,0.22,0
0.27941,0.12435,0.15,0.033598,0.055081,0.023822,0,0,0.43398,-0.05789,0,0.31833,0,0,0,0.16001,0.023597,0.055081,14.15,0.079561,0.12419,0.00023005,0.58,0.22,0
0.28791,0.13179,0.15162,0.026955,0.053574,0.0098042,0,0,0.35358,-0.065803,0,0.23275,0,0,0,0.15531,0.023265,0.053574,10.71,0.077384,0.11986,0.00015732,0.6,0.22,0
0.2942,0.13903,0.15346,0.028199,0.054499,-0.00048635,0,0,0.29759,-0.06204,0,0.1052,0,0,0,0.15605,0.025609,0.054499,4.4566,0.078721,0.1187,0.00015726,0.62,0.22,0
0.29992,0.14664,0.15264,0.027635,0.054082,-0.011759,0,0,0.23672,-0.053196,0,-0.0058787,0,0,0,0.15525,0.025018,0.054082,-3.5989,0.078118,0.11846,0.00012959,0.64,0.22,0
0.30387,0.15474,0.15493,0.018709,0.052091,-0.015914,0,0,0.16963,-0.04985,0,-0.042565,0,0,0,0.15737,0.016271,0.052091,-6.2794,0.075243,0.1271,0.00010528,0.66,0.22,0
0.30678,0.16287,0.15809,0.0092167,0.050193,-0.015382,0,0,0.14394,-0.054127,0,-0.039875,0,0,0,0.1599,0.0074065,0.050193,-5.8511,0.072501,0.13626,9.6957e-05,0.68,0.22,0
0.30962,0.17063,0.15667,0.0054092,0.048622,-0.014239,0,0,0.14046,-0.056177,0,-0.037022,0,0,0,0.15811,0.0039673,0.048622,-5.4564,0.070232,0.13737,8.9677e-05,0.7,0.22,0
0.3124,0.17811,0.1536,0.004249,0.047354,-0.012424,0,0,0.13812,-0.056036,0,-0.032301,0,0,0,0.15468,0.0031612,0.047354,-4.7853,0.0684,0.13497,8.3417e-05,0.72,0.22,0
0.31514,0.18544,0.15139,0.0028019,0.046257,-0.010195,0,0,0.13667,-0.056491,0,-0.026508,0,0,0,0.15212,0.0020649,0.046257,-3.9453,0.066815,0.13356,7.9522e-05,0.74,0.22,0
0.31787,0.1927,0.15043,-9.3048e-06,0.045126,-0.0077909,0,0,0.13689,-0.058676,0,-0.020256,0,0,0,0.15086,-0.00044248,0.045126,-2.9859,0.065182,0.13445,7.8763e-05,0.76,0.22,0
0.32062,0.19991,0.15101,-0.0051904,0.043746,-0.0055662,0,0,0.13944,-0.063618,0,-0.014472,0,0,0,0.15123,-0.0054119,0.043746,-2.0584,0.063189,0.13877,8.1927e-05,0.78,0.22,0
0.32344,0.20705,0.15289,-0.013128,0.041928,-0.0042567,0,0,0.14425,-0.071574,0,-0.011067,0,0,0,0.15303,-0.013265,0.041928,-1.4551,0.060563,0.14672,8.8856e-05,0.8,0.22,0
0.32639,0.21402,0.15322,-0.019062,0.040247,-0.0036025,0,0,0.15298,-0.080035,0,-0.0098128,0,0,0,0.15336,-0.019201,0.040247,-1.1798,0.058134,0.15184,9.7094e-05,0.82,0.22,0
0.32953,0.22089,0.15068,-0.017428,0.039974,-0.0010641,0,0,0.20005,-0.098958,0,-0.0014745,0,0,0,0.15089,-0.017648,0.039974,-0.077613,0.05774,0.1484,0.00011203,0.84,0.22,0
0.33461,0.22906,0.15676,-0.01472,0.042611,0.00018117,0,0,0.40644,-0.17281,0,-0.0084717,0,0,0,0.15713,-0.015095,0.042611,0.71365,0.06155,0.1521,0.00016409,0.86,0.22,0
0.3473,0.24145,0.16567,-0.0076872,0.047394,-0.0018427,0,0,0.82246,-0.30243,0,-0.026421,0,0,0,0.16604,-0.0080563,0.047394,-0.17541,0.068458,0.15466,0.0001878,0.88,0.22,0
0.36971,0.25646,0.15871,0.0077761,0.049945,-0.0025942,0,0,1.1909,-0.40794,0,-0.044212,0,0,0,0.15892,0.0075622,0.049945,-0.95897,0.072143,0.13563,0.00012033,0.9,0.22,0
0.39588,0.26825,0.1489,0.013285,0.048654,-0.0036893,0,0,1.3031,-0.45979,0,-0.095922,0,0,0,0.14908,0.013104,0.048654,-1.6309,0.070278,0.12215,6.9297e-05,0.92,0.22,0
0.42183,0.27548,0.14637,0.0086984,0.04652,-0.004952,0,0,1.298,-0.49168,0,-0.12875,0,0,0,0.14656,0.0085042,0.04652,-2.1023,0.067196,0.12353,6.8178e-05,0.94,0.22,0
0.4478,0.27995,0.14528,0.0054323,0.045212,-0.0040206,0,0,1.3008,-0.51714,0,-0.10454,0,0,0,0.1454,0.0053037,0.045212,-1.6712,0.065307,0.12502,6.8191e-05,0.96,0.22,0
0.47387,0.28239,0.14488,0.003466,0.044505,-0.0018325,0,0,1.3049,-0.53351,0,-0.047644,0,0,0,0.14494,0.0034113,0.044505,-0.75266,0.064285,0.12611,6.8492e-05,0.98,0.22,0
0.48692,0.28317,0.14479,0.0028078,0.04428,-0.00041565,0,0,1.3066,-0.53913,0,-0.010807,0,0,0,0.14482,0.0027816,0.04428,-0.16866,0.063959,0.1265,6.8632e-05,1,0.22,0
0.0067008,0.0029567,0.090084,0.037024,0.038133,0.01123,0,0,0.67537,-0.014407,0,0.29199,0,0,0,0.092373,0.034735,0.038133,11.469,0.05508,0.056024,8.9194e-06,0,0.24,0
0.013507,0.0058948,0.090323,0.03551,0.03775,0.010982,0,0,0.68345,-0.029114,0,0.28554,0,0,0,0.092458,0.033375,0.03775,10.932,0.054528,0.057035,9.3421e-06,0.02,0.24,0
0.027338,0.011689,0.091174,0.032572,0.037124,0.010265,0,0,0.70266,-0.059179,0,0.26689,0,0,0,0.092946,0.0308,0.037124,9.6745,0.053623,0.05925,1.0284e-05,0.04,0.24,0
0.041614,0.017243,0.09244,0.029673,0.036634,0.0091229,0,0,0.72548,-0.090488,0,0.2372,0,0,0,0.093772,0.028341,0.036634,8.1273,0.052916,0.061718,1.1357e-05,0.06,0.24,0
0.056357,0.022428,0.093785,0.026711,0.036149,0.0076243,0,0,0.74927,-0.12269,0,0.19823,0,0,0,0.09468,0.025816,0.036149,6.4261,0.052215,0.064337,1.2515e-05,0.08,0.24,0
0.071585,0.027162,0.095209,0.023767,0.035693,0.0058699,0,0,0.77371,-0.15503,0,0.15262,0,0,0,0.09573,0.023246,0.035693,4.6845,0.051556,0.067145,1.3789e-05,0.1,0.24,0
0.087305,0.031414,0.096707,0.020956,0.035299,0.0039615,0,0,0.7983,-0.18646,0,0.103,0,0,0,0.096956,0.020707,0.035299,2.9977,0.050987,0.070113,1.5183e-05,0.12,0.24,0
0.10352,0.035203,0.098274,0.018418,0.035007,0.0020072,0,0,0.82246,-0.21567,0,0.052188,0,0,0,0.098364,0.018327,0.035007,1.4424,0.050566,0.073147,1.6674e-05,0.14,0.24,0
0.1202,0.038604,0.099915,0.016326,0.034872,0.00012881,0,0,0.84555,-0.2411,0,0.003349,0,0,0,0.099951,0.01629,0.034872,0.081591,0.050371,0.076098,1.8218e-05,0.16,0.24,0
0.13734,0.041757,0.10166,0.014893,0.034966,-0.0015211,0,0,0.86704,-0.26095,0,-0.039549,0,0,0,0.10172,0.014834,0.034966,-1.0213,0.050507,0.078777,1.9752e-05,0.18,0.24,0
0.15489,0.044884,0.1036,0.014369,0.035392,-0.0027182,0,0,0.88676,-0.2733,0,-0.070674,0,0,0,0.10372,0.014257,0.035392,-1.7693,0.051122,0.080988,2.1213e-05,0.2,0.24,0
0.17281,0.048321,0.10592,0.015071,0.036296,-0.0030808,0,0,0.90506,-0.27592,0,-0.080101,0,0,0,0.10606,0.014932,0.036296,-1.9671,0.052428,0.082544,2.2543e-05,0.22,0.24,0
0.19109,0.052583,0.10844,0.017418,0.037756,-0.0020062,0,0,0.91885,-0.2644,0,-0.05216,0,0,0,0.10855,0.017309,0.037756,-1.2563,0.054537,0.082935,2.3417e-05,0.24,0.24,0
0.20956,0.058364,0.1113,0.012977,0.037283,-0.0011426,0,0,0.81599,-0.21416,0,-0.0065242,0,0,0,0.11148,0.012799,0.037283,-0.36197,0.053853,0.089502,3.1165e-05,0.26,0.24,0
0.22406,0.064717,0.11172,5.382e-05,0.033532,-0.0011939,0,0,0.50789,-0.12816,0,0.013027,0,0,0,0.11201,-0.00023821,0.033532,0.082355,0.048435,0.1006,4.1904e-05,0.28,0.24,0
0.23049,0.069452,0.11044,-0.0085464,0.030568,-0.0019732,0,0,0.21221,-0.069433,0,0.0049986,0,0,0,0.11071,-0.0088135,0.030568,-0.29516,0.044154,0.10587,4.1442e-05,0.3,0.24,0
0.23278,0.072607,0.11259,-0.014348,0.029474,-0.0046142,0,0,0.11427,-0.059041,0,-0.0096186,0,0,0,0.11287,-0.014626,0.029474,-1.8044,0.042574,0.11218,3.8685e-05,0.32,0.24,0
0.23502,0.075412,0.11512,-0.021667,0.028037,-0.0056562,0,0,0.11321,-0.064616,0,-0.014706,0,0,0,0.11539,-0.021929,0.028037,-2.3772,0.040498,0.12039,4.0378e-05,0.34,0.24,0
0.23731,0.07827,0.11632,-0.027499,0.026645,-0.0031834,0,0,0.11657,-0.070388,0,-0.0082768,0,0,0,0.11645,-0.027631,0.026645,-1.2914,0.038488,0.12604,4.23e-05,0.36,0.24,0
0.23968,0.081302,0.11872,-0.032394,0.025897,0.00094236,0,0,0.12066,-0.075777,0,0.0024501,0,0,0,0.11884,-0.032514,0.025897,0.32593,0.037406,0.13221,4.5406e-05,0.38,0.24,0
0.24214,0.084579,0.12228,-0.03605,0.025868,0.0065052,0,0,0.12533,-0.080492,0,0.016913,0,0,0,0.12272,-0.036496,0.025868,2.319,0.037364,0.13897,5.0262e-05,0.4,0.24,0
0.24469,0.088159,0.1271,-0.036638,0.027137,0.01325,0,0,0.12995,-0.082908,0,0.03445,0,0,0,0.12839,-0.037935,0.027137,4.5812,0.039199,0.14518,5.7645e-05,0.42,0.24,0
0.24734,0.092071,0.13325,-0.033375,0.029964,0.020446,0,0,0.13428,-0.082341,0,0.053159,0,0,0,0.13602,-0.03614,0.029964,6.8956,0.043281,0.15044,6.8256e-05,0.44,0.24,0
0.25006,0.096305,0.14058,-0.026404,0.034253,0.027452,0,0,0.13823,-0.078854,0,0.071376,0,0,0,0.14537,-0.031196,0.034253,9.1331,0.049477,0.15462,8.1969e-05,0.46,0.24,0
0.25287,0.10079,0.14969,-0.013789,0.040771,0.032971,0,0,0.1416,-0.070928,0,0.085724,0,0,0,0.15663,-0.020722,0.040771,11.023,0.058891,0.15603,9.7839e-05,0.48,0.24,0
0.25573,0.1053,0.15714,0.00085756,0.047398,0.034609,0,0,0.1524,-0.063059,0,0.09316,0,0,0,0.16527,-0.0072808,0.047398,11.873,0.068464,0.1528,0.00011319,0.5,0.24,0
0.25887,0.10948,0.16179,0.012611,0.052319,0.033407,0,0,0.1964,-0.063756,0,0.10691,0,0,0,0.16994,0.004456,0.052319,11.911,0.075572,0.14759,0.00017206,0.52,0.24,0
0.26316,0.11297,0.18042,0.036845,0.065179,0.038952,0,0,0.29365,-0.054722,0,0.17399,0,0,0,0.1923,0.024961,0.065179,13.633,0.094148,0.15186,0.00042428,0.54,0.24,0
0.26994,0.11703,0.20075,0.058513,0.07778,0.038903,0,0,0.3703,-0.040793,0,0.2188,0,0,0,0.21486,0.044401,0.07778,13.312,0.11235,0.15717,0.00060108,0.56,0.24,0
0.27772,0.12324,0.20211,0.048384,0.075147,0.02016,0,0,0.32825,-0.048958,0,0.14821,0,0,0,0.20907,0.041421,0.075147,8.0144,0.10855,0.15394,0.00040049,0.58,0.24,0
0.28336,0.13059,0.20425,0.034809,0.071716,0.0053309,0,0,0.238,-0.056596,0,0.067716,0,0,0,0.20553,0.033526,0.071716,4.1209,0.10359,0.15649,0.00021874,0.6,0.24,0
0.28744,0.13796,0.20443,0.035226,0.071896,-0.0015239,0,0,0.20076,-0.051697,0,0.017044,0,0,0,0.20544,0.034209,0.071896,0.90928,0.10385,0.15588,0.00019844,0.62,0.24,0
0.29134,0.14564,0.19649,0.03284,0.0688,-0.0076407,0,0,0.18878,-0.049704,0,-0.02319,0,0,0,0.19761,0.031725,0.0688,-2.7146,0.099377,0.15085,0.00016797,0.64,0.24,0
0.29488,0.15368,0.19035,0.021925,0.063683,-0.0088503,0,0,0.17243,-0.055105,0,-0.027464,0,0,0,0.1914,0.020871,0.063683,-3.3335,0.091986,0.15373,0.00014647,0.66,0.24,0
0.29818,0.16168,0.18217,0.010594,0.05783,-0.0086843,0,0,0.16165,-0.061407,0,-0.022579,0,0,0,0.18294,0.0098257,0.05783,-2.9897,0.083533,0.15482,0.0001316,0.68,0.24,0
0.30135,0.16942,0.17307,0.0051878,0.053476,-0.0090858,0,0,0.15547,-0.062775,0,-0.023623,0,0,0,0.17373,0.0045189,0.053476,-3.1685,0.077243,0.15082,0.00011659,0.7,0.24,0
0.3044,0.17692,0.16659,0.0030425,0.050888,-0.0088441,0,0,0.15041,-0.0622,0,-0.022995,0,0,0,0.16716,0.0024631,0.050888,-3.1466,0.073505,0.14662,0.00010511,0.72,0.24,0
0.30736,0.18425,0.16223,0.0013327,0.049069,-0.0078589,0,0,0.14711,-0.062057,0,-0.020433,0,0,0,0.16267,0.00089601,0.049069,-2.8309,0.070877,0.14387,9.7697e-05,0.74,0.24,0
0.31028,0.19147,0.15978,-0.001591,0.047458,-0.006659,0,0,0.14602,-0.063763,0,-0.017313,0,0,0,0.16008,-0.0018879,0.047458,-2.3832,0.06855,0.1438,9.4671e-05,0.76,0.24,0
0.3132,0.19858,0.15914,-0.0065111,0.04579,-0.0059616,0,0,0.14736,-0.067991,0,-0.0155,0,0,0,0.15937,-0.0067333,0.04579,-2.0641,0.066141,0.14706,9.6062e-05,0.78,0.24,0
0.31618,0.20557,0.16011,-0.012978,0.044141,-0.0063939,0,0,0.15077,-0.074255,0,-0.016624,0,0,0,0.16036,-0.013229,0.044141,-2.1021,0.063759,0.1532,0.00010125,0.8,0.24,0
0.31924,0.21241,0.1623,-0.018596,0.043111,-0.0072869,0,0,0.15495,-0.08022,0,-0.018946,0,0,0,0.16263,-0.018928,0.043111,-2.2982,0.062272,0.15985,0.00010837,0.82,0.24,0
0.32238,0.21918,0.16177,-0.020603,0.042351,-0.0047809,0,0,0.16433,-0.085193,0,-0.0085851,0,0,0,0.16211,-0.020941,0.042351,-1.2799,0.061174,0.16104,0.00011466,0.84,0.24,0
0.32574,0.22641,0.16058,-0.021245,0.041799,-0.00023732,0,0,0.31656,-0.11344,0,0.022137,0,0,0,0.16092,-0.021589,0.041799,0.52456,0.060377,0.16112,0.0001275,0.86,0.24,0
0.33538,0.23617,0.16354,-0.011169,0.045711,0.0014027,0,0,0.76481,-0.22069,0,0.056803,0,0,0,0.16389,-0.011518,0.045711,1.1109,0.066027,0.15637,0.00012856,0.88,0.24,0
0.35721,0.2483,0.16467,0.0097081,0.052312,0.00088867,0,0,1.2395,-0.38023,0,0.041646,0,0,0,0.16486,0.0095106,0.052312,0.58537,0.075562,0.13983,0.00010232,0.9,0.24,0
0.38543,0.25852,0.16254,0.015592,0.053439,-0.0014298,0,0,1.4183,-0.492,0,-0.037174,0,0,0,0.16263,0.015503,0.053439,-0.54465,0.077189,0.13232,8.7025e-05,0.92,0.24,0
0.41394,0.26498,0.16065,0.0086735,0.050797,-0.0036112,0,0,1.4281,-0.54761,0,-0.093892,0,0,0,0.16075,0.0085709,0.050797,-1.3835,0.073373,0.13608,8.9271e-05,0.94,0.24,0
0.44255,0.26888,0.1592,0.004118,0.048995,-0.0033986,0,0,1.4326,-0.5834,0,-0.088363,0,0,0,0.15928,0.0040341,0.048995,-1.2762,0.07077,0.13836,9.0023e-05,0.96,0.24,0
0.47125,0.27097,0.15848,0.0015344,0.048004,-0.0016467,0,0,1.4362,-0.6041,0,-0.042814,0,0,0,0.15852,0.0014953,0.048004,-0.61171,0.069339,0.1397,9.0406e-05,0.98,0.24,0
0.48562,0.27162,0.15826,0.00069593,0.047688,-0.00042416,0,0,1.4375,-0.6109,0,-0.011028,0,0,0,0.15828,0.00067705,0.047688,-0.1568,0.068883,0.14015,9.0528e-05,1,0.24,0
0.0066449,0.0027034,0.089372,0.037115,0.037946,0.010244,0,0,0.66853,-0.010806,0,0.26635,0,0,0,0.091314,0.035172,0.037946,10.703,0.054811,0.054812,8.3855e-06,0,0.26,0
0.013371,0.0053789,0.089554,0.035934,0.037646,0.0099723,0,0,0.6748,-0.022264,0,0.25928,0,0,0,0.091361,0.034127,0.037646,10.212,0.054378,0.055566,8.6948e-06,0.02,0.26,0
0.026992,0.01063,0.090198,0.033554,0.037126,0.0091947,0,0,0.68994,-0.046431,0,0.23906,0,0,0,0.091674,0.032078,0.037126,9.0118,0.053626,0.05725,9.3927e-06,0.04,0.26,0
0.040968,0.015606,0.09115,0.031054,0.036661,0.0079811,0,0,0.70835,-0.072892,0,0.20751,0,0,0,0.092222,0.029982,0.036661,7.4605,0.052955,0.059196,1.0209e-05,0.06,0.26,0
0.055326,0.020186,0.092157,0.028388,0.036164,0.0064179,0,0,0.72792,-0.10108,0,0.16687,0,0,0,0.092833,0.027713,0.036164,5.715,0.052237,0.061347,1.1119e-05,0.08,0.26,0
0.070085,0.024305,0.093208,0.025643,0.035655,0.0046098,0,0,0.74819,-0.13016,0,0.11985,0,0,0,0.09356,0.025291,0.035655,3.9079,0.051502,0.063736,1.2145e-05,0.1,0.26,0
0.085254,0.027952,0.094287,0.022926,0.035164,0.0026589,0,0,0.7686,-0.15909,0,0.06913,0,0,0,0.094424,0.022789,0.035164,2.1481,0.050792,0.066333,1.3282e-05,0.12,0.26,0
0.10083,0.03117,0.095382,0.020372,0.034726,0.00067108,0,0,0.78853,-0.18661,0,0.017448,0,0,0,0.095423,0.020331,0.034726,0.52098,0.05016,0.069041,1.4502e-05,0.14,0.26,0
0.11679,0.034067,0.096491,0.018144,0.03439,-0.0012412,0,0,0.8073,-0.21121,0,-0.032271,0,0,0,0.09654,0.018094,0.03439,-0.9102,0.049675,0.071709,1.5754e-05,0.16,0.26,0
0.13312,0.036812,0.097645,0.016429,0.034222,-0.0029559,0,0,0.82449,-0.23131,0,-0.076854,0,0,0,0.097778,0.016297,0.034222,-2.0975,0.049432,0.074167,1.6985e-05,0.18,0.26,0
0.14977,0.039656,0.098959,0.015425,0.034315,-0.0043238,0,0,0.84037,-0.24557,0,-0.11242,0,0,0,0.099205,0.015178,0.034315,-2.9868,0.049566,0.076283,1.8173e-05,0.2,0.26,0
0.16674,0.042953,0.10073,0.015326,0.034816,-0.0051046,0,0,0.85684,-0.25337,0,-0.13272,0,0,0,0.10106,0.01499,0.034816,-3.4633,0.050289,0.078072,1.941e-05,0.22,0.26,0
0.18405,0.047246,0.10343,0.016344,0.035932,-0.0046007,0,0,0.87746,-0.25464,0,-0.11962,0,0,0,0.10375,0.016023,0.035932,-3.1099,0.051901,0.079662,2.0912e-05,0.24,0.26,0
0.20183,0.053667,0.11137,0.012396,0.037131,-0.004547,0,0,0.814,-0.23743,0,-0.091578,0,0,0,0.11173,0.012034,0.037131,-2.6365,0.053633,0.090059,3.9452e-05,0.26,0.26,0
0.21727,0.061606,0.11724,0.0029585,0.036061,-0.0044211,0,0,0.56783,-0.18027,0,-0.066374,0,0,0,0.11772,0.0024825,0.036061,-1.8079,0.052088,0.10303,6.35e-05,0.28,0.26,0
0.22609,0.067827,0.11131,-0.0039406,0.032211,-0.002631,0,0,0.28314,-0.10655,0,-0.029036,0,0,0,0.11168,-0.0043066,0.032211,-0.57537,0.046528,0.10289,5.6276e-05,0.3,0.26,0
0.22967,0.07141,0.10748,-0.012238,0.028572,-0.0032166,0,0,0.1423,-0.068499,0,-0.010324,0,0,0,0.1077,-0.012458,0.028572,-1.1503,0.041271,0.10584,4.0214e-05,0.32,0.26,0
0.23195,0.074098,0.11093,-0.022544,0.026515,-0.0050655,0,0,0.11415,-0.065778,0,-0.013596,0,0,0,0.11114,-0.022756,0.026515,-2.1586,0.038299,0.11732,3.8302e-05,0.34,0.26,0
0.23421,0.076835,0.11349,-0.029444,0.025214,-0.0046775,0,0,0.11476,-0.071055,0,-0.012162,0,0,0,0.11367,-0.029624,0.025214,-1.8933,0.03642,0.12524,3.9797e-05,0.36,0.26,0
0.23654,0.079749,0.11545,-0.036091,0.023809,-0.0024066,0,0,0.11914,-0.077869,0,-0.0062572,0,0,0,0.11558,-0.036217,0.023809,-0.96382,0.03439,0.13243,4.2004e-05,0.38,0.26,0
0.23897,0.082916,0.11851,-0.042663,0.022754,0.0022425,0,0,0.12448,-0.085041,0,0.0058305,0,0,0,0.11871,-0.042864,0.022754,0.73831,0.032866,0.14077,4.5556e-05,0.4,0.26,0
0.24152,0.086438,0.12334,-0.043714,0.023889,0.0084789,0,0,0.12929,-0.087883,0,0.022045,0,0,0,0.12395,-0.044324,0.023889,2.8667,0.034506,0.14662,5.2117e-05,0.42,0.26,0
0.24414,0.090357,0.13047,-0.03851,0.027587,0.013997,0,0,0.13374,-0.085926,0,0.036393,0,0,0,0.13181,-0.03985,0.027587,4.6528,0.039848,0.14981,6.2847e-05,0.44,0.26,0
0.24687,0.09465,0.14017,-0.030453,0.032915,0.018029,0,0,0.13943,-0.082378,0,0.046875,0,0,0,0.14242,-0.032706,0.032915,5.8663,0.047544,0.15327,7.8147e-05,0.46,0.26,0
0.24972,0.09929,0.14968,-0.016575,0.03993,0.019596,0,0,0.15118,-0.075203,0,0.047279,0,0,0,0.15272,-0.01962,0.03993,6.1296,0.057677,0.15171,9.5398e-05,0.48,0.26,0
0.25285,0.10394,0.15588,0.001059,0.047083,0.019624,0,0,0.18695,-0.071216,0,0.054388,0,0,0,0.15926,-0.0023182,0.047083,6.2469,0.068009,0.14353,0.00013912,0.5,0.26,0
0.25689,0.10804,0.16716,0.017214,0.055312,0.022063,0,0,0.25245,-0.076039,0,0.092718,0,0,0,0.17095,0.013422,0.055312,7.6353,0.079895,0.14144,0.00026046,0.52,0.26,0
0.2623,0.11174,0.18528,0.040859,0.067842,0.025177,0,0,0.29637,-0.060919,0,0.13117,0,0,0,0.19067,0.035471,0.067842,8.974,0.097994,0.14212,0.00041552,0.54,0.26,0
0.26793,0.11624,0.19492,0.058846,0.076129,0.021692,0,0,0.27201,-0.033371,0,0.11424,0,0,0,0.20047,0.053294,0.076129,7.9081,0.10996,0.13741,0.00041227,0.56,0.26,0
0.27249,0.12236,0.2011,0.053202,0.07629,0.013143,0,0,0.21807,-0.033889,0,0.055305,0,0,0,0.20365,0.050645,0.07629,4.9407,0.1102,0.14213,0.00025912,0.58,0.26,0
0.27629,0.12952,0.21107,0.04355,0.076385,0.0074474,0,0,0.18696,-0.044626,0,0.020043,0,0,0,0.21157,0.04305,0.076385,2.7107,0.11033,0.15466,0.00017784,0.6,0.26,0
0.27988,0.13696,0.21167,0.040903,0.075771,0.004183,0,0,0.17667,-0.045329,0,0.010876,0,0,0,0.21204,0.040532,0.075771,1.5149,0.10945,0.15691,0.00016766,0.62,0.26,0
0.28335,0.14463,0.20407,0.034593,0.0716,0.0022801,0,0,0.17221,-0.048108,0,0.0059283,0,0,0,0.20443,0.034237,0.0716,0.86789,0.10342,0.15497,0.00015464,0.64,0.26,0
0.28677,0.15253,0.19605,0.022278,0.065498,0.0016357,0,0,0.16972,-0.056187,0,0.0042527,0,0,0,0.19633,0.021999,0.065498,0.59211,0.094609,0.15722,0.00014887,0.66,0.26,0
0.29014,0.16041,0.18816,0.011489,0.059895,-0.00014586,0,0,0.16674,-0.062927,0,-0.00037922,0,0,0,0.18834,0.011305,0.059895,-0.038713,0.086514,0.15845,0.0001414,0.68,0.26,0
0.29344,0.16811,0.18116,0.0058398,0.056101,-0.0023517,0,0,0.16258,-0.06534,0,-0.0061145,0,0,0,0.18133,0.0056703,0.056101,-0.79058,0.081035,0.15666,0.00013092,0.7,0.26,0
0.29664,0.17562,0.17521,0.0029027,0.053435,-0.003714,0,0,0.15831,-0.065692,0,-0.0096564,0,0,0,0.17538,0.0027327,0.053435,-1.2651,0.077183,0.15371,0.00012071,0.72,0.26,0
0.29977,0.18296,0.17054,0.00066427,0.051362,-0.0042797,0,0,0.15493,-0.065907,0,-0.011127,0,0,0,0.1707,0.00050448,0.051362,-1.4692,0.074189,0.15132,0.00011286,0.74,0.26,0
0.30284,0.19015,0.16719,-0.0022509,0.04948,-0.0045849,0,0,0.15302,-0.06725,0,-0.011921,0,0,0,0.16733,-0.0024001,0.04948,-1.5659,0.071471,0.15065,0.00010818,0.76,0.26,0
0.30589,0.19719,0.16492,-0.0064815,0.047532,-0.0052856,0,0,0.15261,-0.070217,0,-0.013743,0,0,0,0.1651,-0.0066576,0.047532,-1.7691,0.068657,0.15209,0.00010645,0.78,0.26,0
0.30895,0.20408,0.16331,-0.011844,0.045438,-0.0067395,0,0,0.15323,-0.074467,0,-0.017523,0,0,0,0.16358,-0.012117,0.045438,-2.1948,0.065633,0.15515,0.00010657,0.8,0.26,0
0.31202,0.21081,0.16191,-0.017714,0.04326,-0.0082214,0,0,0.15425,-0.079266,0,-0.021376,0,0,0,0.1623,-0.0181,0.04326,-2.6107,0.062486,0.15888,0.00010715,0.82,0.26,0
0.31512,0.21749,0.16132,-0.024435,0.041066,-0.0069395,0,0,0.15633,-0.08515,0,-0.018043,0,0,0,0.16166,-0.024772,0.041066,-2.1531,0.059317,0.16377,0.00010874,0.84,0.26,0
0.31827,0.22439,0.16026,-0.02704,0.039967,-0.0022069,0,0,0.3074,-0.10311,0,0.0094115,0,0,0,0.16048,-0.027256,0.039967,-0.53631,0.05773,0.16547,9.8436e-05,0.86,0.26,0
0.32741,0.23231,0.16027,-0.010066,0.045061,0.0016537,0,0,0.76643,-0.18728,0,0.049175,0,0,0,0.16046,-0.010258,0.045061,0.8297,0.065088,0.15257,7.903e-05,0.88,0.26,0
0.34893,0.24108,0.16489,0.014748,0.053891,0.0015867,0,0,1.2577,-0.34881,0,0.040316,0,0,0,0.16501,0.014625,0.053891,0.72159,0.077842,0.13606,8.0678e-05,0.9,0.26,0
0.37772,0.24857,0.16924,0.018044,0.056186,-0.00086097,0,0,1.4697,-0.49584,0,-0.022385,0,0,0,0.16929,0.017999,0.056186,-0.27893,0.081157,0.13632,9.6423e-05,0.92,0.26,0
0.40772,0.25358,0.17011,0.0087453,0.053658,-0.002666,0,0,1.5139,-0.58386,0,-0.069317,0,0,0,0.17016,0.0086955,0.053658,-0.945,0.077506,0.14435,0.00010567,0.94,0.26,0
0.43828,0.25661,0.16987,0.0029679,0.051852,-0.0026885,0,0,1.5343,-0.63549,0,-0.069901,0,0,0,0.16992,0.0029204,0.051852,-0.93329,0.074897,0.1487,0.00010975,0.96,0.26,0
0.46909,0.25823,0.16948,-0.00019573,0.050785,-0.0013486,0,0,1.543,-0.66275,0,-0.035065,0,0,0,0.1695,-0.00021942,0.050785,-0.46246,0.073357,0.15084,0.00011129,0.98,0.26,0
0.48453,0.25873,0.16932,-0.0011991,0.050436,-0.00037785,0,0,1.5455,-0.67126,0,-0.009824,0,0,0,0.16933,-0.0012106,0.050436,-0.12874,0.072853,0.15147,0.00011167,1,0.26,0
0.0065969,0.0025245,0.088766,0.037264,0.037809,0.0095506,0,0,0.66244,-0.0070858,0,0.24832,0,0,0,0.090483,0.035547,0.037809,10.174,0.054613,0.053843,7.97e-06,0,0.28,0
0.013249,0.0050042,0.088888,0.036421,0.037593,0.0092594,0,0,0.66684,-0.015233,0,0.24074,0,0,0,0.090483,0.034827,0.037593,9.7279,0.054301,0.054331,8.1661e-06,0.02,0.28,0
0.026674,0.0098319,0.089304,0.034598,0.03717,0.0084345,0,0,0.67773,-0.033446,0,0.2193,0,0,0,0.090592,0.033309,0.03717,8.5852,0.05369,0.055462,8.6228e-06,0.04,0.28,0
0.040358,0.014327,0.089905,0.03248,0.036715,0.0071768,0,0,0.69146,-0.055065,0,0.1866,0,0,0,0.090815,0.031569,0.036715,7.0401,0.053033,0.056858,9.1872e-06,0.06,0.28,0
0.054332,0.018385,0.09052,0.030092,0.036183,0.0055923,0,0,0.70637,-0.079189,0,0.1454,0,0,0,0.091065,0.029546,0.036183,5.2713,0.052265,0.058497,9.8471e-06,0.08,0.28,0
0.068613,0.021956,0.091119,0.027528,0.035594,0.0037845,0,0,0.72182,-0.10486,0,0.098396,0,0,0,0.091378,0.027269,0.035594,3.4235,0.051414,0.060393,1.061e-05,0.1,0.28,0
0.083205,0.025051,0.091674,0.02489,0.034969,0.0018534,0,0,0.73716,-0.13103,0,0.048188,0,0,0,0.091759,0.024806,0.034969,1.6153,0.050511,0.062509,1.1462e-05,0.12,0.28,0
0.098099,0.027739,0.092157,0.022301,0.034337,-9.4335e-05,0,0,0.75165,-0.15647,0,-0.0024527,0,0,0,0.092185,0.022273,0.034337,-0.057266,0.049598,0.064743,1.2364e-05,0.14,0.28,0
0.11327,0.030155,0.092535,0.019915,0.033735,-0.0019478,0,0,0.7644,-0.17966,0,-0.050643,0,0,0,0.092609,0.019841,0.033735,-1.5245,0.048728,0.066923,1.3247e-05,0.16,0.28,0
0.12868,0.032504,0.092778,0.017914,0.033208,-0.0036022,0,0,0.77441,-0.19881,0,-0.093657,0,0,0,0.092967,0.017725,0.033208,-2.7475,0.047967,0.068827,1.4023e-05,0.18,0.28,0
0.14425,0.035061,0.092868,0.016465,0.0328,-0.0049635,0,0,0.78088,-0.21236,0,-0.12905,0,0,0,0.0932,0.016132,0.0328,-3.7101,0.047377,0.070238,1.4617e-05,0.2,0.28,0
0.15991,0.038186,0.092798,0.015622,0.032526,-0.0059045,0,0,0.78354,-0.21976,0,-0.15352,0,0,0,0.093256,0.015164,0.032526,-4.3687,0.046982,0.071024,1.4999e-05,0.22,0.28,0
0.17559,0.042397,0.092864,0.015297,0.032448,-0.0060001,0,0,0.7854,-0.22296,0,-0.156,0,0,0,0.093349,0.014812,0.032448,-4.454,0.04687,0.071374,1.5344e-05,0.24,0.28,0
0.19133,0.048677,0.096371,0.012245,0.032585,-0.0061399,0,0,0.76713,-0.23509,0,-0.15022,0,0,0,0.096861,0.011754,0.032585,-4.2909,0.047067,0.076887,2.5072e-05,0.26,0.28,0
0.2066,0.057031,0.10248,0.0052427,0.032317,-0.0064158,0,0,0.65824,-0.23541,0,-0.14403,0,0,0,0.10306,0.0046666,0.032317,-3.9272,0.046681,0.087952,4.2227e-05,0.28,0.28,0
0.2189,0.064812,0.10116,-0.0019606,0.029761,-0.0054443,0,0,0.43951,-0.17991,0,-0.10546,0,0,0,0.10173,-0.0025277,0.029761,-3.0707,0.042988,0.09248,4.4528e-05,0.3,0.28,0
0.2259,0.069782,0.093878,-0.011681,0.024659,-0.0047343,0,0,0.22876,-0.10752,0,-0.053977,0,0,0,0.094311,-0.012115,0.024659,-2.8382,0.035619,0.093696,3.4156e-05,0.32,0.28,0
0.22905,0.072787,0.094037,-0.022901,0.021341,-0.0055804,0,0,0.12734,-0.074245,0,-0.028091,0,0,0,0.094429,-0.023293,0.021341,-3.2435,0.030826,0.10298,2.8918e-05,0.34,0.28,0
0.23117,0.075428,0.10148,-0.030041,0.021431,-0.0068215,0,0,0.10789,-0.069687,0,-0.020578,0,0,0,0.10193,-0.030493,0.021431,-3.2617,0.030956,0.11558,3.086e-05,0.36,0.28,0
0.23335,0.078187,0.10696,-0.039463,0.020249,-0.005956,0,0,0.11272,-0.077625,0,-0.015486,0,0,0,0.10733,-0.03983,0.020249,-2.4608,0.029248,0.1282,3.3452e-05,0.38,0.28,0
0.23568,0.081177,0.10976,-0.050592,0.017751,-0.0010285,0,0,0.11961,-0.088846,0,-0.0026742,0,0,0,0.10997,-0.050796,0.017751,-0.46266,0.02564,0.13977,3.4941e-05,0.4,0.28,0
0.23813,0.084643,0.11279,-0.050704,0.018626,0.0054732,0,0,0.12241,-0.090129,0,0.01423,0,0,0,0.11311,-0.051023,0.018626,1.9323,0.026904,0.14272,3.8946e-05,0.42,0.28,0
0.24058,0.088634,0.11615,-0.041327,0.022448,0.0091775,0,0,0.12182,-0.082908,0,0.023862,0,0,0,0.11674,-0.041911,0.022448,3.2996,0.032425,0.13824,4.5331e-05,0.44,0.28,0
0.24301,0.09301,0.11946,-0.031695,0.02633,0.0094029,0,0,0.12422,-0.077495,0,0.027033,0,0,0,0.12021,-0.032439,0.02633,3.7027,0.038033,0.1334,5.4065e-05,0.46,0.28,0
0.24553,0.097776,0.12274,-0.017582,0.031548,0.0066193,0,0,0.15443,-0.074721,0,0.015806,0,0,0,0.12359,-0.018425,0.031548,2.5109,0.045569,0.12496,6.8052e-05,0.48,0.28,0
0.24923,0.10246,0.13064,0.00027316,0.039274,0.0074921,0,0,0.22607,-0.076446,0,0.018255,0,0,0,0.13219,-0.0012754,0.039274,1.9872,0.056729,0.11896,0.0001388,0.5,0.28,0
0.25463,0.10647,0.14194,0.014371,0.046893,0.012445,0,0,0.27193,-0.075903,0,0.056138,0,0,0,0.14468,0.011626,0.046893,3.7316,0.067734,0.12002,0.0002376,0.52,0.28,0
0.25981,0.11056,0.15003,0.03217,0.054659,0.0092226,0,0,0.23658,-0.052196,0,0.061197,0,0,0,0.15254,0.029656,0.054659,3.1433,0.078952,0.11304,0.00021239,0.54,0.28,0
0.26352,0.11566,0.16284,0.051038,0.064164,0.0046251,0,0,0.17705,-0.023205,0,0.032753,0,0,0,0.16406,0.049819,0.064164,2.0862,0.092682,0.10797,0.00011398,0.56,0.28,0
0.26651,0.12185,0.18144,0.055888,0.071199,0.007359,0,0,0.15329,-0.019753,0,0.023659,0,0,0,0.18219,0.05514,0.071199,3.2974,0.10284,0.12,9.143e-05,0.58,0.28,0
0.26955,0.1288,0.19273,0.049482,0.072664,0.0094123,0,0,0.15609,-0.030136,0,0.024472,0,0,0,0.19344,0.048776,0.072664,3.7697,0.10496,0.13444,0.0001149,0.6,0.28,0
0.27275,0.13615,0.19523,0.042591,0.071347,0.0087875,0,0,0.16105,-0.037382,0,0.022847,0,0,0,0.19579,0.042035,0.071347,3.3317,0.10306,0.14142,0.00012644,0.62,0.28,0
0.276,0.14371,0.19383,0.034409,0.068472,0.0083419,0,0,0.16297,-0.044281,0,0.021689,0,0,0,0.19431,0.033932,0.068472,3.0245,0.098904,0.14624,0.00013114,0.64,0.28,0
0.27927,0.15143,0.19089,0.023238,0.064238,0.0074594,0,0,0.16464,-0.053299,0,0.019395,0,0,0,0.19127,0.022859,0.064238,2.5776,0.092788,0.15204,0.00013618,0.66,0.28,0
0.28258,0.15917,0.18771,0.013616,0.060396,0.0053914,0,0,0.1655,-0.060814,0,0.014018,0,0,0,0.18794,0.013383,0.060396,1.7947,0.087239,0.15646,0.00013831,0.68,0.28,0
0.28589,0.1668,0.18413,0.0074847,0.057486,0.0029529,0,0,0.16464,-0.065001,0,0.0076776,0,0,0,0.18425,0.0073683,0.057486,0.95943,0.083035,0.15791,0.00013567,0.7,0.28,0
0.28917,0.17429,0.18024,0.0038039,0.055214,0.00093088,0,0,0.16254,-0.066833,0,0.0024203,0,0,0,0.1803,0.003743,0.055214,0.29145,0.079753,0.15728,0.00013014,0.72,0.28,0
0.29239,0.18161,0.17652,0.001133,0.053295,-0.00057161,0,0,0.16019,-0.067811,0,-0.0014862,0,0,0,0.17656,0.0010896,0.053295,-0.20119,0.076982,0.15606,0.00012427,0.74,0.28,0
0.29558,0.18878,0.17319,-0.0017499,0.051431,-0.0018493,0,0,0.15828,-0.069136,0,-0.0048082,0,0,0,0.17324,-0.0017995,0.051431,-0.61782,0.07429,0.15542,0.00011947,0.76,0.28,0
0.29873,0.19577,0.17011,-0.0055165,0.049378,-0.00322,0,0,0.15695,-0.071363,0,-0.0083721,0,0,0,0.1702,-0.0056022,0.049378,-1.0581,0.071324,0.15577,0.00011583,0.78,0.28,0
0.30185,0.20259,0.16699,-0.01022,0.047032,-0.0048026,0,0,0.15595,-0.074428,0,-0.012487,0,0,0,0.16715,-0.010383,0.047032,-1.5558,0.067934,0.15692,0.00011265,0.8,0.28,0
0.30496,0.20924,0.16415,-0.016067,0.044424,-0.0061988,0,0,0.15564,-0.078638,0,-0.016117,0,0,0,0.16439,-0.01631,0.044424,-1.9711,0.064168,0.15928,0.00011036,0.82,0.28,0
0.30808,0.21577,0.1631,-0.025948,0.041146,-0.0062895,0,0,0.15854,-0.087222,0,-0.016353,0,0,0,0.16334,-0.026185,0.041146,-1.9234,0.059433,0.16644,0.00011234,0.84,0.28,0
0.3113,0.22229,0.1637,-0.030638,0.039919,-0.0043196,0,0,0.31427,-0.10769,0,-0.01535,0,0,0,0.16387,-0.030806,0.039919,-1.2732,0.057661,0.17138,0.00010652,0.86,0.28,0
0.32065,0.22868,0.16583,-0.0095017,0.046897,-0.0020412,0,0,0.78152,-0.18387,0,-0.02265,0,0,0,0.16596,-0.0096367,0.046897,-0.66183,0.067741,0.15694,8.9338e-05,0.88,0.28,0
0.34257,0.23435,0.17045,0.018195,0.056594,-0.0017273,0,0,1.2847,-0.33959,0,-0.043298,0,0,0,0.17056,0.018083,0.056594,-0.65933,0.081747,0.13825,8.8638e-05,0.9,0.28,0
0.37204,0.23868,0.17485,0.019775,0.058387,-0.0025551,0,0,1.514,-0.50195,0,-0.066434,0,0,0,0.17492,0.019699,0.058387,-0.9182,0.084336,0.14002,0.00010551,0.92,0.28,0
0.40313,0.24162,0.17697,0.0086254,0.055678,-0.0028131,0,0,1.5768,-0.61168,0,-0.073141,0,0,0,0.17702,0.0085732,0.055678,-0.95725,0.080423,0.15055,0.00011925,0.94,0.28,0
0.43511,0.24346,0.17764,0.0019327,0.053872,-0.0022619,0,0,1.609,-0.67521,0,-0.05881,0,0,0,0.17767,0.0019003,0.053872,-0.74424,0.077815,0.15641,0.00012609,0.96,0.28,0
0.46749,0.24446,0.17759,-0.0015935,0.0528,-0.0010795,0,0,1.6223,-0.70711,0,-0.028068,0,0,0,0.17761,-0.0016071,0.0528,-0.34974,0.076266,0.15915,0.0001287,0.98,0.28,0
0.48373,0.24477,0.1775,-0.0026938,0.052441,-0.00033783,0,0,1.6257,-0.71675,0,-0.0087836,0,0,0,0.1775,-0.0026997,0.052441,-0.1085,0.075748,0.15993,0.00012931,1,0.28,0
0.0065692,0.0024199,0.088431,0.037511,0.037783,0.0091519,0,0,0.65843,-0.0035282,0,0.23795,0,0,0,0.090027,0.035915,0.037783,9.886,0.054575,0.053204,7.7027e-06,0,0.3,0
0.013169,0.0047696,0.08849,0.036986,0.037643,0.0088489,0,0,0.66102,-0.0085416,0,0.23007,0,0,0,0.089974,0.035502,0.037643,9.4865,0.054373,0.053436,7.7942e-06,0.02,0.3,0
0.026441,0.009292,0.088671,0.035677,0.037305,0.0079995,0,0,0.66777,-0.021154,0,0.20799,0,0,0,0.089868,0.03448,0.037305,8.4125,0.053884,0.054036,8.0293e-06,0.04,0.3,0
0.039879,0.013403,0.088906,0.033901,0.036842,0.0067412,0,0,0.67683,-0.03823,0,0.17527,0,0,0,0.089744,0.033063,0.036842,6.9083,0.053217,0.054897,8.3633e-06,0.06,0.3,0
0.053514,0.017018,0.089094,0.031759,0.036256,0.0052013,0,0,0.68689,-0.058456,0,0.13523,0,0,0,0.089592,0.031262,0.036256,5.1723,0.05237,0.056011,8.788e-06,0.08,0.3,0
0.067355,0.020111,0.089186,0.029353,0.035562,0.0034724,0,0,0.69712,-0.080717,0,0.090283,0,0,0,0.089419,0.02912,0.035562,3.347,0.051367,0.057363,9.2931e-06,0.1,0.3,0
0.081399,0.02271,0.089143,0.026774,0.034775,0.001648,0,0,0.70678,-0.10401,0,0.042847,0,0,0,0.089217,0.026701,0.034775,1.5519,0.050231,0.05891,9.8562e-06,0.12,0.3,0
0.095626,0.024912,0.088925,0.024127,0.033915,-0.00016267,0,0,0.71512,-0.12725,0,-0.0042294,0,0,0,0.088951,0.024101,0.033915,-0.10561,0.048989,0.060557,1.0433e-05,0.14,0.3,0
0.11,0.02688,0.088475,0.021548,0.033007,-0.0018335,0,0,0.72108,-0.14896,0,-0.047671,0,0,0,0.088544,0.021479,0.033007,-1.5333,0.047677,0.062121,1.0947e-05,0.16,0.3,0
0.12447,0.02886,0.087714,0.019234,0.032084,-0.0032429,0,0,0.72318,-0.16706,0,-0.084315,0,0,0,0.087882,0.019066,0.032084,-2.6714,0.046344,0.063327,1.1286e-05,0.18,0.3,0
0.13893,0.031162,0.086539,0.017376,0.031174,-0.0042967,0,0,0.71974,-0.17938,0,-0.11171,0,0,0,0.086818,0.017097,0.031174,-3.4997,0.04503,0.063863,1.1335e-05,0.2,0.3,0
0.15326,0.034163,0.084847,0.016013,0.030258,-0.0049,0,0,0.70966,-0.18519,0,-0.1274,0,0,0,0.085211,0.015649,0.030258,-3.989,0.043706,0.063535,1.1026e-05,0.22,0.3,0
0.16732,0.038327,0.082779,0.014778,0.029267,-0.0049479,0,0,0.69565,-0.18836,0,-0.12864,0,0,0,0.08316,0.014396,0.029267,-4.0548,0.042274,0.062669,1.0474e-05,0.24,0.3,0
0.18109,0.044169,0.080707,0.011706,0.027724,-0.0048302,0,0,0.68878,-0.20823,0,-0.12558,0,0,0,0.08107,0.011344,0.027724,-3.8826,0.040046,0.063171,1.0294e-05,0.26,0.3,0
0.19487,0.051777,0.081175,0.005554,0.026019,-0.0055863,0,0,0.67292,-0.24531,0,-0.1415,0,0,0,0.081635,0.0050933,0.026019,-4.1802,0.037582,0.068561,1.3785e-05,0.28,0.3,0
0.20831,0.059987,0.084288,-0.0015257,0.024829,-0.0073968,0,0,0.57577,-0.2438,0,-0.15993,0,0,0,0.085042,-0.0022794,0.024829,-5.07,0.035864,0.077442,2.1433e-05,0.3,0.3,0
0.21905,0.066695,0.082554,-0.011295,0.021378,-0.0087172,0,0,0.38183,-0.18198,0,-0.13721,0,0,0,0.083557,-0.012298,0.021378,-5.8983,0.030879,0.084317,2.4616e-05,0.32,0.3,0
0.22515,0.071053,0.079496,-0.0223,0.017159,-0.0093677,0,0,0.2016,-0.11998,0,-0.092465,0,0,0,0.080637,-0.023441,0.017159,-6.4252,0.024785,0.091002,2.2805e-05,0.34,0.3,0
0.22803,0.074061,0.084073,-0.029467,0.016382,-0.010287,0,0,0.12069,-0.10316,0,-0.063716,0,0,0,0.085283,-0.030676,0.016382,-6.1917,0.023663,0.1013,2.4315e-05,0.36,0.3,0
0.23017,0.076644,0.087468,-0.042182,0.013586,-0.0090153,0,0,0.10992,-0.11165,0,-0.044659,0,0,0,0.088384,-0.043099,0.013586,-4.8169,0.019624,0.11465,2.2989e-05,0.38,0.3,0
0.23241,0.079362,0.087699,-0.057223,0.0091427,-0.0034555,0,0,0.11234,-0.10836,0,-0.022032,0,0,0,0.088146,-0.05767,0.0091427,-2.3058,0.013206,0.1267,1.8067e-05,0.4,0.3,0
0.23463,0.082832,0.091697,-0.055509,0.010856,0.0029814,0,0,0.10849,-0.09093,0,0.0028646,0,0,0,0.091985,-0.055797,0.010856,0.71373,0.015681,0.1283,2.024e-05,0.42,0.3,0
0.23673,0.087041,0.095065,-0.042386,0.015804,0.0057188,0,0,0.10304,-0.075647,0,0.014869,0,0,0,0.095381,-0.042702,0.015804,2.3045,0.022827,0.1201,2.4995e-05,0.44,0.3,0
0.23875,0.091551,0.091826,-0.030779,0.018314,0.0047444,0,0,0.10806,-0.070006,0,0.01817,0,0,0,0.092104,-0.031057,0.018314,2.7995,0.026454,0.10742,2.8115e-05,0.46,0.3,0
0.24098,0.096266,0.092006,-0.016334,0.022702,0.00088729,0,0,0.15517,-0.075319,0,0.015877,0,0,0,0.092411,-0.016739,0.022702,2.1701,0.032791,0.095983,4.5336e-05,0.48,0.3,0
0.24516,0.10082,0.10164,-0.0020782,0.029869,-0.0017987,0,0,0.23624,-0.080324,0,-0.0018792,0,0,0,0.10318,-0.0036197,0.029869,0.0054506,0.043144,0.095324,9.4253e-05,0.5,0.3,0
0.25102,0.10501,0.1096,0.0083749,0.035393,-0.0035707,0,0,0.24657,-0.06583,0,-0.017684,0,0,0,0.11278,0.005194,0.035393,-2.7642,0.051123,0.09725,0.00011851,0.52,0.3,0
0.2552,0.10972,0.12514,0.027469,0.045781,-0.0081943,0,0,0.17239,-0.036207,0,-0.021391,0,0,0,0.12818,0.02442,0.045781,-5.2281,0.066129,0.095731,7.9674e-05,0.54,0.3,0
0.25768,0.11532,0.1512,0.048756,0.059985,-0.0068811,0,0,0.12806,-0.016697,0,-0.014515,0,0,0,0.15267,0.047279,0.059985,-3.8629,0.086646,0.099796,5.3464e-05,0.56,0.3,0
0.26022,0.12155,0.16895,0.055189,0.06724,0.00067359,0,0,0.13222,-0.015666,0,0.0017513,0,0,0,0.16953,0.054606,0.06724,0.10349,0.097125,0.10922,6.4947e-05,0.58,0.3,0
0.26297,0.12831,0.17688,0.049849,0.068017,0.0058098,0,0,0.14152,-0.023619,0,0.015106,0,0,0,0.17734,0.049381,0.068017,2.4598,0.098247,0.1198,8.211e-05,0.6,0.3,0
0.26588,0.13546,0.18196,0.042072,0.067208,0.0080725,0,0,0.14917,-0.032677,0,0.020989,0,0,0,0.18246,0.041568,0.067208,3.2449,0.097079,0.13002,9.8993e-05,0.62,0.3,0
0.26893,0.14286,0.18506,0.033773,0.065651,0.0088692,0,0,0.15524,-0.041441,0,0.02306,0,0,0,0.18559,0.033244,0.065651,3.3375,0.094829,0.13904,0.00011346,0.64,0.3,0
0.27209,0.1504,0.18621,0.02436,0.06317,0.0086397,0,0,0.15995,-0.050452,0,0.022463,0,0,0,0.18668,0.02389,0.06317,3.0584,0.091245,0.14716,0.00012516,0.66,0.3,0
0.27533,0.15798,0.18618,0.015677,0.060557,0.0074801,0,0,0.16331,-0.058344,0,0.019448,0,0,0,0.18652,0.015334,0.060557,2.5211,0.087472,0.15367,0.00013327,0.68,0.3,0
0.27862,0.16551,0.18524,0.0092988,0.058361,0.0058202,0,0,0.16494,-0.063781,0,0.015132,0,0,0,0.18545,0.0090857,0.058361,1.8989,0.084299,0.15762,0.00013677,0.7,0.3,0
0.28193,0.17295,0.18349,0.005207,0.05661,0.004101,0,0,0.16495,-0.066824,0,0.010663,0,0,0,0.18361,0.0050885,0.05661,1.315,0.08177,0.15915,0.00013625,0.72,0.3,0
0.28522,0.18025,0.18129,0.0024043,0.055107,0.0024187,0,0,0.16403,-0.068514,0,0.0062887,0,0,0,0.18134,0.0023465,0.055107,0.76796,0.079599,0.15931,0.00013357,0.74,0.3,0
0.28849,0.18738,0.17893,-0.0003868,0.053563,0.00074047,0,0,0.16298,-0.070134,0,0.0019252,0,0,0,0.17895,-0.00041258,0.053563,0.22926,0.077368,0.15939,0.00013057,0.76,0.3,0
0.29174,0.19434,0.17641,-0.0041264,0.051684,-0.00080605,0,0,0.16214,-0.072553,0,-0.0020957,0,0,0,0.17643,-0.0041504,0.051684,-0.26462,0.074654,0.16014,0.00012795,0.78,0.3,0
0.29498,0.2011,0.17348,-0.0089961,0.049344,-0.0020141,0,0,0.16137,-0.075842,0,-0.0052366,0,0,0,0.17352,-0.0090442,0.049344,-0.64767,0.071275,0.1615,0.00012519,0.8,0.3,0
0.2982,0.20767,0.17048,-0.015046,0.046631,-0.0031111,0,0,0.16101,-0.08018,0,-0.0080888,0,0,0,0.17057,-0.015133,0.046631,-0.97738,0.067355,0.16381,0.0001226,0.82,0.3,0
0.30142,0.21401,0.16926,-0.025208,0.043217,-0.0047127,0,0,0.16386,-0.088952,0,-0.012253,0,0,0,0.16941,-0.025354,0.043217,-1.3819,0.062424,0.17115,0.00012477,0.84,0.3,0
0.30475,0.22008,0.16971,-0.030902,0.041643,-0.0065753,0,0,0.32565,-0.11113,0,-0.041997,0,0,0,0.17,-0.03119,0.041643,-1.9652,0.060151,0.17716,0.00011842,0.86,0.3,0
0.31444,0.22495,0.17163,-0.0106,0.048308,-0.0073873,0,0,0.81115,-0.19409,0,-0.10844,0,0,0,0.17206,-0.011033,0.048308,-2.5121,0.069778,0.16354,9.9473e-05,0.88,0.3,0
0.3372,0.2275,0.17631,0.017412,0.058118,-0.0066112,0,0,1.3338,-0.36098,0,-0.15034,0,0,0,0.17669,0.017035,0.058118,-2.4491,0.083948,0.14455,9.9537e-05,0.9,0.3,0
0.36779,0.22849,0.18078,0.019083,0.059957,-0.0049729,0,0,1.5706,-0.53137,0,-0.1293,0,0,0,0.18097,0.018887,0.059957,-1.7817,0.086605,0.14602,0.0001183,0.92,0.3,0
0.40002,0.22911,0.18267,0.0076457,0.057094,-0.0032327,0,0,1.6325,-0.64283,0,-0.084049,0,0,0,0.18274,0.0075723,0.057094,-1.0725,0.08247,0.15643,0.00013225,0.94,0.3,0
0.43309,0.22961,0.18302,0.0009437,0.055191,-0.0018107,0,0,1.6618,-0.70521,0,-0.047078,0,0,0,0.18305,0.00091976,0.055191,-0.57748,0.07972,0.16197,0.00013856,0.96,0.3,0
0.4665,0.22994,0.18272,-0.0025472,0.054052,-0.00073502,0,0,1.6727,-0.73579,0,-0.01911,0,0,0,0.18273,-0.002554,0.054052,-0.23042,0.078075,0.16446,0.00014063,0.98,0.3,0
0.48324,0.23006,0.18253,-0.0036308,0.053671,-0.0002499,0,0,1.6752,-0.74492,0,-0.0064973,0,0,0,0.18254,-0.0036332,0.053671,-0.077696,0.077524,0.16515,0.00014104,1,0.3,0
0.0065756,0.0023833,0.088548,0.037896,0.037933,0.0090253,0,0,0.65799,-0.0004798,0,0.23466,0,0,0,0.090108,0.036336,0.037933,9.8072,0.054793,0.052992,7.6194e-06,0,0.32,0
0.01316,0.0046625,0.088547,0.037638,0.037856,0.008722,0,0,0.65899,-0.0028318,0,0.22677,0,0,0,0.090005,0.03618,0.037856,9.4582,0.05468,0.053008,7.6234e-06,0.02,0.32,0
0.02636,0.0089857,0.088508,0.036756,0.037579,0.0078806,0,0,0.66207,-0.010704,0,0.2049,0,0,0,0.089695,0.035569,0.037579,8.4765,0.054281,0.053152,7.6736e-06,0.04,0.32,0
0.039643,0.012798,0.088389,0.035254,0.037093,0.0066808,0,0,0.66685,-0.02391,0,0.1737,0,0,0,0.089238,0.034406,0.037093,7.0745,0.053579,0.053544,7.815e-06,0.06,0.32,0
0.053034,0.016047,0.088144,0.033303,0.036434,0.0052722,0,0,0.67223,-0.040706,0,0.13708,0,0,0,0.088673,0.032774,0.036434,5.4688,0.052627,0.05417,8.0363e-06,0.08,0.32,0
0.066532,0.018727,0.087699,0.031016,0.035615,0.0037275,0,0,0.6771,-0.059781,0,0.096914,0,0,0,0.087974,0.030741,0.035615,3.7836,0.051443,0.054968,8.305e-06,0.1,0.32,0
0.080118,0.02089,0.087007,0.028478,0.034645,0.0021205,0,0,0.6807,-0.08018,0,0.055133,0,0,0,0.087116,0.028369,0.034645,2.1199,0.050043,0.055886,8.5909e-06,0.12,0.32,0
0.09376,0.022649,0.086032,0.025753,0.033536,0.00055365,0,0,0.68245,-0.10117,0,0.014395,0,0,0,0.086069,0.025717,0.033536,0.5828,0.04844,0.056861,8.8591e-06,0.14,0.32,0
0.10742,0.024197,0.084725,0.02294,0.032299,-0.00082644,0,0,0.68153,-0.12168,0,-0.021487,0,0,0,0.084766,0.022899,0.032299,-0.70283,0.046655,0.057756,9.049e-06,0.16,0.32,0
0.12102,0.025822,0.083017,0.020248,0.03098,-0.0018594,0,0,0.67649,-0.13951,0,-0.048344,0,0,0,0.083104,0.020162,0.03098,-1.6227,0.044748,0.0583,9.0611e-06,0.18,0.32,0
0.13448,0.027886,0.080855,0.017971,0.029648,-0.0024397,0,0,0.66569,-0.1518,0,-0.063433,0,0,0,0.08099,0.017836,0.029648,-2.1259,0.042825,0.05816,8.7969e-06,0.2,0.32,0
0.14765,0.030779,0.078273,0.016213,0.028346,-0.0025521,0,0,0.64905,-0.15772,0,-0.066355,0,0,0,0.078434,0.016053,0.028346,-2.2293,0.040944,0.057236,8.2559e-06,0.22,0.32,0
0.16044,0.034863,0.075451,0.014489,0.026982,-0.0023056,0,0,0.6301,-0.16241,0,-0.059946,0,0,0,0.075605,0.014335,0.026982,-2.0195,0.038974,0.056031,7.6193e-06,0.24,0.32,0
0.17285,0.040348,0.072427,0.011523,0.025185,-0.0021288,0,0,0.61414,-0.1776,0,-0.05535,0,0,0,0.072565,0.011385,0.025185,-1.845,0.036378,0.055594,7.1347e-06,0.26,0.32,0
0.185,0.047102,0.069346,0.0064982,0.022753,-0.0029411,0,0,0.60571,-0.21132,0,-0.076468,0,0,0,0.069561,0.0062836,0.022753,-2.4466,0.032866,0.056893,7.011e-06,0.28,0.32,0
0.19708,0.054603,0.068506,0.00022732,0.02062,-0.0055378,0,0,0.58419,-0.24509,0,-0.13225,0,0,0,0.069071,-0.00033692,0.02062,-4.279,0.029785,0.061696,9.137e-06,0.3,0.32,0
0.20865,0.061865,0.069357,-0.0096654,0.017907,-0.0091765,0,0,0.48807,-0.24147,0,-0.17756,0,0,0,0.070523,-0.010831,0.017907,-6.6676,0.025866,0.071558,1.3801e-05,0.32,0.32,0
0.21761,0.067617,0.067726,-0.020914,0.014044,-0.011547,0,0,0.32872,-0.2141,0,-0.17706,0,0,0,0.069429,-0.022617,0.014044,-8.4487,0.020285,0.080506,1.7766e-05,0.34,0.32,0
0.22297,0.071228,0.06449,-0.029583,0.010472,-0.011856,0,0,0.20419,-0.20431,0,-0.14167,0,0,0,0.066276,-0.031369,0.010472,-8.4385,0.015126,0.085456,1.9093e-05,0.36,0.32,0
0.22636,0.073744,0.057752,-0.044555,0.0039591,-0.010041,0,0,0.14006,-0.18743,0,-0.087451,0,0,0,0.059119,-0.045922,0.0039591,-6.4244,0.0057187,0.091833,1.0718e-05,0.38,0.32,0
0.22881,0.076888,0.054777,-0.059498,-0.0014164,-0.0065504,0,0,0.10615,-0.13836,0,-0.041492,0,0,0,0.055722,-0.060443,-0.0014164,-3.9901,-0.002046,0.10105,-2.759e-07,0.4,0.32,0
0.23066,0.081029,0.067227,-0.056423,0.0032409,-0.0040808,0,0,0.092179,-0.091528,0,-0.017151,0,0,0,0.068131,-0.057327,0.0032409,-2.3017,0.0046814,0.10886,4.3374e-06,0.42,0.32,0
0.23246,0.085608,0.084362,-0.041949,0.012724,-0.0035504,0,0,0.093129,-0.071075,0,-0.0092311,0,0,0,0.085365,-0.042953,0.012724,-1.4762,0.018379,0.11154,1.733e-05,0.44,0.32,0
0.23439,0.090211,0.093719,-0.027924,0.019738,-0.0037126,0,0,0.1117,-0.068147,0,-0.0057388,0,0,0,0.09467,-0.028875,0.019738,-0.77788,0.028511,0.10789,3.0336e-05,0.46,0.32,0
0.23682,0.094696,0.10467,-0.012059,0.027783,-0.0062275,0,0,0.15651,-0.075367,0,0.00048213,0,0,0,0.10594,-0.013328,0.027783,-0.42279,0.040131,0.10515,6.2248e-05,0.48,0.32,0
0.24064,0.099106,0.11879,0.003648,0.036732,-0.013209,0,0,0.20399,-0.07612,0,-0.027498,0,0,0,0.1218,0.00063861,0.036732,-3.5353,0.053058,0.10818,9.651e-05,0.5,0.32,0
0.2452,0.10379,0.12794,0.016642,0.043376,-0.020523,0,0,0.19699,-0.054998,0,-0.074035,0,0,0,0.13298,0.011609,0.043376,-8.9415,0.062654,0.10965,9.1924e-05,0.52,0.32,0
0.24857,0.10915,0.1424,0.031663,0.052218,-0.021692,0,0,0.14801,-0.031243,0,-0.071159,0,0,0,0.14713,0.026934,0.052218,-10.544,0.075426,0.11019,7.1827e-05,0.54,0.32,0
0.25104,0.11501,0.15697,0.04428,0.060375,-0.015525,0,0,0.12557,-0.020924,0,-0.040364,0,0,0,0.15956,0.041687,0.060375,-7.5057,0.087209,0.10987,6.3385e-05,0.56,0.32,0
0.25359,0.12122,0.16372,0.048427,0.063645,-0.0068241,0,0,0.1301,-0.019783,0,-0.017743,0,0,0,0.1646,0.047551,0.063645,-3.3285,0.091932,0.10994,6.3557e-05,0.58,0.32,0
0.25625,0.12786,0.16956,0.046288,0.064753,9.9761e-06,0,0,0.13624,-0.024005,0,2.595e-05,0,0,0,0.16981,0.046032,0.064753,-0.080678,0.093532,0.11559,7.2626e-05,0.6,0.32,0
0.25904,0.13484,0.17486,0.040633,0.064648,0.004179,0,0,0.14328,-0.03122,0,0.010865,0,0,0,0.1751,0.040392,0.064648,1.7154,0.093381,0.1244,8.6642e-05,0.62,0.32,0
0.26198,0.14206,0.1793,0.033075,0.063711,0.0062153,0,0,0.15026,-0.039827,0,0.01616,0,0,0,0.17961,0.032761,0.063711,2.3996,0.092028,0.13411,0.00010221,0.64,0.32,0
0.26505,0.14941,0.18272,0.024683,0.062221,0.0069169,0,0,0.15665,-0.0488,0,0.017984,0,0,0,0.18305,0.024352,0.062221,2.4947,0.089875,0.14359,0.00011719,0.66,0.32,0
0.26825,0.15683,0.18504,0.016681,0.060516,0.0068346,0,0,0.16188,-0.056985,0,0.01777,0,0,0,0.18533,0.016389,0.060516,2.324,0.087411,0.15178,0.0001297,0.68,0.32,0
0.27153,0.16425,0.18623,0.010376,0.058981,0.0063452,0,0,0.16542,-0.063186,0,0.016498,0,0,0,0.18646,0.010141,0.058981,2.0678,0.085194,0.15769,0.00013813,0.7,0.32,0
0.27486,0.17161,0.18636,0.0063361,0.05781,0.0055365,0,0,0.16712,-0.066916,0,0.014395,0,0,0,0.18654,0.0061597,0.05781,1.7608,0.083504,0.1609,0.000142,0.72,0.32,0
0.27821,0.17887,0.18582,0.0039905,0.056943,0.0042145,0,0,0.16754,-0.068838,0,0.010958,0,0,0,0.18593,0.003881,0.056943,1.3255,0.08225,0.16216,0.00014266,0.74,0.32,0
0.28156,0.18597,0.18508,0.001695,0.056033,0.0023326,0,0,0.16776,-0.070639,0,0.0060648,0,0,0,0.18513,0.0016493,0.056033,0.72954,0.080936,0.16323,0.00014281,0.76,0.32,0
0.28492,0.19287,0.18441,-0.0022942,0.054634,0.00047391,0,0,0.16871,-0.074007,0,0.0012322,0,0,0,0.18442,-0.002306,0.054634,0.14985,0.078916,0.16577,0.00014463,0.78,0.32,0
0.28831,0.19956,0.18356,-0.0082979,0.052578,-0.00049929,0,0,0.17028,-0.079139,0,-0.0012982,0,0,0,0.18357,-0.0083056,0.052578,-0.15055,0.075947,0.16983,0.00014772,0.8,0.32,0
0.29173,0.20603,0.18214,-0.015036,0.05013,-0.0008855,0,0,0.17161,-0.084716,0,-0.0023023,0,0,0,0.18215,-0.015053,0.05013,-0.26982,0.07241,0.17404,0.00014975,0.82,0.32,0
0.29518,0.21221,0.18114,-0.022465,0.047602,-0.0034852,0,0,0.1736,-0.091087,0,-0.0090615,0,0,0,0.18129,-0.022618,0.047602,-0.96718,0.068758,0.17944,0.0001522,0.84,0.32,0
0.29868,0.21784,0.17881,-0.028173,0.04519,-0.008282,0,0,0.34295,-0.11423,0,-0.067645,0,0,0,0.1794,-0.02877,0.04519,-2.5063,0.065275,0.18363,0.00013457,0.86,0.32,0
0.30889,0.22092,0.17742,-0.014376,0.048913,-0.010815,0,0,0.85842,-0.22123,0,-0.18196,0,0,0,0.17838,-0.015338,0.048913,-3.7046,0.070653,0.17286,0.00010504,0.88,0.32,0
0.33302,0.21991,0.18242,0.011551,0.058191,-0.00949,0,0,1.4089,-0.41779,0,-0.22651,0,0,0,0.18316,0.010814,0.058191,-3.419,0.084054,0.15534,0.00011197,0.9,0.32,0
0.36525,0.21743,0.18711,0.015863,0.060891,-0.0059103,0,0,1.6408,-0.58537,0,-0.15367,0,0,0,0.18739,0.015576,0.060891,-2.0408,0.087953,0.15429,0.0001353,0.92,0.32,0
0.39865,0.21591,0.18701,0.005969,0.057893,-0.0024928,0,0,1.6785,-0.67502,0,-0.064813,0,0,0,0.18708,0.0059016,0.057893,-0.81062,0.083624,0.16159,0.00014346,0.94,0.32,0
0.43239,0.21525,0.18566,0.00017894,0.055751,-0.00070104,0,0,1.6888,-0.72244,0,-0.018227,0,0,0,0.18567,0.00016483,0.055751,-0.22132,0.080529,0.1649,0.00014515,0.96,0.32,0
0.4662,0.21502,0.1845,-0.0028885,0.054483,-0.00010253,0,0,1.6902,-0.74583,0,-0.0026659,0,0,0,0.1845,-0.002892,0.054483,-0.031671,0.078697,0.1663,0.00014494,0.98,0.32,0
0.4831,0.21498,0.18407,-0.003846,0.054068,-1.1601e-05,0,0,1.69,-0.75288,0,-0.00030162,0,0,0,0.18407,-0.0038472,0.054068,-0.0033674,0.078098,0.16669,0.0001447,1,0.32,0
0.0066304,0.0024007,0.089304,0.038456,0.038328,0.0091191,0,0,0.66269,0.0016658,0,0.2371,0,0,0,0.09089,0.03687,0.038328,9.8652,0.055363,0.053306,7.7616e-06,0,0.34,0
0.013254,0.0046564,0.089253,0.03838,0.03829,0.0088301,0,0,0.66252,0.0011736,0,0.22958,0,0,0,0.090746,0.036887,0.03829,9.5701,0.055308,0.053171,7.7038e-06,0.02,0.34,0
0.026501,0.0088638,0.089031,0.037785,0.038045,0.008038,0,0,0.66282,-0.0033765,0,0.20899,0,0,0,0.090273,0.036542,0.038045,8.7092,0.054954,0.052997,7.6239e-06,0.04,0.34,0
0.039766,0.012447,0.088611,0.036458,0.037521,0.0069669,0,0,0.66418,-0.013821,0,0.18114,0,0,0,0.089543,0.035526,0.037521,7.4864,0.054197,0.05305,7.629e-06,0.06,0.34,0
0.053068,0.01539,0.087971,0.034617,0.036776,0.0057931,0,0,0.66553,-0.028077,0,0.15062,0,0,0,0.088616,0.033972,0.036776,6.1396,0.053122,0.053301,7.7005e-06,0.08,0.34,0
0.066388,0.017719,0.086994,0.032378,0.035812,0.0045667,0,0,0.66537,-0.044632,0,0.11873,0,0,0,0.087403,0.031969,0.035812,4.7685,0.051728,0.053623,7.7768e-06,0.1,0.34,0
0.079683,0.019503,0.085613,0.029845,0.034637,0.0033324,0,0,0.66269,-0.062305,0,0.086643,0,0,0,0.085854,0.029605,0.034637,3.4422,0.050032,0.053917,7.8108e-06,0.12,0.34,0
0.092895,0.020865,0.083816,0.027059,0.033262,0.0021471,0,0,0.65719,-0.080647,0,0.055824,0,0,0,0.083951,0.026923,0.033262,2.2189,0.048045,0.054147,7.7807e-06,0.14,0.34,0
0.10597,0.022013,0.081581,0.023999,0.031674,0.0011467,0,0,0.64879,-0.099777,0,0.029816,0,0,0,0.081669,0.02391,0.031674,1.2194,0.045751,0.054305,7.6744e-06,0.16,0.34,0
0.11885,0.023279,0.078902,0.020856,0.029927,0.00053494,0,0,0.63667,-0.11793,0,0.013909,0,0,0,0.078986,0.020772,0.029927,0.62919,0.043228,0.054228,7.4394e-06,0.18,0.34,0
0.13144,0.02509,0.075852,0.018137,0.028197,0.00040158,0,0,0.61952,-0.13077,0,0.010441,0,0,0,0.075955,0.018035,0.028197,0.52992,0.040729,0.053571,7.0016e-06,0.2,0.34,0
0.14363,0.027854,0.072598,0.016106,0.026611,0.00061034,0,0,0.59783,-0.13657,0,0.015869,0,0,0,0.072719,0.015985,0.026611,0.78365,0.038438,0.05224,6.3844e-06,0.22,0.34,0
0.15535,0.031831,0.069294,0.014224,0.025055,0.00089003,0,0,0.5751,-0.1408,0,0.023141,0,0,0,0.069417,0.014101,0.025055,1.1033,0.036191,0.050737,5.742e-06,0.24,0.34,0
0.16663,0.037064,0.065961,0.011577,0.023261,0.00090712,0,0,0.55509,-0.1519,0,0.023585,0,0,0,0.066071,0.011466,0.023261,1.1338,0.0336,0.049776,5.2206e-06,0.26,0.34,0
0.17755,0.043325,0.062371,0.0077151,0.021026,0.00021874,0,0,0.53749,-0.17304,0,0.0056874,0,0,0,0.062483,0.0076039,0.021026,0.43704,0.030371,0.04957,4.8013e-06,0.28,0.34,0
0.18813,0.050068,0.058433,0.002624,0.018317,-0.0016722,0,0,0.52151,-0.20401,0,-0.043478,0,0,0,0.058663,0.0023941,0.018317,-1.3861,0.026458,0.050273,4.4776e-06,0.3,0.34,0
0.19841,0.056617,0.055485,-0.0064017,0.014725,-0.0050668,0,0,0.49203,-0.2469,0,-0.11689,0,0,0,0.056164,-0.0070812,0.014725,-4.189,0.021269,0.055758,5.5333e-06,0.32,0.34,0
0.20805,0.061997,0.053988,-0.018789,0.010559,-0.0086359,0,0,0.42032,-0.28661,0,-0.16967,0,0,0,0.055292,-0.020094,0.010559,-6.7451,0.015252,0.065849,8.8582e-06,0.34,0.34,0
0.21589,0.065549,0.050995,-0.030147,0.0062543,-0.010675,0,0,0.30046,-0.27452,0,-0.15713,0,0,0,0.05262,-0.031773,0.0062543,-7.6951,0.009034,0.073568,1.0309e-05,0.36,0.34,0
0.22095,0.068921,0.04457,-0.044674,-3.136e-05,-0.011461,0,0,0.17506,-0.20436,0,-0.093291,0,0,0,0.04639,-0.046494,-3.136e-05,-6.431,-4.5297e-05,0.080937,2.9722e-06,0.38,0.34,0
0.22358,0.073829,0.046867,-0.057963,-0.0033288,-0.013869,0,0,0.10403,-0.13305,0,-0.046945,0,0,0,0.049489,-0.060585,-0.0033288,-5.4641,-0.0048082,0.095683,-3.173e-06,0.4,0.34,0
0.22532,0.079248,0.067268,-0.055236,0.0036097,-0.018848,0,0,0.090571,-0.090464,0,-0.047424,0,0,0,0.071246,-0.059214,0.0036097,-7.0877,0.005214,0.11323,7.6663e-06,0.42,0.34,0
0.22718,0.084198,0.093431,-0.041143,0.015686,-0.022206,0,0,0.10107,-0.073878,0,-0.057736,0,0,0,0.098263,-0.045976,0.015686,-8.3637,0.022658,0.12547,2.9241e-05,0.44,0.34,0
0.22936,0.088824,0.11546,-0.026724,0.02662,-0.022526,0,0,0.12168,-0.071409,0,-0.057903,0,0,0,0.12031,-0.031571,0.02662,-7.9057,0.038452,0.1328,5.3299e-05,0.46,0.34,0
0.232,0.093215,0.13446,-0.010307,0.037246,-0.023366,0,0,0.14523,-0.069925,0,-0.055384,0,0,0,0.13944,-0.015289,0.037246,-7.6461,0.053799,0.1364,8.3929e-05,0.48,0.34,0
0.23508,0.097702,0.14963,0.0084034,0.047411,-0.026848,0,0,0.15879,-0.061944,0,-0.067169,0,0,0,0.15551,0.0025255,0.047411,-9.295,0.068483,0.13633,0.00010915,0.5,0.34,0
0.23827,0.10277,0.15898,0.022576,0.054466,-0.02894,0,0,0.15587,-0.047854,0,-0.083423,0,0,0,0.16523,0.016325,0.054466,-11.323,0.078673,0.13403,0.00010955,0.52,0.34,0
0.24123,0.10847,0.16397,0.030474,0.058333,-0.025571,0,0,0.14409,-0.037424,0,-0.072594,0,0,0,0.16886,0.025581,0.058333,-10.608,0.084259,0.1301,9.4902e-05,0.54,0.34,0
0.24399,0.11449,0.16495,0.036753,0.060509,-0.01873,0,0,0.13577,-0.030884,0,-0.048698,0,0,0,0.1678,0.033897,0.060509,-8.0612,0.087402,0.12286,8.0607e-05,0.56,0.34,0
0.24666,0.12076,0.165,0.041262,0.061879,-0.01121,0,0,0.13406,-0.026802,0,-0.029146,0,0,0,0.16625,0.040013,0.061879,-5.0718,0.08938,0.11689,7.2476e-05,0.58,0.34,0
0.24935,0.12735,0.16765,0.041557,0.062761,-0.0047764,0,0,0.13635,-0.027565,0,-0.012419,0,0,0,0.16801,0.041192,0.062761,-2.1793,0.090654,0.11755,7.4078e-05,0.6,0.34,0
0.25212,0.13421,0.17168,0.038125,0.062941,-0.00047247,0,0,0.14136,-0.03226,0,-0.0012284,0,0,0,0.1718,0.038004,0.062941,-0.24321,0.090915,0.12326,8.3205e-05,0.62,0.34,0
0.25501,0.14127,0.17626,0.032015,0.062482,0.001958,0,0,0.14791,-0.039607,0,0.0050908,0,0,0,0.17637,0.031902,0.062482,0.74743,0.090252,0.13189,9.7006e-05,0.64,0.34,0
0.25803,0.14845,0.18079,0.024377,0.06155,0.0032167,0,0,0.15501,-0.048324,0,0.0083635,0,0,0,0.18092,0.024244,0.06155,1.163,0.088905,0.14178,0.00011307,0.66,0.34,0
0.26121,0.1557,0.18479,0.016613,0.060422,0.0040167,0,0,0.16168,-0.056952,0,0.010444,0,0,0,0.18494,0.01647,0.060422,1.363,0.087277,0.15137,0.00012889,0.68,0.34,0
0.2645,0.16299,0.18781,0.010218,0.059409,0.0047586,0,0,0.16692,-0.063948,0,0.012372,0,0,0,0.18797,0.010065,0.059409,1.5351,0.085813,0.15908,0.00014175,0.7,0.34,0
0.26788,0.17027,0.18961,0.0064336,0.058814,0.0052618,0,0,0.17004,-0.068095,0,0.013681,0,0,0,0.18977,0.0062738,0.058814,1.6473,0.084954,0.16368,0.00014958,0.72,0.34,0
0.2713,0.17749,0.19057,0.0053465,0.058776,0.0047315,0,0,0.17134,-0.069458,0,0.012302,0,0,0,0.1907,0.0052179,0.058776,1.4636,0.084898,0.16534,0.00015281,0.74,0.34,0
0.27474,0.18456,0.19156,0.0046735,0.058869,0.0025612,0,0,0.17249,-0.070454,0,0.0066591,0,0,0,0.19162,0.0046095,0.058869,0.79298,0.085033,0.16665,0.00015566,0.76,0.34,0
0.2782,0.19138,0.19323,0.00068764,0.058176,-0.00041401,0,0,0.17557,-0.074735,0,-0.0010764,0,0,0,0.19327,0.00064589,0.058176,-0.095025,0.084032,0.17128,0.00016365,0.78,0.34,0
0.28176,0.19793,0.19589,-0.0073593,0.056559,-0.0021466,0,0,0.18113,-0.083094,0,-0.0055811,0,0,0,0.19595,-0.0074214,0.056559,-0.57385,0.081696,0.18014,0.00017861,0.8,0.34,0
0.28545,0.20428,0.19928,-0.014978,0.05529,-0.0023302,0,0,0.18719,-0.091349,0,-0.0060585,0,0,0,0.19936,-0.015058,0.05529,-0.58302,0.079864,0.18932,0.00019611,0.82,0.34,0
0.28925,0.21036,0.19832,-0.017804,0.054155,-0.0053179,0,0,0.1996,-0.098181,0,-0.0199,0,0,0,0.19867,-0.018155,0.054155,-1.5434,0.078224,0.19123,0.00021128,0.84,0.34,0
0.29334,0.21551,0.19526,-0.023106,0.051645,-0.0091613,0,0,0.38526,-0.14059,0,-0.076252,0,0,0,0.19618,-0.024029,0.051645,-3.0648,0.074598,0.19461,0.00024781,0.86,0.34,0
0.3051,0.2161,0.19678,-0.018692,0.053428,-0.0088459,0,0,0.92833,-0.29286,0,-0.16738,0,0,0,0.1979,-0.019808,0.053428,-3.2892,0.077173,0.19366,0.00025919,0.88,0.34,0
0.33162,0.21079,0.19636,0.0038612,0.060067,-0.0069225,0,0,1.4983,-0.50577,0,-0.18716,0,0,0,0.19705,0.0031708,0.060067,-2.5141,0.086764,0.17367,0.00019606,0.9,0.34,0
0.36565,0.20507,0.19194,0.012052,0.061197,-0.0033839,0,0,1.6996,-0.63889,0,-0.087982,0,0,0,0.19217,0.011819,0.061197,-1.1254,0.088396,0.16146,0.00015005,0.92,0.34,0
0.39961,0.20211,0.18766,0.0045565,0.057665,0.00028263,0,0,1.6899,-0.69041,0,0.0073484,0,0,0,0.18772,0.0044959,0.057665,0.088345,0.083294,0.16328,0.00014627,0.94,0.34,0
0.43325,0.20071,0.18424,7.6589e-06,0.055275,0.0012831,0,0,1.6766,-0.71848,0,0.033359,0,0,0,0.18427,-2.0242e-05,0.055275,0.40653,0.079842,0.1638,0.00014216,0.96,0.34,0
0.46667,0.20011,0.18234,-0.0024347,0.053972,0.00085179,0,0,1.6688,-0.73329,0,0.022146,0,0,0,0.18235,-0.0024467,0.053972,0.26893,0.07796,0.16404,0.00013975,0.98,0.34,0
0.48335,0.19995,0.18174,-0.0032075,0.053559,0.00038982,0,0,1.6663,-0.73796,0,0.010135,0,0,0,0.18174,-0.0032124,0.053559,0.12301,0.077363,0.16411,0.00013896,1,0.34,0
0.0067468,0.00245,0.09087,0.039218,0.039026,0.0093492,0,0,0.67397,0.0024892,0,0.24308,0,0,0,0.09251,0.037577,0.039026,9.9495,0.056371,0.054223,8.1746e-06,0,0.36,0
0.013479,0.0047095,0.090784,0.039206,0.038997,0.0090923,0,0,0.67323,0.002721,0,0.2364,0,0,0,0.092342,0.037647,0.038997,9.7074,0.056329,0.054033,8.092e-06,0.02,0.36,0
0.026929,0.0088506,0.090444,0.03871,0.038746,0.0083964,0,0,0.67207,-0.00047356,0,0.21831,0,0,0,0.091781,0.037373,0.038746,8.988,0.055967,0.053735,7.9578e-06,0.04,0.36,0
0.040362,0.012245,0.089826,0.037434,0.038178,0.0075258,0,0,0.67143,-0.0096698,0,0.19567,0,0,0,0.090897,0.036364,0.038178,8.0115,0.055146,0.053651,7.9055e-06,0.06,0.36,0
0.053786,0.014923,0.088898,0.035594,0.037348,0.0066881,0,0,0.67015,-0.022793,0,0.17389,0,0,0,0.08974,0.034752,0.037348,7.0376,0.053947,0.053741,7.9113e-06,0.08,0.36,0
0.067168,0.016942,0.087485,0.033284,0.036231,0.0059327,0,0,0.6663,-0.038306,0,0.15425,0,0,0,0.088154,0.032615,0.036231,6.1608,0.052333,0.053827,7.8888e-06,0.1,0.36,0
0.080438,0.018398,0.085414,0.030616,0.034809,0.0052951,0,0,0.65786,-0.054508,0,0.13767,0,0,0,0.085973,0.030057,0.034809,5.4493,0.05028,0.053704,7.7448e-06,0.12,0.36,0
0.093483,0.019423,0.082655,0.02776,0.033124,0.0047668,0,0,0.6439,-0.069743,0,0.12394,0,0,0,0.083164,0.02725,0.033124,4.917,0.047846,0.053227,7.4283e-06,0.14,0.36,0
0.10619,0.020206,0.079275,0.0246,0.031163,0.0043397,0,0,0.62546,-0.08531,0,0.11283,0,0,0,0.079768,0.024107,0.031163,4.5379,0.045013,0.052498,6.983e-06,0.16,0.36,0
0.1185,0.021105,0.075284,0.02102,0.028891,0.0041774,0,0,0.60311,-0.10233,0,0.10861,0,0,0,0.0758,0.020504,0.028891,4.4541,0.041732,0.051626,6.4532e-06,0.18,0.36,0
0.13032,0.022655,0.071006,0.017979,0.026695,0.0043605,0,0,0.57604,-0.11332,0,0.11337,0,0,0,0.071597,0.017388,0.026695,4.8238,0.03856,0.050211,5.7961e-06,0.2,0.36,0
0.14154,0.025316,0.066923,0.016189,0.024934,0.0044925,0,0,0.54586,-0.11368,0,0.1168,0,0,0,0.067545,0.015567,0.024934,5.2635,0.036015,0.047988,5.0256e-06,0.22,0.36,0
0.15215,0.029231,0.06332,0.014669,0.023397,0.0042127,0,0,0.519,-0.11346,0,0.10953,0,0,0,0.063845,0.014144,0.023397,5.1754,0.033795,0.045787,4.3356e-06,0.24,0.36,0
0.1623,0.034272,0.060434,0.012332,0.02183,0.0035713,0,0,0.50185,-0.12347,0,0.092854,0,0,0,0.06079,0.011977,0.02183,4.4235,0.031532,0.04472,3.904e-06,0.26,0.36,0
0.17223,0.040181,0.058129,0.0090504,0.020154,0.0026228,0,0,0.49368,-0.14434,0,0.068192,0,0,0,0.058331,0.0088476,0.020154,3.1749,0.029111,0.044927,3.6978e-06,0.28,0.36,0
0.18205,0.046443,0.056322,0.0053742,0.018509,0.00094126,0,0,0.49157,-0.17075,0,0.024473,0,0,0,0.056445,0.0052514,0.018509,1.1829,0.026735,0.046043,3.6533e-06,0.3,0.36,0
0.19189,0.051888,0.056853,-0.0025154,0.016301,-0.0018432,0,0,0.48302,-0.21876,0,-0.036763,0,0,0,0.057095,-0.0027568,0.016301,-1.3988,0.023546,0.053091,6.806e-06,0.32,0.36,0
0.20157,0.055781,0.059856,-0.015312,0.013363,-0.0062021,0,0,0.4189,-0.2599,0,-0.085349,0,0,0,0.060695,-0.016152,0.013363,-4.1476,0.019302,0.067289,1.3108e-05,0.34,0.36,0
0.2094,0.059518,0.061417,-0.025114,0.010891,-0.011967,0,0,0.28203,-0.21746,0,-0.097126,0,0,0,0.063426,-0.027122,0.010891,-6.9376,0.015731,0.078883,1.5696e-05,0.36,0.36,0
0.21388,0.064904,0.063913,-0.03713,0.0080348,-0.018725,0,0,0.15633,-0.13717,0,-0.079158,0,0,0,0.067666,-0.040883,0.0080348,-8.4955,0.011606,0.094389,1.3977e-05,0.38,0.36,0
0.21624,0.071445,0.075305,-0.051993,0.0069933,-0.027934,0,0,0.10793,-0.10051,0,-0.073212,0,0,0,0.081771,-0.05846,0.0069933,-9.7825,0.010101,0.12176,1.7728e-05,0.4,0.36,0
0.21831,0.077495,0.094068,-0.052513,0.012467,-0.037517,0,0,0.10829,-0.089128,0,-0.09431,0,0,0,0.10366,-0.0621,0.012467,-12.414,0.018007,0.14394,3.3842e-05,0.42,0.36,0
0.22057,0.082653,0.11281,-0.04068,0.021639,-0.042536,0,0,0.11852,-0.081015,0,-0.11059,0,0,0,0.12423,-0.052102,0.021639,-14.101,0.031257,0.15346,5.6384e-05,0.44,0.36,0
0.22305,0.087353,0.12939,-0.027433,0.030586,-0.043156,0,0,0.12844,-0.075425,0,-0.11221,0,0,0,0.14107,-0.039118,0.030586,-14.124,0.04418,0.15743,7.7905e-05,0.46,0.36,0
0.22571,0.091896,0.14337,-0.011139,0.039669,-0.04162,0,0,0.13481,-0.06605,0,-0.10821,0,0,0,0.15446,-0.022231,0.039669,-13.994,0.057299,0.15539,9.3793e-05,0.48,0.36,0
0.22844,0.096626,0.15384,0.0065752,0.048124,-0.037861,0,0,0.13743,-0.054014,0,-0.098439,0,0,0,0.16334,-0.0029281,0.048124,-13.524,0.069513,0.14763,9.9829e-05,0.5,0.36,0
0.2312,0.10187,0.16056,0.017816,0.053514,-0.031781,0,0,0.13916,-0.046407,0,-0.082632,0,0,0,0.16751,0.010873,0.053514,-11.941,0.077298,0.14031,9.866e-05,0.52,0.36,0
0.23401,0.10765,0.16373,0.022929,0.055998,-0.024976,0,0,0.14005,-0.04299,0,-0.064938,0,0,0,0.16815,0.018506,0.055998,-9.713,0.080886,0.1349,9.395e-05,0.54,0.36,0
0.23681,0.11377,0.16487,0.028637,0.058051,-0.018716,0,0,0.13886,-0.038239,0,-0.048662,0,0,0,0.16748,0.026022,0.058051,-7.6185,0.083852,0.12852,8.6414e-05,0.56,0.36,0
0.23956,0.12015,0.16563,0.034449,0.060023,-0.012954,0,0,0.13729,-0.033246,0,-0.033679,0,0,0,0.167,0.033077,0.060023,-5.5359,0.0867,0.12272,7.958e-05,0.58,0.36,0
0.2423,0.12676,0.16729,0.036953,0.061273,-0.0080778,0,0,0.13782,-0.031616,0,-0.021002,0,0,0,0.16789,0.036357,0.061273,-3.5225,0.088505,0.12102,7.8163e-05,0.6,0.36,0
0.24508,0.13355,0.17044,0.035645,0.061827,-0.0047604,0,0,0.1412,-0.034036,0,-0.012377,0,0,0,0.1707,0.03539,0.061827,-2.0361,0.089305,0.12423,8.3727e-05,0.62,0.36,0
0.24795,0.14047,0.17479,0.030904,0.061709,-0.0028843,0,0,0.14701,-0.040046,0,-0.0074991,0,0,0,0.17494,0.030753,0.061709,-1.168,0.089135,0.1315,9.5499e-05,0.64,0.36,0
0.25096,0.14748,0.17989,0.023787,0.061104,-0.0017621,0,0,0.15443,-0.048512,0,-0.0045814,0,0,0,0.18001,0.023668,0.061104,-0.66228,0.088262,0.14142,0.00011189,0.66,0.36,0
0.25412,0.15455,0.18521,0.015822,0.060309,-0.00060778,0,0,0.16237,-0.057833,0,-0.0015802,0,0,0,0.18531,0.015725,0.060309,-0.21565,0.087114,0.15229,0.00013055,0.68,0.36,0
0.25745,0.16169,0.19005,0.0088797,0.059679,0.001091,0,0,0.16948,-0.066039,0,0.0028366,0,0,0,0.19013,0.0087953,0.059679,0.34341,0.086203,0.16202,0.00014821,0.7,0.36,0
0.2609,0.16889,0.19364,0.004972,0.059582,0.0030806,0,0,0.17427,-0.070993,0,0.0080095,0,0,0,0.19373,0.0048758,0.059582,0.94474,0.086063,0.16831,0.00016075,0.72,0.36,0
0.26442,0.17609,0.19595,0.0056146,0.060468,0.003924,0,0,0.17612,-0.071309,0,0.010202,0,0,0,0.19604,0.0055174,0.060468,1.1888,0.087343,0.16986,0.00016591,0.74,0.36,0
0.26795,0.18315,0.19814,0.0084171,0.061968,0.0017474,0,0,0.17703,-0.069616,0,0.0045432,0,0,0,0.19822,0.0083426,0.061968,0.53276,0.089509,0.16955,0.00016857,0.76,0.36,0
0.2715,0.18988,0.20125,0.0056795,0.062079,-0.0029753,0,0,0.18092,-0.073319,0,-0.0077358,0,0,0,0.2014,0.0055343,0.062079,-0.82584,0.089669,0.17463,0.00017995,0.78,0.36,0
0.27519,0.19623,0.20521,-0.0059555,0.059775,-0.0066131,0,0,0.18906,-0.08545,0,-0.017194,0,0,0,0.20549,-0.0062418,0.059775,-1.755,0.086342,0.1877,0.00020332,0.8,0.36,0
0.27906,0.20238,0.20605,-0.016161,0.056968,-0.007354,0,0,0.20282,-0.099361,0,-0.0194,0,0,0,0.20639,-0.0165,0.056968,-1.8261,0.082287,0.19676,0.00022747,0.82,0.36,0
0.28324,0.20831,0.20235,-0.015534,0.056044,-0.0082815,0,0,0.26947,-0.12865,0,-0.025795,0,0,0,0.20292,-0.016103,0.056044,-2.3391,0.080953,0.19335,0.00026949,0.84,0.36,0
0.29017,0.21202,0.20871,-0.017087,0.057488,-0.0066809,0,0,0.54754,-0.24316,0,-0.017294,0,0,0,0.20961,-0.017986,0.057488,-2.3953,0.083038,0.20116,0.00039895,0.86,0.36,0
0.3072,0.20871,0.21637,-0.015713,0.060198,-0.0018205,0,0,1.089,-0.44113,0,-0.013119,0,0,0,0.21712,-0.016462,0.060198,-1.0062,0.086953,0.207,0.00044635,0.88,0.36,0
0.33665,0.19942,0.20288,0.0010746,0.061187,0.00015409,0,0,1.5491,-0.59183,0,-0.01179,0,0,0,0.20326,0.00069779,0.061187,-0.053382,0.088382,0.18058,0.00027248,0.9,0.36,0
0.37041,0.19187,0.18689,0.008785,0.058704,0.0020203,0,0,1.6665,-0.64894,0,0.052527,0,0,0,0.1871,0.0085764,0.058704,0.71241,0.084794,0.1595,0.00014257,0.92,0.36,0
0.40331,0.18829,0.18109,0.003824,0.055473,0.0040717,0,0,1.633,-0.67143,0,0.10586,0,0,0,0.18123,0.0036773,0.055473,1.3511,0.080127,0.15816,0.00013291,0.94,0.36,0
0.43573,0.18651,0.17776,0.00065615,0.053526,0.0034968,0,0,1.6151,-0.6873,0,0.090917,0,0,0,0.17785,0.00056508,0.053526,1.151,0.077315,0.15763,0.00012782,0.96,0.36,0
0.46791,0.18569,0.17609,-0.0011305,0.052488,0.0018416,0,0,1.6068,-0.69704,0,0.047883,0,0,0,0.17613,-0.0011665,0.052488,0.60436,0.075816,0.15748,0.00012537,0.98,0.36,0
0.48397,0.18546,0.17558,-0.0017116,0.05216,0.00081434,0,0,1.6044,-0.70033,0,0.021173,0,0,0,0.17559,-0.0017251,0.05216,0.26702,0.075342,0.15745,0.00012463,1,0.36,0
0.0069347,0.0025003,0.093374,0.040191,0.04007,0.0095975,0,0,0.69296,0.0015807,0,0.24954,0,0,0,0.095053,0.038512,0.04007,9.9251,0.057878,0.055779,8.9049e-06,0,0.38,0
0.013859,0.0047652,0.093274,0.040094,0.040011,0.0093932,0,0,0.69243,0.0010907,0,0.24422,0,0,0,0.094887,0.038482,0.040011,9.7289,0.057793,0.055657,8.8495e-06,0.02,0.38,0
0.027697,0.0088449,0.092908,0.03947,0.039713,0.0088439,0,0,0.69153,-0.0031662,0,0.22994,0,0,0,0.094339,0.038039,0.039713,9.156,0.057364,0.055483,8.7656e-06,0.04,0.38,0
0.04152,0.01206,0.092243,0.038118,0.039108,0.0082338,0,0,0.69075,-0.012871,0,0.21408,0,0,0,0.093473,0.036888,0.039108,8.4554,0.05649,0.055511,8.7603e-06,0.06,0.38,0
0.055327,0.014478,0.091224,0.036172,0.038219,0.0077992,0,0,0.68907,-0.026613,0,0.20278,0,0,0,0.092316,0.03508,0.038219,7.8915,0.055205,0.055739,8.8232e-06,0.08,0.38,0
0.069083,0.016187,0.089631,0.033613,0.036973,0.0076191,0,0,0.68455,-0.043678,0,0.1981,0,0,0,0.090665,0.032579,0.036973,7.5672,0.053406,0.05603,8.8741e-06,0.1,0.38,0
0.082709,0.017323,0.087168,0.030561,0.035319,0.0078319,0,0,0.67404,-0.061853,0,0.20363,0,0,0,0.088279,0.02945,0.035319,7.645,0.051016,0.056142,8.7924e-06,0.12,0.38,0
0.096045,0.018075,0.08335,0.027225,0.033173,0.0084317,0,0,0.65231,-0.077322,0,0.21922,0,0,0,0.08471,0.025865,0.033173,8.212,0.047916,0.055578,8.3479e-06,0.14,0.38,0
0.1088,0.018601,0.078035,0.023763,0.030539,0.0093921,0,0,0.61744,-0.088088,0,0.24419,0,0,0,0.07995,0.021848,0.030539,9.2925,0.044112,0.054322,7.5409e-06,0.16,0.38,0
0.12074,0.019186,0.0719,0.020588,0.027746,0.010284,0,0,0.57399,-0.093057,0,0.26739,0,0,0,0.074476,0.018012,0.027746,10.664,0.040078,0.052316,6.5288e-06,0.18,0.38,0
0.13176,0.020557,0.065583,0.01853,0.025234,0.010265,0,0,0.52454,-0.087151,0,0.2669,0,0,0,0.068376,0.015737,0.025234,11.872,0.036449,0.048605,5.2377e-06,0.2,0.38,0
0.14172,0.023307,0.059774,0.017586,0.023208,0.0091806,0,0,0.47536,-0.073089,0,0.23869,0,0,0,0.062228,0.015132,0.023208,12.257,0.033523,0.04363,3.9083e-06,0.22,0.38,0
0.15078,0.027293,0.055598,0.016448,0.021614,0.0073217,0,0,0.4418,-0.067157,0,0.19036,0,0,0,0.057284,0.014762,0.021614,10.855,0.03122,0.039564,2.9985e-06,0.24,0.38,0
0.1594,0.032126,0.053776,0.014357,0.02044,0.005038,0,0,0.43337,-0.07908,0,0.13099,0,0,0,0.054602,0.013531,0.02044,7.5766,0.029524,0.038127,2.651e-06,0.26,0.38,0
0.16811,0.037551,0.054416,0.01154,0.019787,0.0026492,0,0,0.45018,-0.10721,0,0.06888,0,0,0,0.054742,0.011214,0.019787,3.644,0.028581,0.039987,2.8592e-06,0.28,0.38,0
0.1774,0.043238,0.057432,0.0089969,0.019929,-0.00055256,0,0,0.48754,-0.14211,0,-0.014367,0,0,0,0.057867,0.0085618,0.019929,-0.457,0.028786,0.044753,3.7096e-06,0.3,0.38,0
0.18761,0.047746,0.065127,0.0007987,0.019778,-0.0048106,0,0,0.48012,-0.17344,0,-0.087305,0,0,0,0.066069,-0.00014294,0.019778,-3.8691,0.028568,0.059077,1.073e-05,0.32,0.38,0
0.197,0.051039,0.074608,-0.010522,0.019226,-0.011047,0,0,0.35514,-0.16837,0,-0.095114,0,0,0,0.076993,-0.012907,0.019226,-6.8274,0.027771,0.079175,2.2655e-05,0.34,0.38,0
0.20274,0.055961,0.081877,-0.015565,0.019894,-0.020609,0,0,0.1963,-0.1158,0,-0.083641,0,0,0,0.087118,-0.020806,0.019894,-10.554,0.028735,0.094544,2.9848e-05,0.36,0.38,0
0.20552,0.062889,0.093067,-0.026864,0.019861,-0.031773,0,0,0.12245,-0.080394,0,-0.092364,0,0,0,0.10137,-0.035166,0.019861,-13.061,0.028688,0.11909,3.6831e-05,0.38,0.38,0
0.20776,0.069743,0.108,-0.043656,0.019302,-0.042908,0,0,0.11853,-0.08442,0,-0.11267,0,0,0,0.1195,-0.055159,0.019302,-14.298,0.027881,0.15187,5.0819e-05,0.4,0.38,0
0.21025,0.075714,0.12078,-0.047506,0.021982,-0.05192,0,0,0.12844,-0.090335,0,-0.13499,0,0,0,0.13564,-0.062366,0.021982,-15.7,0.031752,0.17214,7.0382e-05,0.42,0.38,0
0.2129,0.080957,0.13082,-0.039922,0.027269,-0.056286,0,0,0.13461,-0.087348,0,-0.14634,0,0,0,0.14776,-0.056866,0.027269,-16.628,0.039389,0.17817,9.0052e-05,0.44,0.38,0
0.21563,0.085807,0.13891,-0.028413,0.033148,-0.056243,0,0,0.13749,-0.080029,0,-0.14623,0,0,0,0.15611,-0.045611,0.033148,-16.899,0.047881,0.17612,0.00010412,0.46,0.38,0
0.2184,0.090573,0.1461,-0.013829,0.039681,-0.052375,0,0,0.13834,-0.069563,0,-0.13618,0,0,0,0.16178,-0.029507,0.039681,-16.547,0.057317,0.16783,0.00011027,0.48,0.38,0
0.22117,0.095541,0.15244,0.00066514,0.045933,-0.044789,0,0,0.13846,-0.058848,0,-0.11645,0,0,0,0.16481,-0.0117,0.045933,-15.161,0.066347,0.15599,0.00010795,0.5,0.38,0
0.22394,0.10092,0.15726,0.010159,0.050225,-0.035228,0,0,0.13914,-0.052086,0,-0.091593,0,0,0,0.16548,0.0019344,0.050225,-12.68,0.072548,0.1456,0.00010121,0.52,0.38,0
0.22673,0.10675,0.16075,0.015848,0.052978,-0.026404,0,0,0.1401,-0.04827,0,-0.06865,0,0,0,0.16558,0.011016,0.052978,-9.9334,0.076524,0.13848,9.5047e-05,0.54,0.38,0
0.22954,0.11296,0.16341,0.022045,0.055638,-0.019415,0,0,0.14011,-0.04367,0,-0.05048,0,0,0,0.16613,0.019331,0.055638,-7.6182,0.080365,0.13247,8.957e-05,0.56,0.38,0
0.23234,0.11943,0.1654,0.028813,0.058263,-0.014086,0,0,0.13927,-0.038285,0,-0.036624,0,0,0,0.1669,0.027315,0.058263,-5.7845,0.084157,0.127,8.4332e-05,0.58,0.38,0
0.23511,0.12609,0.16732,0.033396,0.060216,-0.01043,0,0,0.13924,-0.034866,0,-0.027117,0,0,0,0.16817,0.032546,0.060216,-4.4105,0.086979,0.12414,8.1991e-05,0.6,0.38,0
0.23791,0.13285,0.17008,0.033977,0.061216,-0.0084632,0,0,0.14152,-0.035412,0,-0.022004,0,0,0,0.17065,0.0334,0.061216,-3.5462,0.088424,0.12568,8.5438e-05,0.62,0.38,0
0.24077,0.13967,0.17405,0.030306,0.061306,-0.007697,0,0,0.14656,-0.040299,0,-0.020012,0,0,0,0.17454,0.029816,0.061306,-3.0648,0.088553,0.13184,9.5624e-05,0.64,0.38,0
0.24377,0.14651,0.17919,0.023377,0.060769,-0.0073157,0,0,0.15394,-0.04861,0,-0.019021,0,0,0,0.17964,0.022928,0.060769,-2.6965,0.087778,0.14166,0.00011187,0.66,0.38,0
0.24693,0.15339,0.18523,0.014871,0.06003,-0.0064857,0,0,0.16276,-0.058707,0,-0.016863,0,0,0,0.1856,0.014498,0.06003,-2.1963,0.08671,0.15351,0.00013248,0.68,0.38,0
0.25028,0.16035,0.19173,0.0069717,0.059612,-0.0045908,0,0,0.17176,-0.068432,0,-0.011936,0,0,0,0.19199,0.0067164,0.059612,-1.436,0.086106,0.16531,0.00015484,0.7,0.38,0
0.2538,0.16743,0.19809,0.00258,0.0602,-0.0016908,0,0,0.17925,-0.074906,0,-0.0043961,0,0,0,0.19824,0.0024307,0.0602,-0.48385,0.086956,0.17426,0.00017505,0.72,0.38,0
0.25745,0.17464,0.20359,0.0051248,0.062615,0.00023538,0,0,0.18327,-0.074737,0,0.00061197,0,0,0,0.20371,0.0050088,0.062615,0.10851,0.090444,0.17708,0.00018733,0.74,0.38,0
0.26113,0.18177,0.2071,0.011246,0.065505,-0.0011532,0,0,0.18408,-0.070537,0,-0.0029984,0,0,0,0.20724,0.011107,0.065505,-0.304,0.094619,0.1754,0.00019057,0.76,0.38,0
0.26481,0.18844,0.20822,0.0090074,0.06517,-0.0048036,0,0,0.18597,-0.073011,0,-0.012489,0,0,0,0.20846,0.0087737,0.06517,-1.3449,0.094134,0.17834,0.00019616,0.78,0.38,0
0.26857,0.19452,0.20259,-0.0067454,0.058755,-0.0075079,0,0,0.19527,-0.09053,0,-0.014595,0,0,0,0.20303,-0.0071831,0.058755,-1.7332,0.084868,0.18633,0.00020518,0.8,0.38,0
0.27258,0.20032,0.19017,-0.020532,0.050892,-0.0067899,0,0,0.24987,-0.12902,0,0.0048089,0,0,0,0.19077,-0.021135,0.050892,-1.119,0.07351,0.1867,0.00022156,0.82,0.38,0
0.27894,0.20502,0.18833,-0.019942,0.050516,-0.0031198,0,0,0.46483,-0.23406,0,0.057088,0,0,0,0.18908,-0.020693,0.050516,-0.35509,0.072967,0.1848,0.0002771,0.84,0.38,0
0.2932,0.20482,0.19798,-0.016981,0.054298,0.0018917,0,0,0.89016,-0.43922,0,0.13361,0,0,0,0.19877,-0.017779,0.054298,0.68419,0.078431,0.19103,0.00035013,0.86,0.38,0
0.31793,0.19719,0.19503,-0.011427,0.055081,0.0055142,0,0,1.3147,-0.60533,0,0.16516,0,0,0,0.19557,-0.011962,0.055081,1.7505,0.079561,0.18351,0.00031649,0.88,0.38,0
0.34818,0.18659,0.17958,0.0010049,0.054174,0.0060304,0,0,1.5083,-0.62473,0,0.15241,0,0,0,0.1799,0.00068559,0.054174,2.0829,0.078252,0.15942,0.00018295,0.9,0.38,0
0.37888,0.17912,0.1703,0.0061296,0.052927,0.0064204,0,0,1.5258,-0.60837,0,0.16693,0,0,0,0.17061,0.0058121,0.052927,2.3059,0.076451,0.14702,0.00011078,0.92,0.38,0
0.40921,0.17525,0.16817,0.0039123,0.051624,0.0065371,0,0,1.5151,-0.62025,0,0.16996,0,0,0,0.16845,0.0036336,0.051624,2.3056,0.074568,0.14682,0.00010722,0.94,0.38,0
0.43948,0.17322,0.16719,0.0020792,0.050781,0.0048971,0,0,1.5133,-0.63312,0,0.12732,0,0,0,0.16736,0.0019145,0.050781,1.715,0.07335,0.14722,0.00010598,0.96,0.38,0
0.46974,0.17223,0.16663,0.00087076,0.050249,0.0024504,0,0,1.5129,-0.64192,0,0.063711,0,0,0,0.16669,0.00080932,0.050249,0.85451,0.072582,0.14751,0.00010532,0.98,0.38,0
0.48487,0.17194,0.16644,0.00045558,0.05007,0.0010612,0,0,1.5129,-0.64498,0,0.02759,0,0,0,0.16647,0.00043326,0.05007,0.36901,0.072323,0.14761,0.00010511,1,0.38,0
0.0071978,0.0025132,0.096867,0.041364,0.041469,0.0097116,0,0,0.72017,-0.0013666,0,0.2525,0,0,0,0.098519,0.039712,0.041469,9.6533,0.0599,0.057949,9.9899e-06,0,0.4,0
0.014403,0.0047531,0.096784,0.041009,0.041338,0.0095803,0,0,0.7208,-0.0042768,0,0.24909,0,0,0,0.098387,0.039406,0.041338,9.491,0.05971,0.058041,1.0036e-05,0.02,0.4,0
0.028832,0.008724,0.096507,0.039999,0.040952,0.0092282,0,0,0.72221,-0.012386,0,0.23993,0,0,0,0.097979,0.038526,0.040952,9.0552,0.059152,0.058282,1.0151e-05,0.04,0.4,0
0.043292,0.011731,0.095983,0.038461,0.040333,0.0089262,0,0,0.72345,-0.024336,0,0.23208,0,0,0,0.097338,0.037106,0.040333,8.624,0.058259,0.058691,1.033e-05,0.06,0.4,0
0.05777,0.013859,0.095122,0.036339,0.039438,0.0088939,0,0,0.72389,-0.040293,0,0.23124,0,0,0,0.09644,0.035021,0.039438,8.4076,0.056967,0.059345,1.0596e-05,0.08,0.4,0
0.072248,0.015195,0.093779,0.033398,0.038153,0.0092683,0,0,0.72314,-0.061818,0,0.24098,0,0,0,0.095176,0.032001,0.038153,8.4983,0.05511,0.060355,1.0979e-05,0.1,0.4,0
0.086695,0.015924,0.091597,0.029587,0.036355,0.010354,0,0,0.71815,-0.087992,0,0.2692,0,0,0,0.093306,0.027878,0.036355,9.1567,0.052513,0.061663,1.1395e-05,0.12,0.4,0
0.10097,0.01633,0.088259,0.025454,0.034114,0.012462,0,0,0.70389,-0.11258,0,0.32402,0,0,0,0.090727,0.022986,0.034114,10.655,0.049276,0.06297,1.1827e-05,0.14,0.4,0
0.11485,0.016682,0.085888,0.022146,0.03241,0.015855,0,0,0.6485,-0.11671,0,0.38877,0,0,0,0.08991,0.018124,0.03241,13.168,0.046815,0.065882,1.6038e-05,0.16,0.4,0
0.12724,0.017383,0.083011,0.02099,0.0312,0.018245,0,0,0.53421,-0.089171,0,0.41473,0,0,0,0.088854,0.015147,0.0312,16.28,0.045067,0.06721,2.2089e-05,0.18,0.4,0
0.13687,0.019169,0.075546,0.021417,0.029089,0.01694,0,0,0.41968,-0.050484,0,0.38086,0,0,0,0.081969,0.014994,0.029089,18.746,0.042017,0.061233,2.2021e-05,0.2,0.4,0
0.14436,0.022392,0.067994,0.021119,0.026734,0.013402,0,0,0.35188,-0.024478,0,0.30812,0,0,0,0.073254,0.01586,0.026734,19.07,0.038616,0.052864,1.9506e-05,0.22,0.4,0
0.15095,0.026544,0.064632,0.019593,0.025268,0.0093751,0,0,0.32322,-0.018639,0,0.21798,0,0,0,0.067806,0.016419,0.025268,16.11,0.036498,0.047671,1.956e-05,0.24,0.4,0
0.15728,0.031109,0.064157,0.017366,0.024457,0.0050572,0,0,0.32303,-0.031734,0,0.12147,0,0,0,0.065444,0.016079,0.024457,9.592,0.035327,0.045884,2.0472e-05,0.26,0.4,0
0.16387,0.035892,0.065841,0.014579,0.024126,0.00052152,0,0,0.3499,-0.060028,0,0.018721,0,0,0,0.066393,0.014028,0.024126,1.2352,0.034849,0.048246,2.0652e-05,0.28,0.4,0
0.17128,0.040759,0.070786,0.012437,0.024967,-0.0046662,0,0,0.41115,-0.097109,0,-0.11055,0,0,0,0.072049,0.011174,0.024967,-5.7858,0.036064,0.055362,1.9927e-05,0.3,0.4,0
0.18061,0.044708,0.07758,0.0065702,0.025245,-0.011684,0,0,0.43792,-0.11528,0,-0.21211,0,0,0,0.08098,0.0031709,0.025245,-10.035,0.036465,0.069847,2.069e-05,0.32,0.4,0
0.18958,0.048428,0.084504,-0.0012695,0.024971,-0.02265,0,0,0.32377,-0.091482,0,-0.19536,0,0,0,0.092093,-0.0088579,0.024971,-13.509,0.036069,0.089576,2.706e-05,0.34,0.4,0
0.19422,0.054388,0.097224,-0.0071268,0.027029,-0.0359,0,0,0.16651,-0.062217,0,-0.13401,0,0,0,0.10948,-0.019385,0.027029,-16.571,0.039042,0.11332,4.2913e-05,0.36,0.4,0
0.19638,0.061578,0.11545,-0.020685,0.028428,-0.046558,0,0,0.11754,-0.066148,0,-0.1237,0,0,0,0.13015,-0.035386,0.028428,-17.031,0.041063,0.14466,6.6001e-05,0.38,0.4,0
0.19889,0.06808,0.13025,-0.036512,0.02812,-0.054269,0,0,0.13276,-0.084022,0,-0.1411,0,0,0,0.14644,-0.052709,0.02812,-16.446,0.040618,0.17351,8.9333e-05,0.4,0.4,0
0.20169,0.073882,0.13938,-0.042046,0.029201,-0.060203,0,0,0.14324,-0.092621,0,-0.15653,0,0,0,0.15757,-0.060237,0.029201,-16.747,0.042179,0.18964,0.00010898,0.42,0.4,0
0.20462,0.079159,0.14518,-0.038813,0.03191,-0.063155,0,0,0.14725,-0.091939,0,-0.1642,0,0,0,0.16478,-0.058414,0.03191,-17.231,0.046092,0.19447,0.00012328,0.44,0.4,0
0.20758,0.084152,0.14911,-0.030459,0.035595,-0.062214,0,0,0.14757,-0.08587,0,-0.16176,0,0,0,0.16856,-0.049913,0.035595,-17.36,0.051415,0.19071,0.00013048,0.46,0.4,0
0.21053,0.089114,0.15245,-0.019571,0.039864,-0.057341,0,0,0.14636,-0.077265,0,-0.14909,0,0,0,0.16985,-0.036967,0.039864,-16.821,0.057581,0.18111,0.00013003,0.48,0.4,0
0.21344,0.094273,0.15578,-0.0086871,0.044128,-0.049169,0,0,0.14515,-0.06866,0,-0.12784,0,0,0,0.16948,-0.022381,0.044128,-15.366,0.063741,0.16879,0.00012336,0.5,0.4,0
0.21633,0.099788,0.15904,0.00020812,0.047773,-0.039211,0,0,0.14464,-0.061834,0,-0.10195,0,0,0,0.16838,-0.0091409,0.047773,-13.037,0.069005,0.15706,0.00011403,0.52,0.4,0
0.21922,0.10572,0.16196,0.0075768,0.050861,-0.029394,0,0,0.14443,-0.05627,0,-0.076426,0,0,0,0.16756,0.0019786,0.050861,-10.325,0.073466,0.1474,0.00010524,0.54,0.4,0
0.22211,0.11203,0.16441,0.015419,0.05395,-0.021172,0,0,0.1436,-0.05009,0,-0.055047,0,0,0,0.16748,0.012348,0.05395,-7.8525,0.077927,0.13913,9.7473e-05,0.56,0.4,0
0.22497,0.11862,0.16647,0.024105,0.057173,-0.015387,0,0,0.14209,-0.042988,0,-0.040006,0,0,0,0.16816,0.022413,0.057173,-6.0512,0.082583,0.1319,9.0605e-05,0.58,0.4,0
0.22779,0.12536,0.16846,0.031145,0.059883,-0.012367,0,0,0.14115,-0.037358,0,-0.032154,0,0,0,0.16959,0.030022,0.059883,-5.0892,0.086497,0.12731,8.6569e-05,0.6,0.4,0
0.23061,0.13213,0.17083,0.033458,0.061287,-0.011599,0,0,0.14241,-0.036178,0,-0.030158,0,0,0,0.17183,0.032456,0.061287,-4.7847,0.088526,0.12743,8.8294e-05,0.62,0.4,0
0.23349,0.13886,0.17399,0.030324,0.061294,-0.011918,0,0,0.1465,-0.040261,0,-0.030987,0,0,0,0.17502,0.029293,0.061294,-4.707,0.088535,0.13267,9.6931e-05,0.64,0.4,0
0.23647,0.14554,0.17817,0.023304,0.060443,-0.012322,0,0,0.15305,-0.048282,0,-0.032037,0,0,0,0.17922,0.022263,0.060443,-4.5318,0.087307,0.1418,0.00011158,0.66,0.4,0
0.23961,0.15221,0.18335,0.014203,0.059266,-0.01221,0,0,0.16131,-0.058582,0,-0.031746,0,0,0,0.18432,0.013234,0.059266,-4.137,0.085607,0.15337,0.0001308,0.68,0.4,0
0.24293,0.15896,0.18961,0.0051941,0.058441,-0.011016,0,0,0.17052,-0.069222,0,-0.028641,0,0,0,0.1904,0.0044042,0.058441,-3.4495,0.084415,0.16574,0.00015326,0.7,0.4,0
0.24643,0.16589,0.19741,0.00036336,0.059331,-0.008756,0,0,0.1795,-0.076658,0,-0.022766,0,0,0,0.19799,-0.00022256,0.059331,-2.5796,0.0857,0.17616,0.00017737,0.72,0.4,0
0.25011,0.17311,0.2025,0.0045287,0.06211,-0.007361,0,0,0.19134,-0.076925,0,-0.02237,0,0,0,0.20306,0.0039731,0.06211,-2.2821,0.089714,0.17735,0.00019648,0.74,0.4,0
0.25403,0.18033,0.20349,0.011955,0.064634,-0.0062249,0,0,0.20674,-0.080523,0,-0.010284,0,0,0,0.20418,0.011265,0.064634,-1.692,0.09336,0.17261,0.00021875,0.76,0.4,0
0.25826,0.18696,0.20367,0.0091352,0.063842,-0.0025936,0,0,0.21607,-0.10005,0,0.040257,0,0,0,0.20485,0.0079566,0.063842,0.47143,0.092216,0.17599,0.00024608,0.78,0.4,0
0.26261,0.19265,0.19232,-0.0085714,0.055125,0.0016988,0,0,0.25214,-0.1385,0,0.098038,0,0,0,0.19407,-0.010321,0.055125,2.501,0.079625,0.1812,0.00024484,0.8,0.4,0
0.26877,0.19705,0.17632,-0.025007,0.045394,0.005837,0,0,0.43331,-0.23499,0,0.16202,0,0,0,0.17804,-0.026727,0.045394,3.4039,0.065569,0.18011,0.00023519,0.82,0.4,0
0.2819,0.19795,0.17448,-0.024919,0.044869,0.010007,0,0,0.81639,-0.42759,0,0.25353,0,0,0,0.17593,-0.026367,0.044869,3.8471,0.064811,0.17777,0.00023579,0.84,0.4,0
0.30468,0.19284,0.17048,-0.018368,0.045632,0.010992,0,0,1.2119,-0.61965,0,0.29098,0,0,0,0.17156,-0.019453,0.045632,3.78,0.065913,0.16821,0.00018887,0.86,0.4,0
0.33272,0.18343,0.1585,-0.0097538,0.044624,0.0090207,0,0,1.3903,-0.66057,0,0.2408,0,0,0,0.1591,-0.010351,0.044624,3.2066,0.064458,0.14977,0.00011549,0.88,0.4,0
0.36091,0.17417,0.15335,0.00068103,0.046208,0.0075774,0,0,1.3928,-0.59186,0,0.19701,0,0,0,0.15373,0.00030215,0.046208,2.8347,0.066746,0.13642,8.336e-05,0.9,0.4,0
0.38843,0.16754,0.15357,0.0051122,0.047603,0.0073477,0,0,1.3775,-0.55238,0,0.19104,0,0,0,0.15393,0.0047471,0.047603,2.8248,0.06876,0.13304,8.0931e-05,0.92,0.4,0
0.41601,0.16348,0.15435,0.0049149,0.04778,0.0067159,0,0,1.3854,-0.55724,0,0.17461,0,0,0,0.15466,0.004606,0.04778,2.567,0.069015,0.1338,8.2165e-05,0.94,0.4,0
0.44384,0.16118,0.15519,0.0039883,0.047753,0.0050009,0,0,1.3966,-0.56893,0,0.13002,0,0,0,0.15537,0.0038063,0.047753,1.8944,0.068976,0.13506,8.37e-05,0.96,0.4,0
0.47187,0.16002,0.15566,0.0032248,0.047664,0.0024731,0,0,1.4039,-0.57772,0,0.064302,0,0,0,0.15572,0.0031564,0.047664,0.93061,0.068849,0.1359,8.459e-05,0.98,0.4,0
0.48592,0.15966,0.1558,0.0029416,0.047623,0.0010261,0,0,1.4063,-0.58086,0,0.026679,0,0,0,0.15583,0.0029164,0.047623,0.38375,0.068789,0.13618,8.4873e-05,1,0.4,0
0.0075285,0.0024456,0.10126,0.042702,0.043189,0.009511,0,0,0.75493,-0.0063262,0,0.24729,0,0,0,0.10277,0.041189,0.043189,9.0185,0.062384,0.060611,1.1431e-05,0,0.42,0
0.015099,0.0045941,0.10125,0.041919,0.042952,0.0094599,0,0,0.75792,-0.013428,0,0.24596,0,0,0,0.10273,0.040439,0.042952,8.8709,0.062041,0.061082,1.1685e-05,0.02,0.42,0
0.030317,0.0083494,0.10123,0.040248,0.042444,0.0093368,0,0,0.76425,-0.028549,0,0.24276,0,0,0,0.10264,0.038843,0.042444,8.5451,0.061309,0.06208,1.2221e-05,0.04,0.42,0
0.045669,0.011086,0.10105,0.038383,0.041831,0.0093852,0,0,0.76989,-0.044818,0,0.24401,0,0,0,0.10243,0.037004,0.041831,8.3603,0.060422,0.063164,1.2784e-05,0.06,0.42,0
0.061112,0.012867,0.10063,0.036149,0.041032,0.009738,0,0,0.77472,-0.063489,0,0.25319,0,0,0,0.10207,0.034708,0.041032,8.4152,0.059269,0.064444,1.3422e-05,0.08,0.42,0
0.076657,0.013714,0.099819,0.032718,0.039761,0.010474,0,0,0.78075,-0.091556,0,0.27234,0,0,0,0.10142,0.031117,0.039761,8.6728,0.057433,0.066436,1.4339e-05,0.1,0.42,0
0.092342,0.013803,0.0987,0.0278,0.03795,0.012235,0,0,0.78975,-0.13195,0,0.31811,0,0,0,0.10078,0.025721,0.03795,9.4865,0.054816,0.069803,1.594e-05,0.12,0.42,0
0.10825,0.013572,0.10081,0.024196,0.037502,0.015579,0,0,0.7736,-0.16004,0,0.39023,0,0,0,0.10398,0.02103,0.037502,11.158,0.054169,0.076095,2.2553e-05,0.14,0.42,0
0.12365,0.013914,0.10581,0.021895,0.038312,0.019168,0,0,0.64865,-0.13972,0,0.41622,0,0,0,0.11045,0.017256,0.038312,13.192,0.055339,0.084694,3.7069e-05,0.16,0.42,0
0.13554,0.015583,0.10735,0.020907,0.038478,0.020028,0,0,0.42686,-0.080892,0,0.36215,0,0,0,0.11343,0.014829,0.038478,15.291,0.055579,0.089244,4.862e-05,0.18,0.42,0
0.14233,0.018519,0.10685,0.02345,0.039089,0.017378,0,0,0.2627,-0.030892,0,0.291,0,0,0,0.11347,0.016825,0.039089,17.011,0.056462,0.087772,5.1373e-05,0.2,0.42,0
0.14667,0.022328,0.1086,0.024926,0.040057,0.013032,0,0,0.21113,-0.011138,0,0.22128,0,0,0,0.11388,0.01964,0.040057,16.738,0.05786,0.085948,5.5324e-05,0.22,0.42,0
0.15078,0.026547,0.11177,0.023349,0.040535,0.0081752,0,0,0.20584,-0.011346,0,0.14402,0,0,0,0.11472,0.020401,0.040535,13.628,0.058551,0.086131,6.3403e-05,0.24,0.42,0
0.15491,0.030856,0.11475,0.020975,0.040718,0.00314,0,0,0.21077,-0.021695,0,0.067294,0,0,0,0.11587,0.01986,0.040718,7.2879,0.058815,0.087633,7.1203e-05,0.26,0.42,0
0.15921,0.03515,0.11671,0.017964,0.040403,-0.0021475,0,0,0.2237,-0.038976,0,-0.016748,0,0,0,0.11738,0.017298,0.040403,-1.3768,0.058361,0.090918,7.626e-05,0.28,0.42,0
0.16386,0.039335,0.11849,0.016623,0.040533,-0.0067442,0,0,0.27818,-0.061746,0,-0.11568,0,0,0,0.12001,0.015104,0.040533,-7.5211,0.058547,0.094868,8.0723e-05,0.3,0.42,0
0.17084,0.042976,0.11917,0.019696,0.041659,-0.015826,0,0,0.36048,-0.06871,0,-0.21632,0,0,0,0.12454,0.01432,0.041659,-11.456,0.060174,0.099783,9.2088e-05,0.32,0.42,0
0.17922,0.047136,0.1225,0.018996,0.04245,-0.033852,0,0,0.3263,-0.052973,0,-0.24097,0,0,0,0.1352,0.0063024,0.04245,-16.674,0.061316,0.11592,0.00010749,0.34,0.42,0
0.18426,0.053386,0.13399,0.0046563,0.041595,-0.049869,0,0,0.19354,-0.051934,0,-0.18091,0,0,0,0.15172,-0.013067,0.041595,-19.149,0.060082,0.14586,0.00011894,0.36,0.42,0
0.18689,0.060261,0.14589,-0.015577,0.039094,-0.057242,0,0,0.13884,-0.071073,0,-0.14883,0,0,0,0.1644,-0.034083,0.039094,-17.949,0.05647,0.17394,0.00012904,0.38,0.42,0
0.18981,0.066382,0.15228,-0.030517,0.03653,-0.061022,0,0,0.15048,-0.08716,0,-0.15866,0,0,0,0.17084,-0.049076,0.03653,-16.909,0.052765,0.19204,0.00013924,0.4,0.42,0
0.19291,0.072009,0.1555,-0.037629,0.03536,-0.064034,0,0,0.15618,-0.094886,0,-0.16649,0,0,0,0.17481,-0.056948,0.03536,-16.782,0.051075,0.2021,0.00014711,0.42,0.42,0
0.19606,0.07728,0.15687,-0.037811,0.035719,-0.065546,0,0,0.1575,-0.095589,0,-0.17042,0,0,0,0.1769,-0.057836,0.035719,-16.986,0.051594,0.20468,0.00015153,0.44,0.42,0
0.19921,0.082372,0.15757,-0.03321,0.037307,-0.064169,0,0,0.15634,-0.091672,0,-0.16684,0,0,0,0.17716,-0.052801,0.037307,-16.971,0.053887,0.2007,0.00015129,0.46,0.42,0
0.20232,0.087483,0.15841,-0.02598,0.039729,-0.059445,0,0,0.15429,-0.085422,0,-0.15456,0,0,0,0.17596,-0.043524,0.039729,-16.392,0.057387,0.19193,0.00014624,0.48,0.42,0
0.20538,0.092795,0.15991,-0.017868,0.042612,-0.05181,0,0,0.15248,-0.078623,0,-0.13471,0,0,0,0.174,-0.031964,0.042612,-15.07,0.061551,0.18065,0.00013769,0.5,0.42,0
0.20841,0.098445,0.16214,-0.0098608,0.045683,-0.042371,0,0,0.15139,-0.072207,0,-0.11016,0,0,0,0.17217,-0.019894,0.045683,-13.034,0.065987,0.16914,0.00012798,0.52,0.42,0
0.21144,0.1045,0.16478,-0.0017415,0.048912,-0.032499,0,0,0.15063,-0.06585,0,-0.084496,0,0,0,0.17108,-0.0080427,0.048912,-10.563,0.070651,0.15857,0.00011882,0.54,0.42,0
0.21444,0.11095,0.16729,0.0077165,0.052501,-0.023573,0,0,0.14922,-0.05822,0,-0.061289,0,0,0,0.17083,0.0041708,0.052501,-8.1317,0.075835,0.14858,0.00010992,0.56,0.42,0
0.2174,0.11771,0.16967,0.019399,0.056721,-0.017153,0,0,0.14683,-0.048519,0,-0.044598,0,0,0,0.17165,0.017417,0.056721,-6.3675,0.08193,0.1389,0.00010096,0.58,0.42,0
0.22031,0.12459,0.17214,0.030084,0.060667,-0.014405,0,0,0.14491,-0.039758,0,-0.037453,0,0,0,0.1736,0.028623,0.060667,-5.713,0.08763,0.13194,9.4848e-05,0.6,0.42,0
0.2232,0.1314,0.17428,0.033779,0.062417,-0.014407,0,0,0.14542,-0.037229,0,-0.037458,0,0,0,0.17576,0.032295,0.062417,-5.7779,0.090157,0.13103,9.5495e-05,0.62,0.42,0
0.22613,0.13806,0.17603,0.029936,0.061791,-0.014851,0,0,0.14852,-0.041411,0,-0.038612,0,0,0,0.17755,0.028422,0.061791,-5.7432,0.089254,0.13558,0.00010244,0.64,0.42,0
0.22914,0.14458,0.17767,0.02272,0.060118,-0.014865,0,0,0.15282,-0.048618,0,-0.038649,0,0,0,0.17911,0.021289,0.060118,-5.4396,0.086838,0.14245,0.00011212,0.66,0.42,0
0.23224,0.15104,0.17915,0.013909,0.057919,-0.014843,0,0,0.1576,-0.057212,0,-0.038592,0,0,0,0.1805,0.012563,0.057919,-5.1035,0.08366,0.1505,0.00012308,0.68,0.42,0
0.23545,0.15758,0.18006,0.0035608,0.055087,-0.014459,0,0,0.16247,-0.066984,0,-0.037593,0,0,0,0.18128,0.0023442,0.055087,-4.6792,0.07957,0.15929,0.00013456,0.7,0.42,0
0.23874,0.16437,0.17786,-0.0032244,0.052391,-0.013177,0,0,0.16803,-0.074547,0,-0.032557,0,0,0,0.17891,-0.0042776,0.052391,-3.8816,0.075676,0.16247,0.00014389,0.72,0.42,0
0.24215,0.17156,0.17087,0.00061363,0.051445,-0.011766,0,0,0.20109,-0.083124,0,-0.022231,0,0,0,0.17205,-0.000569,0.051445,-3.283,0.074309,0.15343,0.00015288,0.74,0.42,0
0.24692,0.17855,0.16674,0.0082262,0.05249,-0.0066722,0,0,0.29134,-0.12214,0,0.045254,0,0,0,0.16843,0.006533,0.05249,-0.87023,0.075819,0.14466,0.00018923,0.76,0.42,0
0.25414,0.18444,0.16808,0.0064361,0.052356,0.0047225,0,0,0.38746,-0.19747,0,0.20808,0,0,0,0.17109,0.0034277,0.052356,4.9082,0.075625,0.14981,0.00024189,0.78,0.42,0
0.2626,0.18883,0.16532,-0.0097342,0.046677,0.015249,0,0,0.48811,-0.28459,0,0.35703,0,0,0,0.16968,-0.014087,0.046677,8.7084,0.067422,0.16285,0.0002505,0.8,0.42,0
0.27467,0.19009,0.15928,-0.02616,0.039937,0.019773,0,0,0.73884,-0.42018,0,0.42341,0,0,0,0.16315,-0.030024,0.039937,8.2864,0.057687,0.16973,0.00021266,0.82,0.42,0
0.29474,0.18641,0.15201,-0.025081,0.038078,0.018541,0,0,1.0869,-0.58814,0,0.42662,0,0,0,0.15442,-0.027496,0.038078,6.6568,0.055001,0.15962,0.00015001,0.84,0.42,0
0.3203,0.17891,0.14275,-0.015783,0.03809,0.013599,0,0,1.2778,-0.65741,0,0.34475,0,0,0,0.14404,-0.017079,0.03809,4.9195,0.055018,0.14185,9.014e-05,0.86,0.42,0
0.34643,0.17047,0.13882,-0.007173,0.039493,0.0089971,0,0,1.2912,-0.60666,0,0.23392,0,0,0,0.1394,-0.0077609,0.039493,3.4744,0.057045,0.13017,6.5876e-05,0.88,0.42,0
0.37195,0.16292,0.13994,0.00096865,0.042272,0.0068121,0,0,1.2696,-0.53694,0,0.17711,0,0,0,0.14028,0.00062993,0.042272,2.7862,0.061059,0.12419,6.2951e-05,0.9,0.42,0
0.39721,0.15702,0.14123,0.0051784,0.043923,0.0061739,0,0,1.265,-0.50368,0,0.16052,0,0,0,0.14152,0.0048939,0.043923,2.5744,0.063444,0.12189,6.2487e-05,0.92,0.42,0
0.42255,0.15296,0.14257,0.0061346,0.04461,0.0055008,0,0,1.2734,-0.50018,0,0.14302,0,0,0,0.1428,0.0059042,0.04461,2.2873,0.064437,0.12223,6.3672e-05,0.94,0.42,0
0.44815,0.15046,0.14389,0.0058909,0.044934,0.0041505,0,0,1.2864,-0.50757,0,0.10791,0,0,0,0.14403,0.0057522,0.044934,1.7101,0.064905,0.12344,6.5438e-05,0.96,0.42,0
0.47401,0.14912,0.1448,0.0054972,0.045089,0.0020262,0,0,1.2962,-0.51469,0,0.052681,0,0,0,0.14485,0.0054431,0.045089,0.82792,0.065128,0.12442,6.6731e-05,0.98,0.42,0
0.48699,0.1487,0.14511,0.0053311,0.045132,0.0007595,0,0,1.2997,-0.51741,0,0.019747,0,0,0,0.14513,0.0053099,0.045132,0.30699,0.06519,0.12477,6.7182e-05,1,0.42,0
0.007901,0.0022601,0.10624,0.044152,0.045118,0.0088205,0,0,0.79461,-0.012561,0,0.22933,0,0,0,0.10749,0.042907,0.045118,7.9612,0.065171,0.063509,1.314e-05,0,0.44,0
0.015892,0.004216,0.10641,0.042833,0.044772,0.0088128,0,0,0.80125,-0.025207,0,0.22913,0,0,0,0.10763,0.041614,0.044772,7.7936,0.064671,0.064501,1.3727e-05,0.02,0.44,0
0.03205,0.007582,0.10695,0.040295,0.044173,0.0088537,0,0,0.81608,-0.050416,0,0.2302,0,0,0,0.10813,0.039117,0.044173,7.4984,0.063805,0.066637,1.5009e-05,0.04,0.44,0
0.048535,0.0099379,0.10749,0.037864,0.043606,0.0092384,0,0,0.83048,-0.074645,0,0.2402,0,0,0,0.10871,0.03664,0.043606,7.4886,0.062987,0.068872,1.6364e-05,0.06,0.44,0
0.06527,0.011319,0.10768,0.035433,0.042935,0.0099905,0,0,0.84173,-0.097522,0,0.25975,0,0,0,0.10905,0.034062,0.042935,7.7807,0.062017,0.070991,1.7617e-05,0.08,0.44,0
0.082204,0.011533,0.10777,0.031647,0.041826,0.011144,0,0,0.85732,-0.13234,0,0.28975,0,0,0,0.10939,0.030035,0.041826,8.1831,0.060416,0.074203,1.9516e-05,0.1,0.44,0
0.099562,0.010646,0.11135,0.026799,0.041443,0.013208,0,0,0.85366,-0.17478,0,0.33754,0,0,0,0.11348,0.024664,0.041443,8.8884,0.059863,0.081776,2.8502e-05,0.12,0.44,0
0.11674,0.0098635,0.11922,0.024539,0.043127,0.015088,0,0,0.7405,-0.17277,0,0.35337,0,0,0,0.12205,0.021711,0.043127,9.4947,0.062295,0.091539,4.6328e-05,0.14,0.44,0
0.13065,0.010933,0.12113,0.021435,0.042769,0.013848,0,0,0.49648,-0.11719,0,0.27316,0,0,0,0.12411,0.018456,0.042769,9.0367,0.061777,0.095869,5.7468e-05,0.16,0.44,0
0.13863,0.014019,0.12201,0.018806,0.042245,0.010408,0,0,0.26283,-0.062038,0,0.1583,0,0,0,0.1248,0.016021,0.042245,7.9682,0.061021,0.098392,5.7856e-05,0.18,0.44,0
0.14239,0.017902,0.13518,0.023552,0.04762,0.0079718,0,0,0.15686,-0.03425,0,0.095749,0,0,0,0.13788,0.020855,0.04762,7.105,0.068785,0.10627,6.3218e-05,0.2,0.44,0
0.14518,0.021947,0.15077,0.02788,0.053594,0.0055871,0,0,0.14477,-0.028292,0,0.065916,0,0,0,0.15287,0.02578,0.053594,6.0129,0.077413,0.11574,7.7987e-05,0.22,0.44,0
0.14818,0.026091,0.16114,0.027251,0.056516,0.0020651,0,0,0.15486,-0.032623,0,0.037236,0,0,0,0.16229,0.026097,0.056516,4.205,0.081634,0.12385,9.6027e-05,0.24,0.44,0
0.15137,0.030241,0.16938,0.025468,0.058454,-0.0020116,0,0,0.16351,-0.03928,0,0.0086868,0,0,0,0.16995,0.024899,0.058454,1.2633,0.084433,0.13158,0.00011434,0.26,0.44,0
0.15472,0.034333,0.17658,0.023629,0.060062,-0.0067861,0,0,0.17071,-0.046877,0,-0.024105,0,0,0,0.17729,0.02292,0.060062,-2.7322,0.086756,0.1396,0.00013398,0.28,0.44,0
0.1582,0.038245,0.1785,0.024231,0.060818,-0.010429,0,0,0.20579,-0.054862,0,-0.058341,0,0,0,0.17984,0.022885,0.060818,-5.3391,0.087848,0.14189,0.00015559,0.3,0.44,0
0.16309,0.041859,0.17565,0.035063,0.063213,-0.01957,0,0,0.2735,-0.049987,0,-0.12888,0,0,0,0.18092,0.029793,0.063213,-9.0514,0.091307,0.13768,0.00018794,0.32,0.44,0
0.16927,0.046241,0.18013,0.040337,0.066141,-0.038102,0,0,0.27753,-0.04119,0,-0.19593,0,0,0,0.19232,0.02815,0.066141,-14.986,0.095537,0.14935,0.00022119,0.34,0.44,0
0.17404,0.052298,0.18627,0.018225,0.061349,-0.051543,0,0,0.20771,-0.05696,0,-0.17518,0,0,0,0.20178,0.0027132,0.061349,-16.549,0.088615,0.17768,0.00022248,0.36,0.44,0
0.17743,0.058735,0.1817,-0.0094294,0.051681,-0.056575,0,0,0.16903,-0.079444,0,-0.14709,0,0,0,0.19768,-0.025406,0.051681,-15.463,0.074651,0.19636,0.00020119,0.38,0.44,0
0.1808,0.064593,0.17333,-0.025161,0.044452,-0.060154,0,0,0.16755,-0.090497,0,-0.1564,0,0,0,0.19031,-0.042134,0.044452,-15.633,0.064209,0.20352,0.00018432,0.4,0.44,0
0.18414,0.070086,0.16801,-0.033863,0.040245,-0.06301,0,0,0.1661,-0.096341,0,-0.16383,0,0,0,0.18612,-0.051972,0.040245,-15.987,0.058131,0.20795,0.00017482,0.42,0.44,0
0.18744,0.075336,0.16473,-0.036834,0.03837,-0.064553,0,0,0.16427,-0.097765,0,-0.16784,0,0,0,0.18366,-0.055761,0.03837,-16.321,0.055423,0.20892,0.00016866,0.44,0.44,0
0.19071,0.080485,0.16265,-0.035692,0.038087,-0.063621,0,0,0.16193,-0.095913,0,-0.16541,0,0,0,0.18132,-0.054364,0.038087,-16.341,0.055015,0.20569,0.00016218,0.46,0.44,0
0.19392,0.085697,0.16165,-0.031818,0.038949,-0.059723,0,0,0.15951,-0.091998,0,-0.15528,0,0,0,0.17864,-0.048804,0.038949,-15.833,0.05626,0.19868,0.00015416,0.48,0.44,0
0.19709,0.091128,0.16186,-0.02617,0.040707,-0.053169,0,0,0.1575,-0.086939,0,-0.13824,0,0,0,0.17592,-0.040236,0.040707,-14.709,0.058798,0.18918,0.00014511,0.5,0.44,0
0.20022,0.096899,0.16345,-0.01916,0.043287,-0.044867,0,0,0.15621,-0.081181,0,-0.11665,0,0,0,0.174,-0.029707,0.043287,-13.023,0.062525,0.17879,0.00013657,0.52,0.44,0
0.20334,0.10308,0.1665,-0.010664,0.046752,-0.035909,0,0,0.15568,-0.07464,0,-0.093362,0,0,0,0.17366,-0.017819,0.046752,-10.949,0.06753,0.16877,0.0001299,0.54,0.44,0
0.20645,0.1097,0.17058,3.91e-06,0.051176,-0.027396,0,0,0.15523,-0.066524,0,-0.071228,0,0,0,0.17503,-0.0044396,0.051176,-8.7965,0.073921,0.15919,0.00012453,0.56,0.44,0
0.20955,0.11668,0.1755,0.015043,0.057162,-0.02128,0,0,0.15383,-0.054754,0,-0.055329,0,0,0,0.17839,0.012152,0.057162,-7.3241,0.082567,0.14904,0.00011858,0.58,0.44,0
0.2126,0.12377,0.1803,0.029298,0.062878,-0.018696,0,0,0.15264,-0.043655,0,-0.04861,0,0,0,0.18269,0.026903,0.062878,-6.8773,0.090824,0.14135,0.00011445,0.6,0.44,0
0.21565,0.13064,0.1834,0.032391,0.064739,-0.017485,0,0,0.15427,-0.042052,0,-0.04546,0,0,0,0.18548,0.030311,0.064739,-6.5159,0.093511,0.14117,0.00011746,0.62,0.44,0
0.21877,0.1372,0.18431,0.026862,0.06335,-0.015257,0,0,0.15724,-0.047435,0,-0.039668,0,0,0,0.18588,0.025291,0.06335,-5.5629,0.091506,0.14537,0.0001234,0.64,0.44,0
0.22194,0.14359,0.18155,0.020079,0.060489,-0.012397,0,0,0.15738,-0.052533,0,-0.032233,0,0,0,0.18269,0.018936,0.060489,-4.4329,0.087373,0.14746,0.00012237,0.66,0.44,0
0.22507,0.14992,0.17455,0.012468,0.056105,-0.010315,0,0,0.15398,-0.056728,0,-0.026819,0,0,0,0.17553,0.011487,0.056105,-3.5822,0.08104,0.14693,0.00011436,0.68,0.44,0
0.2281,0.15628,0.16094,0.0009394,0.048563,-0.0091865,0,0,0.15114,-0.065198,0,-0.018636,0,0,0,0.16196,-7.9749e-05,0.048563,-2.6253,0.070147,0.14409,0.00010274,0.7,0.44,0
0.23109,0.16292,0.14154,-0.0083534,0.039957,-0.0071339,0,0,0.17279,-0.082894,0,0.0092449,0,0,0,0.14269,-0.0095032,0.039957,-0.90464,0.057716,0.13454,9.1431e-05,0.72,0.44,0
0.23527,0.16965,0.12876,-0.0056842,0.036922,-0.0033958,0,0,0.28458,-0.12977,0,0.08208,0,0,0,0.13044,-0.0073665,0.036922,0.99532,0.053332,0.12192,8.8826e-05,0.74,0.44,0
0.2436,0.17517,0.1247,5.6244e-05,0.037427,0.0033609,0,0,0.50001,-0.22865,0,0.22434,0,0,0,0.12733,-0.0025707,0.037427,3.9499,0.054061,0.11534,0.00010018,0.76,0.44,0
0.25665,0.17892,0.1209,-0.0025715,0.035499,0.013676,0,0,0.69551,-0.35241,0,0.409,0,0,0,0.12475,-0.0064228,0.035499,8.5235,0.051277,0.11634,0.00011571,0.78,0.44,0
0.27195,0.18087,0.12057,-0.014164,0.031923,0.021487,0,0,0.81654,-0.46565,0,0.53739,0,0,0,0.12543,-0.019018,0.031923,10.818,0.046111,0.12727,0.00011932,0.8,0.44,0
0.28984,0.17918,0.1228,-0.023885,0.029676,0.022031,0,0,0.9601,-0.56232,0,0.53288,0,0,0,0.12697,-0.028049,0.029676,9.3411,0.042865,0.13587,9.9294e-05,0.82,0.44,0
0.31141,0.17348,0.12207,-0.020652,0.030427,0.01688,0,0,1.1078,-0.61022,0,0.42017,0,0,0,0.12436,-0.022942,0.030427,6.6969,0.04395,0.12922,6.5216e-05,0.84,0.44,0
0.33467,0.16627,0.12314,-0.011734,0.033422,0.010985,0,0,1.1664,-0.58704,0,0.28561,0,0,0,0.12413,-0.012723,0.033422,4.5236,0.048277,0.12062,4.8695e-05,0.86,0.44,0
0.35806,0.15916,0.12663,-0.0043465,0.036684,0.0072916,0,0,1.1692,-0.53339,0,0.18958,0,0,0,0.12707,-0.0047871,0.036684,3.1234,0.052988,0.1168,4.8849e-05,0.88,0.44,0
0.38144,0.1527,0.12912,0.0016618,0.039236,0.0053578,0,0,1.1685,-0.48846,0,0.1393,0,0,0,0.12936,0.0014239,0.039236,2.37,0.056674,0.11385,4.8965e-05,0.9,0.44,0
0.4048,0.14739,0.13101,0.0053762,0.040916,0.004501,0,0,1.1712,-0.46202,0,0.11703,0,0,0,0.13118,0.0052056,0.040916,2.0231,0.059101,0.11246,4.9369e-05,0.92,0.44,0
0.42829,0.14347,0.13266,0.0069877,0.041895,0.003875,0,0,1.18,-0.45379,0,0.10075,0,0,0,0.13279,0.0068584,0.041895,1.741,0.060515,0.11258,5.0469e-05,0.94,0.44,0
0.452,0.14088,0.13405,0.0073723,0.042427,0.002931,0,0,1.1911,-0.45572,0,0.076207,0,0,0,0.13413,0.0072941,0.042427,1.308,0.061284,0.11343,5.184e-05,0.96,0.44,0
0.47594,0.13943,0.135,0.0073365,0.042702,0.0013679,0,0,1.1999,-0.45975,0,0.035566,0,0,0,0.13503,0.0073043,0.042702,0.60514,0.06168,0.11422,5.2915e-05,0.98,0.44,0
0.48795,0.13896,0.13534,0.0072863,0.042787,0.0003899,0,0,1.2032,-0.46151,0,0.010137,0,0,0,0.13535,0.0072721,0.042787,0.16863,0.061804,0.11453,5.3314e-05,1,0.44,0
0.0082699,0.0019432,0.11122,0.045645,0.04706,0.0075514,0,0,0.8341,-0.018394,0,0.19634,0,0,0,0.11211,0.044759,0.04706,6.5184,0.067975,0.066238,1.489e-05,0,0.46,0
0.016682,0.0035858,0.11165,0.043821,0.04664,0.0074836,0,0,0.84507,-0.036648,0,0.19458,0,0,0,0.1125,0.04297,0.04664,6.2781,0.067368,0.067785,1.5888e-05,0.02,0.46,0
0.033803,0.0063328,0.11308,0.040416,0.04605,0.0074173,0,0,0.87143,-0.07324,0,0.19285,0,0,0,0.11388,0.039619,0.04605,5.8483,0.066516,0.071281,1.8215e-05,0.04,0.46,0
0.051539,0.0081006,0.11519,0.037345,0.045762,0.0078061,0,0,0.90262,-0.10941,0,0.20296,0,0,0,0.11603,0.036506,0.045762,5.7692,0.066101,0.075347,2.1107e-05,0.06,0.46,0
0.069908,0.0089657,0.1176,0.034771,0.045711,0.0085625,0,0,0.93454,-0.14222,0,0.22262,0,0,0,0.11857,0.033795,0.045711,6.0102,0.066027,0.07951,2.4444e-05,0.08,0.46,0
0.088921,0.0084209,0.12429,0.0309,0.046558,0.010419,0,0,0.93591,-0.17446,0,0.25743,0,0,0,0.1256,0.029594,0.046558,6.6019,0.067251,0.088832,4.4598e-05,0.1,0.46,0
0.10775,0.0067347,0.13497,0.026747,0.048515,0.011888,0,0,0.8156,-0.182,0,0.27729,0,0,0,0.13673,0.024989,0.048515,6.7389,0.070077,0.10211,7.8028e-05,0.12,0.46,0
0.12307,0.0063798,0.13675,0.025201,0.048584,0.0089241,0,0,0.54966,-0.13273,0,0.20735,0,0,0,0.13844,0.023507,0.048584,5.0932,0.070177,0.1047,8.4212e-05,0.14,0.46,0
0.13188,0.0088878,0.13105,0.022165,0.045964,0.0030498,0,0,0.2866,-0.071397,0,0.090988,0,0,0,0.13212,0.021094,0.045964,2.6491,0.066392,0.10094,6.7442e-05,0.16,0.46,0
0.13582,0.012958,0.13657,0.020911,0.047245,-0.0013947,0,0,0.15816,-0.044363,0,0.019658,0,0,0,0.13716,0.020324,0.047245,0.54075,0.068242,0.10601,6.0833e-05,0.18,0.46,0
0.13844,0.017141,0.15238,0.026423,0.05364,-0.0034173,0,0,0.1333,-0.037054,0,-0.0050538,0,0,0,0.15288,0.025918,0.05364,-1.0522,0.07748,0.11565,6.7793e-05,0.2,0.46,0
0.14112,0.021196,0.16533,0.030869,0.058861,-0.0047845,0,0,0.13841,-0.036389,0,-0.01244,0,0,0,0.1659,0.030306,0.058861,-2.0163,0.085021,0.12381,8.086e-05,0.22,0.46,0
0.14397,0.025242,0.17512,0.030998,0.061836,-0.0069336,0,0,0.14727,-0.040089,0,-0.018027,0,0,0,0.1758,0.030324,0.061836,-2.7881,0.089319,0.13256,9.7949e-05,0.24,0.46,0
0.14701,0.029285,0.18508,0.030093,0.064551,-0.010165,0,0,0.15668,-0.044796,0,-0.026429,0,0,0,0.18608,0.029093,0.064551,-3.7751,0.09324,0.14261,0.00011939,0.26,0.46,0
0.15024,0.033275,0.1958,0.029477,0.067584,-0.01502,0,0,0.16668,-0.049538,0,-0.039052,0,0,0,0.19756,0.02772,0.067584,-5.1382,0.097621,0.15384,0.00014723,0.28,0.46,0
0.15368,0.037109,0.20144,0.031799,0.069972,-0.019958,0,0,0.18149,-0.051292,0,-0.052198,0,0,0,0.20434,0.028905,0.069972,-6.6383,0.10107,0.15895,0.0001724,0.3,0.46,0
0.15742,0.040888,0.20103,0.043984,0.073504,-0.026606,0,0,0.19752,-0.041725,0,-0.083675,0,0,0,0.20659,0.038426,0.073504,-9.5638,0.10617,0.15376,0.0001891,0.32,0.46,0
0.16135,0.045407,0.20361,0.04842,0.075609,-0.035398,0,0,0.19813,-0.037042,0,-0.12011,0,0,0,0.21224,0.039792,0.075609,-12.584,0.10921,0.15788,0.00020662,0.34,0.46,0
0.16512,0.051083,0.20307,0.024409,0.068243,-0.041169,0,0,0.18585,-0.056999,0,-0.12093,0,0,0,0.21255,0.014926,0.068243,-12.555,0.098573,0.17748,0.00021492,0.36,0.46,0
0.16871,0.057083,0.19289,-0.0041227,0.056631,-0.046304,0,0,0.17714,-0.07898,0,-0.12039,0,0,0,0.20351,-0.014741,0.056631,-12.437,0.0818,0.19286,0.00020556,0.38,0.46,0
0.17221,0.062762,0.18102,-0.02012,0.04827,-0.052908,0,0,0.17257,-0.088906,0,-0.13756,0,0,0,0.19425,-0.033355,0.04827,-13.8,0.069723,0.19977,0.00019055,0.4,0.46,0
0.17561,0.068155,0.17239,-0.029936,0.042737,-0.05811,0,0,0.16855,-0.094475,0,-0.15108,0,0,0,0.18797,-0.045511,0.042737,-14.903,0.061731,0.20422,0.00017804,0.42,0.46,0
0.17895,0.073369,0.16665,-0.035333,0.039395,-0.061139,0,0,0.16543,-0.097147,0,-0.15896,0,0,0,0.18374,-0.052424,0.039395,-15.583,0.056904,0.20621,0.00016838,0.44,0.46,0
0.18223,0.078535,0.16288,-0.037376,0.037651,-0.061427,0,0,0.1628,-0.097535,0,-0.15971,0,0,0,0.18023,-0.054729,0.037651,-15.759,0.054384,0.20502,0.00015949,0.46,0.46,0
0.18546,0.083803,0.16058,-0.036699,0.037164,-0.058712,0,0,0.16044,-0.096022,0,-0.15265,0,0,0,0.17675,-0.052873,0.037164,-15.369,0.053681,0.2004,0.00015028,0.48,0.46,0
0.18865,0.089317,0.15958,-0.033454,0.037838,-0.053369,0,0,0.15827,-0.09268,0,-0.13876,0,0,0,0.1734,-0.047275,0.037838,-14.442,0.054655,0.19278,0.000141,0.5,0.46,0
0.19179,0.095197,0.16004,-0.027428,0.039783,-0.046421,0,0,0.15633,-0.087374,0,-0.12069,0,0,0,0.17097,-0.038364,0.039783,-13.131,0.057464,0.18325,0.00013297,0.52,0.46,0
0.1949,0.10151,0.16263,-0.018303,0.043298,-0.039219,0,0,0.15513,-0.080081,0,-0.10197,0,0,0,0.17087,-0.02654,0.043298,-11.675,0.062541,0.17342,0.00012822,0.54,0.46,0
0.198,0.10829,0.16839,-0.0057491,0.048792,-0.032891,0,0,0.15548,-0.070903,0,-0.085516,0,0,0,0.17458,-0.011938,0.048792,-10.31,0.070477,0.16484,0.00012844,0.56,0.46,0
0.20112,0.11552,0.17455,0.012697,0.056174,-0.028744,0,0,0.1613,-0.05699,0,-0.083099,0,0,0,0.17989,0.0073584,0.056174,-10.048,0.08114,0.15419,0.00013198,0.58,0.46,0
0.2044,0.12284,0.17849,0.028455,0.062083,-0.025169,0,0,0.173,-0.046079,0,-0.085255,0,0,0,0.18317,0.023773,0.062083,-9.9287,0.089676,0.14421,0.0001414,0.6,0.46,0
0.20795,0.12972,0.18129,0.028636,0.062978,-0.018872,0,0,0.18091,-0.050308,0,-0.060592,0,0,0,0.18413,0.025802,0.062978,-7.1469,0.090969,0.14343,0.00015336,0.62,0.46,0
0.21159,0.13616,0.17988,0.021248,0.060337,-0.011106,0,0,0.17972,-0.059578,0,-0.017177,0,0,0,0.1812,0.019928,0.060337,-2.7751,0.087154,0.14537,0.00015093,0.64,0.46,0
0.21514,0.14248,0.17152,0.015309,0.056049,-0.0041014,0,0,0.17229,-0.064023,0,0.024764,0,0,0,0.17274,0.014087,0.056049,0.80021,0.08096,0.14244,0.00013245,0.66,0.46,0
0.21849,0.14877,0.15828,0.0095126,0.050339,0.0014829,0,0,0.16147,-0.067916,0,0.06427,0,0,0,0.16018,0.0076163,0.050339,3.1961,0.072712,0.13645,0.00010887,0.68,0.46,0
0.2216,0.15499,0.13825,-0.0010909,0.041149,0.0051924,0,0,0.1731,-0.083678,0,0.10135,0,0,0,0.14073,-0.0035681,0.041149,4.8621,0.059437,0.12819,8.5822e-05,0.7,0.46,0
0.2257,0.16094,0.11892,-0.010727,0.032459,0.0085282,0,0,0.27908,-0.13566,0,0.16762,0,0,0,0.12149,-0.01329,0.032459,6.3387,0.046885,0.11887,7.0109e-05,0.72,0.46,0
0.23402,0.16582,0.11165,-0.0088006,0.030856,0.012337,0,0,0.50897,-0.2403,0,0.29518,0,0,0,0.11455,-0.011701,0.030856,7.6211,0.04457,0.11131,5.996e-05,0.74,0.46,0
0.24801,0.1687,0.10633,-0.0062916,0.030012,0.015809,0,0,0.75258,-0.3652,0,0.42936,0,0,0,0.10979,-0.0097501,0.030012,8.8531,0.04335,0.10546,4.4307e-05,0.76,0.46,0
0.2654,0.17006,0.09935,-0.011214,0.026441,0.018617,0,0,0.89859,-0.46882,0,0.49984,0,0,0,0.10293,-0.014791,0.026441,9.6408,0.038192,0.10349,3.0336e-05,0.78,0.46,0
0.28425,0.16999,0.098931,-0.017832,0.02433,0.018906,0,0,0.96982,-0.5481,0,0.49154,0,0,0,0.10214,-0.021038,0.02433,8.9719,0.035143,0.10792,2.8107e-05,0.8,0.46,0
0.30419,0.16718,0.10322,-0.019501,0.025117,0.015527,0,0,1.0154,-0.58004,0,0.4037,0,0,0,0.10551,-0.02179,0.025117,6.9912,0.03628,0.11154,3.0926e-05,0.82,0.46,0
0.32487,0.16178,0.10879,-0.014429,0.028307,0.010725,0,0,1.0462,-0.55557,0,0.27886,0,0,0,0.10995,-0.015591,0.028307,4.8119,0.040888,0.11038,3.3862e-05,0.84,0.46,0
0.34604,0.15543,0.11403,-0.0077502,0.031884,0.006989,0,0,1.0679,-0.51524,0,0.18171,0,0,0,0.11451,-0.0082334,0.031884,3.1981,0.046054,0.10843,3.6621e-05,0.86,0.46,0
0.36758,0.14914,0.11791,-0.0021148,0.034737,0.0046944,0,0,1.0812,-0.47908,0,0.12206,0,0,0,0.11813,-0.0023386,0.034737,2.1825,0.050176,0.10688,3.8394e-05,0.88,0.46,0
0.38929,0.14338,0.12067,0.0025031,0.036952,0.0033513,0,0,1.0883,-0.44783,0,0.087134,0,0,0,0.12078,0.0023891,0.036952,1.5878,0.053375,0.10546,3.9346e-05,0.9,0.46,0
0.41112,0.13854,0.12275,0.0056803,0.038529,0.0026857,0,0,1.0949,-0.42703,0,0.069828,0,0,0,0.12282,0.005606,0.038529,1.2861,0.055653,0.10472,4.0142e-05,0.92,0.46,0
0.43309,0.13481,0.1244,0.0074121,0.039544,0.0022803,0,0,1.1032,-0.41772,0,0.059287,0,0,0,0.12446,0.0073586,0.039544,1.0945,0.057119,0.10478,4.1077e-05,0.94,0.46,0
0.45525,0.13223,0.12573,0.0082154,0.040185,0.001769,0,0,1.1121,-0.4156,0,0.045995,0,0,0,0.12577,0.0081825,0.040185,0.84759,0.058045,0.1053,4.2076e-05,0.96,0.46,0
0.47757,0.13073,0.12662,0.0085509,0.040552,0.00073373,0,0,1.1189,-0.41602,0,0.019077,0,0,0,0.12664,0.0085358,0.040552,0.34813,0.058575,0.10579,4.2833e-05,0.98,0.46,0
0.48877,0.13024,0.12693,0.0086368,0.04067,2.6126e-05,0,0,1.1214,-0.41643,0,0.00067924,0,0,0,0.12694,0.0086284,0.04067,0.0071815,0.058746,0.10599,4.3109e-05,1,0.46,0
0.0085828,0.0015244,0.11548,0.047117,0.048779,0.0058118,0,0,0.86712,-0.021615,0,0.15111,0,0,0,0.116,0.046594,0.048779,4.8514,0.070459,0.068358,1.6355e-05,0,0.48,0
0.017342,0.0027501,0.11611,0.04497,0.048325,0.0055507,0,0,0.88124,-0.043609,0,0.14432,0,0,0,0.11659,0.044494,0.048325,4.4878,0.069802,0.070283,1.7682e-05,0.02,0.48,0
0.035249,0.0046524,0.11831,0.040935,0.047773,0.0049798,0,0,0.91696,-0.088895,0,0.12947,0,0,0,0.1187,0.040545,0.047773,3.7419,0.069005,0.074824,2.0941e-05,0.04,0.48,0
0.054021,0.0055613,0.12206,0.03734,0.04782,0.0046587,0,0,0.96512,-0.13624,0,0.12113,0,0,0,0.12243,0.036971,0.04782,3.2248,0.069073,0.080603,2.5476e-05,0.06,0.48,0
0.073854,0.0056306,0.12719,0.034636,0.048547,0.0045881,0,0,1.0223,-0.18084,0,0.11929,0,0,0,0.12759,0.034229,0.048547,2.9658,0.070124,0.087105,3.1365e-05,0.08,0.48,0
0.094909,0.0044914,0.13895,0.028965,0.050376,0.0065602,0,0,0.97248,-0.19624,0,0.13353,0,0,0,0.13966,0.028261,0.050376,3.4608,0.072765,0.10242,6.8345e-05,0.1,0.48,0
0.11355,0.0030944,0.14862,0.0231,0.051515,0.0070766,0,0,0.68707,-0.15145,0,0.12701,0,0,0,0.14968,0.022039,0.051515,2.9968,0.074411,0.11616,0.00011275,0.12,0.48,0
0.12427,0.0041403,0.14414,0.024858,0.0507,0.0013479,0,0,0.34235,-0.079779,0,0.056337,0,0,0,0.14493,0.024067,0.0507,0.19823,0.073234,0.11021,9.6943e-05,0.14,0.48,0
0.12857,0.0078168,0.14334,0.027297,0.05119,-0.0041788,0,0,0.16882,-0.041802,0,-0.0021588,0,0,0,0.14371,0.026927,0.05119,-1.8764,0.073941,0.10676,6.7106e-05,0.16,0.48,0
0.13124,0.012195,0.15262,0.027666,0.054087,-0.0072029,0,0,0.1336,-0.03564,0,-0.017726,0,0,0,0.15313,0.027164,0.054087,-3.0902,0.078126,0.11491,6.7079e-05,0.18,0.48,0
0.13388,0.016425,0.15987,0.030392,0.057078,-0.010389,0,0,0.13363,-0.034692,0,-0.027013,0,0,0,0.16083,0.029432,0.057078,-4.553,0.082447,0.12,7.3186e-05,0.2,0.48,0
0.13658,0.020491,0.16508,0.033065,0.059445,-0.012865,0,0,0.13733,-0.034294,0,-0.033449,0,0,0,0.16649,0.031655,0.059445,-5.5091,0.085865,0.12332,8.0231e-05,0.22,0.48,0
0.13937,0.024487,0.1712,0.033903,0.061531,-0.015095,0,0,0.14257,-0.035916,0,-0.039246,0,0,0,0.17306,0.03205,0.061531,-6.2173,0.088879,0.12882,9.1093e-05,0.24,0.48,0
0.14228,0.028449,0.17823,0.033901,0.063638,-0.01832,0,0,0.14896,-0.038658,0,-0.047631,0,0,0,0.18079,0.031339,0.063638,-7.1713,0.091922,0.13621,0.00010638,0.26,0.48,0
0.14533,0.032361,0.18492,0.034101,0.065706,-0.023175,0,0,0.15498,-0.041087,0,-0.060255,0,0,0,0.18875,0.030273,0.065706,-8.6522,0.094909,0.14408,0.00012462,0.28,0.48,0
0.14847,0.036208,0.18856,0.038001,0.067967,-0.028192,0,0,0.15677,-0.038956,0,-0.073299,0,0,0,0.19405,0.032505,0.067967,-10.517,0.098174,0.14711,0.00013467,0.3,0.48,0
0.15159,0.040179,0.18932,0.048173,0.071248,-0.030836,0,0,0.15349,-0.029997,0,-0.080174,0,0,0,0.19606,0.041432,0.071248,-12.025,0.10291,0.14218,0.00012903,0.32,0.48,0
0.15462,0.04473,0.18866,0.048292,0.071087,-0.030647,0,0,0.15285,-0.029633,0,-0.079681,0,0,0,0.19525,0.041702,0.071087,-11.9,0.10268,0.14134,0.00012687,0.34,0.48,0
0.15771,0.050006,0.18524,0.026787,0.063607,-0.031198,0,0,0.15812,-0.047866,0,-0.081114,0,0,0,0.19125,0.020769,0.063607,-10.789,0.091877,0.15392,0.00014069,0.36,0.48,0
0.16094,0.055576,0.17994,0.0020574,0.054599,-0.036534,0,0,0.16294,-0.068304,0,-0.094988,0,0,0,0.18724,-0.0052415,0.054599,-11.064,0.078865,0.17075,0.00015521,0.38,0.48,0
0.16422,0.061037,0.17383,-0.013984,0.047955,-0.044726,0,0,0.16364,-0.08052,0,-0.11629,0,0,0,0.18405,-0.0242,0.047955,-12.646,0.069268,0.18322,0.00015941,0.4,0.48,0
0.16749,0.066307,0.16731,-0.025006,0.04269,-0.051869,0,0,0.162,-0.088005,0,-0.13486,0,0,0,0.18047,-0.038167,0.04269,-14.125,0.061663,0.1915,0.00015648,0.42,0.48,0
0.17071,0.07145,0.16173,-0.032857,0.038661,-0.056693,0,0,0.15999,-0.092974,0,-0.1474,0,0,0,0.17706,-0.048192,0.038661,-15.097,0.055844,0.19678,0.00015068,0.44,0.48,0
0.17389,0.076584,0.15747,-0.03819,0.035783,-0.058472,0,0,0.15819,-0.096165,0,-0.15203,0,0,0,0.17362,-0.054338,0.035783,-15.429,0.051687,0.19885,0.00014309,0.46,0.48,0
0.17703,0.081856,0.15445,-0.040774,0.034102,-0.056904,0,0,0.15645,-0.097339,0,-0.14795,0,0,0,0.16984,-0.056165,0.034102,-15.113,0.049258,0.19704,0.00013413,0.48,0.48,0
0.18014,0.08742,0.15214,-0.040041,0.033631,-0.052353,0,0,0.15407,-0.095774,0,-0.13612,0,0,0,0.16552,-0.05342,0.033631,-14.263,0.048578,0.19094,0.00012415,0.5,0.48,0
0.1832,0.093404,0.1504,-0.035072,0.0346,-0.046071,0,0,0.15055,-0.090573,0,-0.11979,0,0,0,0.16126,-0.045931,0.0346,-13.171,0.049978,0.18094,0.00011432,0.52,0.48,0
0.18616,0.099881,0.14915,-0.02538,0.037131,-0.040137,0,0,0.14563,-0.081264,0,-0.10436,0,0,0,0.15797,-0.0342,0.037131,-12.342,0.053634,0.1683,0.00010623,0.54,0.48,0
0.18902,0.10686,0.1493,-0.011104,0.041458,-0.03616,0,0,0.14019,-0.068331,0,-0.094015,0,0,0,0.15725,-0.019051,0.041458,-12.306,0.059884,0.15524,0.00010231,0.56,0.48,0
0.19176,0.11439,0.14596,0.0084868,0.046335,-0.034569,0,0,0.15702,-0.051375,0,-0.11267,0,0,0,0.15524,-0.0007867,0.046335,-14.196,0.066929,0.13884,0.00010543,0.58,0.48,0
0.19518,0.12191,0.13918,0.02342,0.048779,-0.028915,0,0,0.21138,-0.045994,0,-0.13064,0,0,0,0.14814,0.014452,0.048779,-14.159,0.070458,0.12053,0.00012094,0.6,0.48,0
0.20001,0.12862,0.13645,0.022543,0.047698,-0.01566,0,0,0.25602,-0.063775,0,-0.069729,0,0,0,0.14059,0.018404,0.047698,-7.1788,0.068897,0.1106,0.00013428,0.62,0.48,0
0.20533,0.13482,0.13127,0.014975,0.043875,-0.0031406,0,0,0.2571,-0.083187,0,0.044569,0,0,0,0.13249,0.013762,0.043875,2.125,0.063374,0.10694,0.00012123,0.64,0.48,0
0.21032,0.14103,0.12146,0.009594,0.039316,0.0055738,0,0,0.24452,-0.095176,0,0.15549,0,0,0,0.12387,0.0071809,0.039316,8.7682,0.05679,0.1045,9.6789e-05,0.66,0.48,0
0.21513,0.1472,0.11368,0.0057916,0.035841,0.012697,0,0,0.24568,-0.11297,0,0.25737,0,0,0,0.11827,0.0012051,0.035841,12.574,0.05177,0.10441,8.0076e-05,0.68,0.48,0
0.22014,0.15286,0.1086,-0.0017223,0.032063,0.018016,0,0,0.29977,-0.15192,0,0.33545,0,0,0,0.11443,-0.0075572,0.032063,13.52,0.046313,0.10816,7.0704e-05,0.7,0.48,0
0.22778,0.15705,0.10544,-0.0099793,0.028639,0.020954,0,0,0.47423,-0.23525,0,0.40308,0,0,0,0.11075,-0.015285,0.028639,12.555,0.041367,0.11101,6.1294e-05,0.72,0.48,0
0.24079,0.15923,0.10143,-0.0096631,0.027529,0.020994,0,0,0.71192,-0.34794,0,0.47387,0,0,0,0.10575,-0.013989,0.027529,11.326,0.039764,0.10535,4.368e-05,0.74,0.48,0
0.25762,0.15998,0.096554,-0.0087995,0.026326,0.019548,0,0,0.8624,-0.43417,0,0.49736,0,0,0,0.10019,-0.012434,0.026326,10.333,0.038027,0.099109,2.8406e-05,0.76,0.48,0
0.27564,0.16003,0.095875,-0.012677,0.02496,0.017486,0,0,0.9219,-0.48927,0,0.45463,0,0,0,0.098724,-0.015525,0.02496,8.9279,0.036053,0.10034,2.4925e-05,0.78,0.48,0
0.2945,0.15895,0.099139,-0.015792,0.025004,0.014024,0,0,0.96376,-0.53035,0,0.36463,0,0,0,0.10098,-0.017637,0.025004,6.8351,0.036117,0.10408,2.6868e-05,0.8,0.48,0
0.31419,0.15598,0.10302,-0.014788,0.02647,0.0096401,0,0,0.99518,-0.53636,0,0.25064,0,0,0,0.10394,-0.015702,0.02647,4.5876,0.038235,0.10512,2.8864e-05,0.82,0.48,0
0.33431,0.15126,0.10665,-0.010117,0.028961,0.0059218,0,0,1.01,-0.50801,0,0.15397,0,0,0,0.10703,-0.010494,0.028961,2.8391,0.041832,0.10361,3.0416e-05,0.84,0.48,0
0.35459,0.14566,0.10963,-0.0049989,0.031389,0.0034959,0,0,1.0171,-0.47305,0,0.090894,0,0,0,0.10978,-0.0051532,0.031389,1.7017,0.04534,0.10172,3.15e-05,0.86,0.48,0
0.37499,0.14,0.11222,-0.00054568,0.033503,0.0020534,0,0,1.0234,-0.44264,0,0.053389,0,0,0,0.11229,-0.00061178,0.033503,1.0083,0.048393,0.1003,3.2393e-05,0.88,0.48,0
0.39552,0.13478,0.11449,0.0031895,0.035305,0.0012818,0,0,1.0295,-0.4175,0,0.033327,0,0,0,0.11453,0.0031568,0.035305,0.63256,0.050996,0.099284,3.3163e-05,0.9,0.48,0
0.41617,0.13032,0.11629,0.0058876,0.036654,0.00088044,0,0,1.0353,-0.39996,0,0.022891,0,0,0,0.11631,0.0058667,0.036654,0.4331,0.052945,0.098723,3.3818e-05,0.92,0.48,0
0.43695,0.1268,0.11773,0.0075508,0.037585,0.00079198,0,0,1.0419,-0.39044,0,0.020591,0,0,0,0.11775,0.0075339,0.037585,0.39174,0.054289,0.098683,3.4504e-05,0.94,0.48,0
0.45786,0.12429,0.11893,0.0085521,0.038244,0.00079754,0,0,1.0489,-0.38599,0,0.020736,0,0,0,0.11894,0.0085404,0.038244,0.40162,0.055241,0.09895,3.5209e-05,0.96,0.48,0
0.4789,0.1228,0.11967,0.0090506,0.038616,0.0002163,0,0,1.0537,-0.38435,0,0.0056238,0,0,0,0.11967,0.009044,0.038616,0.10578,0.055778,0.099208,3.5695e-05,0.98,0.48,0
0.48944,0.1223,0.11988,0.0091592,0.038712,-0.00030697,0,0,1.0552,-0.38419,0,-0.0079814,0,0,0,0.11989,0.0091539,0.038712,-0.16361,0.055917,0.099309,3.5852e-05,1,0.48,0
0.0088141,0.0010786,0.11853,0.048487,0.050106,0.0039926,0,0,0.88954,-0.021045,0,0.10381,0,0,0,0.11878,0.048236,0.050106,3.2665,0.072375,0.069645,1.7301e-05,0,0.5,0
0.017802,0.0018414,0.11918,0.046274,0.049636,0.0034567,0,0,0.90408,-0.043711,0,0.089876,0,0,0,0.11939,0.046066,0.049636,2.7556,0.071697,0.071631,1.8732e-05,0.02,0.5,0
0.03617,0.002777,0.12132,0.041915,0.048972,0.0021574,0,0,0.94057,-0.091732,0,0.056092,0,0,0,0.12145,0.041786,0.048972,1.6145,0.070737,0.076355,2.2241e-05,0.04,0.5,0
0.055406,0.002651,0.12481,0.03785,0.048797,0.00081917,0,0,0.98812,-0.14231,0,0.021298,0,0,0,0.12491,0.037751,0.048797,0.56777,0.070485,0.082213,2.6927e-05,0.06,0.5,0
0.07568,0.0017621,0.12902,0.0348,0.049146,-0.00031418,0,0,1.0384,-0.1865,0,-0.0081687,0,0,0,0.12915,0.034673,0.049146,-0.21868,0.070989,0.088147,3.2219e-05,0.08,0.5,0
0.096913,0.0005292,0.13383,0.026942,0.048231,0.00045768,0,0,0.9472,-0.18262,0,-0.019281,0,0,0,0.13415,0.026616,0.048231,-0.19064,0.069667,0.099009,5.0924e-05,0.1,0.5,0
0.11392,0.00044182,0.13637,0.019936,0.046892,0.00044473,0,0,0.59496,-0.11221,0,-0.013064,0,0,0,0.13695,0.019354,0.046892,-0.60435,0.067733,0.10736,7.0207e-05,0.12,0.5,0
0.12143,0.002969,0.13862,0.026384,0.049503,-0.003761,0,0,0.2444,-0.046298,0,-0.01594,0,0,0,0.13922,0.025793,0.049503,-2.6034,0.071504,0.10409,6.2998e-05,0.14,0.5,0
0.12398,0.0071609,0.14608,0.03314,0.053765,-0.0076418,0,0,0.12747,-0.028372,0,-0.022068,0,0,0,0.14676,0.032456,0.053765,-4.0293,0.07766,0.1053,5.5841e-05,0.16,0.5,0
0.12647,0.011535,0.15364,0.032758,0.05592,-0.010917,0,0,0.12704,-0.03011,0,-0.028385,0,0,0,0.15484,0.031564,0.05592,-5.1588,0.080773,0.11309,6.33e-05,0.18,0.5,0
0.12906,0.015754,0.15834,0.033057,0.057419,-0.015018,0,0,0.1312,-0.03167,0,-0.039048,0,0,0,0.16026,0.031135,0.057419,-6.7513,0.082938,0.1182,7.1068e-05,0.2,0.5,0
0.13172,0.019824,0.16279,0.034629,0.059225,-0.018117,0,0,0.13463,-0.031976,0,-0.047103,0,0,0,0.1654,0.032015,0.059225,-7.8971,0.085548,0.12208,7.8141e-05,0.22,0.5,0
0.13445,0.023806,0.16687,0.036014,0.060864,-0.020617,0,0,0.1378,-0.032305,0,-0.053605,0,0,0,0.17014,0.032738,0.060864,-8.7609,0.087915,0.12573,8.5291e-05,0.24,0.5,0
0.13723,0.027739,0.17019,0.037098,0.062186,-0.023548,0,0,0.1404,-0.032615,0,-0.061224,0,0,0,0.17436,0.03293,0.062186,-9.7836,0.089824,0.12931,9.2596e-05,0.26,0.5,0
0.14006,0.031646,0.17197,0.039031,0.063302,-0.027202,0,0,0.14127,-0.031552,0,-0.070725,0,0,0,0.17747,0.033538,0.063302,-11.208,0.091436,0.13162,9.7967e-05,0.28,0.5,0
0.14288,0.035585,0.1716,0.043758,0.064608,-0.030006,0,0,0.13909,-0.027106,0,-0.078015,0,0,0,0.17839,0.036967,0.064608,-12.67,0.093323,0.12988,9.6599e-05,0.3,0.5,0
0.14562,0.039712,0.1701,0.049333,0.06583,-0.029834,0,0,0.13555,-0.021446,0,-0.077569,0,0,0,0.1771,0.042331,0.06583,-13.171,0.095088,0.12473,8.8999e-05,0.32,0.5,0
0.1483,0.044226,0.1683,0.04596,0.064277,-0.027625,0,0,0.13522,-0.023811,0,-0.071826,0,0,0,0.17431,0.039943,0.064277,-12.216,0.092844,0.12408,8.6201e-05,0.34,0.5,0
0.15103,0.049169,0.16589,0.029626,0.058654,-0.027321,0,0,0.1394,-0.037737,0,-0.071035,0,0,0,0.1712,0.02431,0.058654,-11.015,0.084723,0.13327,9.5064e-05,0.36,0.5,0
0.15388,0.054351,0.1633,0.0097148,0.051904,-0.031481,0,0,0.14481,-0.054846,0,-0.08185,0,0,0,0.16954,0.0034709,0.051904,-11.123,0.074972,0.14806,0.00010916,0.38,0.5,0
0.15682,0.059541,0.16008,-0.006398,0.046106,-0.038714,0,0,0.14817,-0.068255,0,-0.10066,0,0,0,0.16872,-0.015034,0.046106,-12.414,0.066597,0.16215,0.0001195,0.4,0.5,0
0.15981,0.064635,0.15573,-0.018834,0.041068,-0.046152,0,0,0.14906,-0.077873,0,-0.12,0,0,0,0.16723,-0.030343,0.041068,-13.895,0.05932,0.17332,0.00012339,0.42,0.5,0
0.16279,0.069653,0.1511,-0.028973,0.036639,-0.05205,0,0,0.1488,-0.085296,0,-0.13533,0,0,0,0.16509,-0.042959,0.036639,-15.001,0.052924,0.18185,0.00012229,0.44,0.5,0
0.16576,0.074695,0.147,-0.037464,0.032861,-0.054891,0,0,0.14838,-0.091423,0,-0.14272,0,0,0,0.16211,-0.052569,0.032861,-15.38,0.047467,0.18721,0.00011711,0.46,0.5,0
0.16872,0.079913,0.14362,-0.043812,0.029942,-0.05416,0,0,0.14778,-0.095881,0,-0.14082,0,0,0,0.15816,-0.058352,0.029942,-15.009,0.04325,0.18857,0.00010883,0.48,0.5,0
0.17167,0.085486,0.13985,-0.046629,0.027968,-0.049755,0,0,0.14545,-0.096975,0,-0.12936,0,0,0,0.15238,-0.059151,0.027968,-13.994,0.040398,0.18415,9.7533e-05,0.5,0.5,0
0.17454,0.091573,0.13561,-0.043178,0.027731,-0.042761,0,0,0.14025,-0.092181,0,-0.11118,0,0,0,0.1454,-0.05297,0.027731,-12.702,0.040055,0.17282,8.5235e-05,0.52,0.5,0
0.17728,0.098268,0.12913,-0.03259,0.028962,-0.036124,0,0,0.13022,-0.080018,0,-0.093923,0,0,0,0.13689,-0.040349,0.028962,-11.944,0.041834,0.15475,7.2649e-05,0.54,0.5,0
0.17976,0.10557,0.11654,-0.017553,0.029696,-0.031074,0,0,0.117,-0.063254,0,-0.081521,0,0,0,0.12367,-0.024688,0.029696,-12.187,0.042894,0.13007,5.812e-05,0.56,0.5,0
0.18195,0.11343,0.098041,-0.00088225,0.029148,-0.028071,0,0,0.15722,-0.05864,0,-0.085558,0,0,0,0.10749,-0.010336,0.029148,-13.431,0.042102,0.10409,4.8215e-05,0.58,0.5,0
0.18574,0.12084,0.083557,0.010898,0.028337,-0.021002,0,0,0.28637,-0.082507,0,-0.080388,0,0,0,0.093383,0.0010718,0.028337,-11.529,0.04093,0.082513,4.9134e-05,0.6,0.5,0
0.19282,0.12693,0.078968,0.012283,0.027375,-0.0070598,0,0,0.39292,-0.117,0,-0.0017096,0,0,0,0.0833,0.0079504,0.027375,-3.2911,0.039542,0.067967,5.0905e-05,0.62,0.5,0
0.20116,0.13267,0.074519,0.0078911,0.024723,0.0043353,0,0,0.40414,-0.13968,0,0.13837,0,0,0,0.075836,0.0065747,0.024723,6.1685,0.035711,0.062263,4.2315e-05,0.64,0.5,0
0.20902,0.13862,0.06924,0.0037119,0.021886,0.010992,0,0,0.39387,-0.15931,0,0.27694,0,0,0,0.072272,0.00068059,0.021886,12.531,0.031613,0.063767,3.2387e-05,0.66,0.5,0
0.21695,0.14426,0.069563,0.00059268,0.021047,0.016199,0,0,0.41925,-0.19367,0,0.38967,0,0,0,0.074644,-0.0044882,0.021047,15.571,0.030401,0.070091,2.9532e-05,0.68,0.5,0
0.22579,0.14871,0.075594,-0.0041679,0.021428,0.019903,0,0,0.49247,-0.24961,0,0.4653,0,0,0,0.081683,-0.010257,0.021428,15.453,0.030952,0.081078,3.1423e-05,0.7,0.5,0
0.237,0.15099,0.081973,-0.0089113,0.021919,0.020942,0,0,0.61909,-0.31915,0,0.48984,0,0,0,0.087397,-0.014335,0.021919,13.408,0.03166,0.089403,2.9927e-05,0.72,0.5,0
0.25125,0.15141,0.084613,-0.0091577,0.022637,0.018792,0,0,0.7512,-0.38046,0,0.46637,0,0,0,0.088525,-0.013069,0.022637,11.048,0.032698,0.089289,2.2231e-05,0.74,0.5,0
0.26739,0.15118,0.08792,-0.0087741,0.023744,0.015898,0,0,0.83429,-0.42273,0,0.41335,0,0,0,0.090607,-0.011461,0.023744,9.0466,0.034296,0.089804,1.9183e-05,0.76,0.5,0
0.28462,0.15049,0.092986,-0.010555,0.024729,0.013178,0,0,0.88734,-0.4587,0,0.34263,0,0,0,0.094782,-0.012351,0.024729,7.1118,0.03572,0.094237,2.1759e-05,0.78,0.5,0
0.30289,0.14878,0.097389,-0.011782,0.025682,0.0097598,0,0,0.93219,-0.48703,0,0.25375,0,0,0,0.09839,-0.012783,0.025682,5.0348,0.037096,0.097795,2.4257e-05,0.8,0.5,0
0.32191,0.14572,0.10106,-0.010718,0.027102,0.0060721,0,0,0.96143,-0.49166,0,0.15787,0,0,0,0.10148,-0.011143,0.027102,3.0575,0.039148,0.099206,2.6199e-05,0.82,0.5,0
0.34134,0.14146,0.10404,-0.0074234,0.028986,0.002998,0,0,0.97574,-0.47332,0,0.077948,0,0,0,0.10418,-0.007558,0.028986,1.5007,0.041868,0.098685,2.7509e-05,0.84,0.5,0
0.36094,0.13651,0.10639,-0.003364,0.030907,0.00099481,0,0,0.98124,-0.44552,0,0.025865,0,0,0,0.10643,-0.0034018,0.030907,0.49103,0.044643,0.097326,2.8281e-05,0.86,0.5,0
0.38059,0.13143,0.10832,0.00040082,0.032615,-7.0143e-05,0,0,0.98412,-0.41879,0,-0.0018237,0,0,0,0.10834,0.00038267,0.032615,-0.058341,0.047111,0.09599,2.8781e-05,0.88,0.5,0
0.4003,0.12668,0.11001,0.0035603,0.034072,-0.00050766,0,0,0.98723,-0.39665,0,-0.013199,0,0,0,0.11003,0.0035453,0.034072,-0.29014,0.049215,0.094976,2.9203e-05,0.9,0.5,0
0.42008,0.12256,0.11143,0.0059734,0.03522,-0.00070735,0,0,0.99067,-0.3802,0,-0.018391,0,0,0,0.11144,0.0059582,0.03522,-0.40009,0.050873,0.094321,2.9583e-05,0.92,0.5,0
0.43995,0.11925,0.11261,0.0076531,0.03608,-0.0005626,0,0,0.99493,-0.36955,0,-0.014628,0,0,0,0.11263,0.0076384,0.03608,-0.322,0.052115,0.094052,2.9996e-05,0.94,0.5,0
0.4599,0.11686,0.1136,0.0087307,0.0367,-0.00013733,0,0,0.99974,-0.3636,0,-0.0035706,0,0,0,0.11361,0.0087218,0.0367,-0.087169,0.053011,0.094076,3.0438e-05,0.96,0.5,0
0.47993,0.11542,0.11413,0.0091919,0.036998,-0.00028698,0,0,1.0028,-0.36148,0,-0.0074616,0,0,0,0.11414,0.0091869,0.036998,-0.16349,0.053441,0.094179,3.0715e-05,0.98,0.5,0
0.48996,0.11494,0.11425,0.0092574,0.037052,-0.00061391,0,0,1.0036,-0.36133,0,-0.015962,0,0,0,0.11425,0.009252,0.037052,-0.33889,0.053519,0.09423,3.0789e-05,1,0.5,0
0.0089949,0.00069305,0.12087,0.049981,0.051256,0.0025626,0,0,0.905,-0.016565,0,0.066627,0,0,0,0.12097,0.049878,0.051256,2.0743,0.074036,0.070427,1.791e-05,0,0.52,0
0.018132,0.0010195,0.12129,0.047844,0.050739,0.0018296,0,0,0.9171,-0.037635,0,0.04757,0,0,0,0.12136,0.047764,0.050739,1.4725,0.073289,0.072186,1.9208e-05,0.02,0.52,0
0.036712,0.0010032,0.12244,0.043225,0.049699,0.00010511,0,0,0.94561,-0.08416,0,0.0027327,0,0,0,0.12248,0.043181,0.049699,0.13159,0.071788,0.076284,2.2249e-05,0.04,0.52,0
0.055916,-0.00012359,0.12337,0.038383,0.048526,-0.0015075,0,0,0.97297,-0.13186,0,-0.039195,0,0,0,0.12342,0.03833,0.048526,-1.0005,0.070092,0.080502,2.5404e-05,0.06,0.52,0
0.075594,-0.0017842,0.12343,0.035029,0.047538,-0.002386,0,0,0.98661,-0.16262,0,-0.062036,0,0,0,0.12357,0.034891,0.047538,-1.4983,0.068666,0.083092,2.7432e-05,0.08,0.52,0
0.095338,-0.0027469,0.12145,0.029139,0.045177,-0.0029452,0,0,0.87588,-0.14268,0,-0.07018,0,0,0,0.12182,0.028773,0.045177,-1.9291,0.065256,0.086439,2.7815e-05,0.1,0.52,0
0.11054,-0.0013877,0.12152,0.024692,0.043864,-0.0054318,0,0,0.54197,-0.076538,0,-0.062474,0,0,0,0.12243,0.023788,0.043864,-3.5996,0.063359,0.091038,2.9445e-05,0.12,0.52,0
0.11697,0.0022823,0.12935,0.030778,0.048038,-0.01017,0,0,0.21519,-0.029231,0,-0.043198,0,0,0,0.13108,0.029048,0.048038,-6.1031,0.069389,0.094388,3.5988e-05,0.14,0.52,0
0.11915,0.0066908,0.14003,0.036173,0.05286,-0.014244,0,0,0.11332,-0.021693,0,-0.037035,0,0,0,0.14246,0.033736,0.05286,-7.6576,0.076353,0.10056,4.6653e-05,0.16,0.52,0
0.12151,0.010991,0.14911,0.035457,0.055369,-0.017208,0,0,0.12186,-0.025885,0,-0.044742,0,0,0,0.15197,0.032594,0.055369,-8.3871,0.079977,0.10978,5.8802e-05,0.18,0.52,0
0.12403,0.015158,0.15624,0.035235,0.057443,-0.019769,0,0,0.12844,-0.028871,0,-0.0514,0,0,0,0.15951,0.031966,0.057443,-9.0264,0.082974,0.11691,6.934e-05,0.2,0.52,0
0.12664,0.019212,0.1607,0.036155,0.059057,-0.02175,0,0,0.13214,-0.029773,0,-0.05655,0,0,0,0.16444,0.032414,0.059057,-9.6217,0.085304,0.12093,7.6251e-05,0.22,0.52,0
0.12931,0.023195,0.16309,0.037671,0.060228,-0.023453,0,0,0.13372,-0.029324,0,-0.060978,0,0,0,0.16736,0.033395,0.060228,-10.26,0.086996,0.12277,8.0023e-05,0.24,0.52,0
0.13199,0.027144,0.16373,0.03961,0.061003,-0.02526,0,0,0.13355,-0.027811,0,-0.065675,0,0,0,0.16871,0.034633,0.061003,-11.09,0.088115,0.12304,8.1221e-05,0.26,0.52,0
0.13465,0.031101,0.16283,0.042505,0.061601,-0.027093,0,0,0.1316,-0.024825,0,-0.070442,0,0,0,0.16869,0.03665,0.061601,-12.139,0.088979,0.12151,7.9605e-05,0.28,0.52,0
0.13726,0.035129,0.16064,0.046124,0.06203,-0.027928,0,0,0.1282,-0.020678,0,-0.072614,0,0,0,0.16711,0.039656,0.06203,-12.996,0.089599,0.11789,7.464e-05,0.3,0.52,0
0.13978,0.039325,0.15768,0.047626,0.061592,-0.027021,0,0,0.12492,-0.018156,0,-0.070255,0,0,0,0.16397,0.041335,0.061592,-13.051,0.088966,0.11387,6.8433e-05,0.32,0.52,0
0.14225,0.043779,0.15472,0.043063,0.059336,-0.025477,0,0,0.124,-0.021154,0,-0.066239,0,0,0,0.16029,0.037496,0.059336,-12.277,0.085707,0.11349,6.6231e-05,0.34,0.52,0
0.14474,0.048496,0.15191,0.031372,0.054984,-0.025439,0,0,0.126,-0.030696,0,-0.066142,0,0,0,0.15707,0.026208,0.054984,-11.478,0.079422,0.11921,7.0488e-05,0.36,0.52,0
0.14729,0.053382,0.14897,0.016011,0.049496,-0.028453,0,0,0.12932,-0.04353,0,-0.073979,0,0,0,0.15483,0.010158,0.049496,-11.571,0.071494,0.12967,7.8597e-05,0.38,0.52,0
0.14991,0.058307,0.14554,0.0010902,0.04399,-0.034197,0,0,0.13202,-0.05577,0,-0.088912,0,0,0,0.15328,-0.0066467,0.04399,-12.62,0.063542,0.14165,8.6238e-05,0.4,0.52,0
0.15257,0.063192,0.14132,-0.012069,0.038775,-0.040964,0,0,0.13331,-0.066098,0,-0.10651,0,0,0,0.15163,-0.022376,0.038775,-14.014,0.056009,0.15295,9.057e-05,0.42,0.52,0
0.15525,0.068039,0.13675,-0.023826,0.033877,-0.047049,0,0,0.13373,-0.075014,0,-0.12233,0,0,0,0.14955,-0.036623,0.033877,-15.173,0.048933,0.16283,9.1026e-05,0.44,0.52,0
0.15793,0.07293,0.1325,-0.035017,0.029245,-0.050555,0,0,0.13423,-0.083541,0,-0.13144,0,0,0,0.14659,-0.049105,0.029245,-15.575,0.042243,0.17062,8.7192e-05,0.46,0.52,0
0.16062,0.078022,0.12854,-0.045898,0.024793,-0.050497,0,0,0.13487,-0.091899,0,-0.13129,0,0,0,0.14214,-0.059495,0.024793,-15.052,0.035813,0.17543,7.8892e-05,0.48,0.52,0
0.16332,0.083541,0.12349,-0.053961,0.020859,-0.045714,0,0,0.13342,-0.097266,0,-0.11886,0,0,0,0.13473,-0.065199,0.020859,-13.566,0.03013,0.17374,6.6181e-05,0.5,0.52,0
0.16596,0.089718,0.11735,-0.052955,0.019317,-0.036858,0,0,0.12744,-0.093954,0,-0.095831,0,0,0,0.12519,-0.060794,0.019317,-11.534,0.027903,0.16163,5.3337e-05,0.52,0.52,0
0.16841,0.096689,0.10686,-0.039913,0.020085,-0.027562,0,0,0.11631,-0.080529,0,-0.071391,0,0,0,0.11208,-0.045126,0.020085,-9.7649,0.029012,0.13686,4.203e-05,0.54,0.52,0
0.1706,0.10439,0.088947,-0.022304,0.019993,-0.018775,0,0,0.1185,-0.071741,0,-0.045005,0,0,0,0.092704,-0.026061,0.019993,-8.0279,0.028878,0.10376,2.8905e-05,0.56,0.52,0
0.17337,0.11215,0.070629,-0.0089305,0.018509,-0.010915,0,0,0.2151,-0.10632,0,0.0032987,0,0,0,0.074748,-0.01305,0.018509,-5.2691,0.026736,0.077095,1.7347e-05,0.58,0.52,0
0.17922,0.11857,0.061013,-0.00088756,0.018038,-0.0037406,0,0,0.40294,-0.17152,0,0.068658,0,0,0,0.065367,-0.0052422,0.018038,-1.0642,0.026054,0.062463,9.7245e-06,0.6,0.52,0
0.1888,0.12365,0.059667,0.0025517,0.018666,0.0033985,0,0,0.51936,-0.20478,0,0.13835,0,0,0,0.062041,0.00017781,0.018666,3.8081,0.026961,0.05511,5.8589e-06,0.62,0.52,0
0.19948,0.12897,0.058571,0.0016473,0.018066,0.0086953,0,0,0.52657,-0.21344,0,0.22608,0,0,0,0.060094,0.00012514,0.018066,8.2675,0.026095,0.053352,5.0736e-06,0.64,0.52,0
0.20987,0.13459,0.057616,-0.00084093,0.017033,0.011826,0,0,0.52759,-0.23235,0,0.30748,0,0,0,0.060066,-0.0032911,0.017033,11.136,0.024603,0.056047,5.3652e-06,0.66,0.52,0
0.22062,0.13945,0.060288,-0.0036571,0.016989,0.013667,0,0,0.56289,-0.2684,0,0.35535,0,0,0,0.063379,-0.006748,0.016989,11.846,0.02454,0.061786,6.5361e-06,0.68,0.52,0
0.23238,0.14277,0.065301,-0.0065744,0.017618,0.01426,0,0,0.61988,-0.3145,0,0.37075,0,0,0,0.068478,-0.0097513,0.017618,10.963,0.025448,0.068767,8.3387e-06,0.7,0.52,0
0.24541,0.14407,0.071593,-0.007601,0.019198,0.01351,0,0,0.68114,-0.34838,0,0.35125,0,0,0,0.074313,-0.01032,0.019198,9.3772,0.02773,0.074419,1.0528e-05,0.72,0.52,0
0.25963,0.14391,0.078523,-0.0069417,0.021474,0.011935,0,0,0.74163,-0.36941,0,0.31031,0,0,0,0.080491,-0.0089098,0.021474,7.7415,0.031019,0.078749,1.3136e-05,0.74,0.52,0
0.27508,0.14307,0.085244,-0.0069854,0.023478,0.010252,0,0,0.80296,-0.39602,0,0.26656,0,0,0,0.086569,-0.00831,0.023478,6.2348,0.033912,0.08365,1.6199e-05,0.76,0.52,0
0.29175,0.14168,0.090919,-0.0079905,0.024878,0.0082484,0,0,0.85852,-0.4273,0,0.21446,0,0,0,0.091754,-0.008826,0.024878,4.7072,0.035936,0.088673,1.9244e-05,0.78,0.52,0
0.30942,0.13946,0.095458,-0.0084707,0.026096,0.0056713,0,0,0.90171,-0.44937,0,0.14745,0,0,0,0.095879,-0.008891,0.026096,3.0877,0.037695,0.09239,2.1852e-05,0.8,0.52,0
0.32782,0.13631,0.099022,-0.007528,0.027448,0.00296,0,0,0.93046,-0.45469,0,0.076959,0,0,0,0.099178,-0.0076837,0.027448,1.5615,0.039647,0.094341,2.3859e-05,0.82,0.52,0
0.34664,0.13232,0.10173,-0.0051898,0.028963,0.00065856,0,0,0.94602,-0.44399,0,0.017123,0,0,0,0.10178,-0.0052348,0.028963,0.32731,0.041836,0.094672,2.5192e-05,0.84,0.52,0
0.36566,0.12784,0.10378,-0.0021317,0.030494,-0.00089627,0,0,0.9527,-0.42413,0,-0.023303,0,0,0,0.10381,-0.0021602,0.030494,-0.50379,0.044047,0.093999,2.5954e-05,0.86,0.52,0
0.38475,0.12325,0.10537,0.00094671,0.031896,-0.0016954,0,0,0.95521,-0.40234,0,-0.04408,0,0,0,0.10541,0.00090755,0.031896,-0.94292,0.046072,0.092972,2.6353e-05,0.88,0.52,0
0.40387,0.11892,0.10669,0.0036528,0.033104,-0.0019159,0,0,0.95666,-0.38286,0,-0.049812,0,0,0,0.10674,0.0036092,0.033104,-1.0743,0.047817,0.092,2.6589e-05,0.9,0.52,0
0.42301,0.11512,0.1078,0.0058458,0.034093,-0.0018755,0,0,0.95816,-0.36722,0,-0.048764,0,0,0,0.10784,0.005806,0.034093,-1.0609,0.049246,0.09124,2.6766e-05,0.92,0.52,0
0.4422,0.11203,0.10874,0.0075094,0.034875,-0.00155,0,0,0.96024,-0.35575,0,-0.0403,0,0,0,0.10877,0.0074794,0.034875,-0.88291,0.050375,0.09075,2.6954e-05,0.94,0.52,0
0.46143,0.10977,0.10948,0.0086078,0.035426,-0.00096646,0,0,0.96269,-0.34864,0,-0.025128,0,0,0,0.1095,0.0085924,0.035426,-0.55516,0.051171,0.09052,2.7154e-05,0.96,0.52,0
0.4807,0.1084,0.1099,0.0091726,0.035721,-0.00073642,0,0,0.96428,-0.34512,0,-0.019147,0,0,0,0.1099,0.0091654,0.035721,-0.42272,0.051596,0.090434,2.728e-05,0.98,0.52,0
0.49035,0.10794,0.11002,0.0093404,0.035807,-0.00079779,0,0,0.96472,-0.34406,0,-0.020743,0,0,0,0.11002,0.0093338,0.035807,-0.45523,0.051721,0.090408,2.7315e-05,1,0.52,0
0.0092319,0.0004249,0.12412,0.051995,0.052833,0.0015786,0,0,0.92667,-0.010893,0,0.041042,0,0,0,0.12416,0.051955,0.052833,1.2629,0.076315,0.07177,1.8997e-05,0,0.54,0
0.018563,0.00036179,0.12417,0.049841,0.052205,0.00092211,0,0,0.93561,-0.030731,0,0.023975,0,0,0,0.12421,0.049807,0.052205,0.75153,0.075407,0.073257,2.0127e-05,0.02,0.54,0
0.037457,-0.0005513,0.12382,0.044336,0.050447,-0.00042691,0,0,0.95387,-0.079452,0,-0.0111,0,0,0,0.12385,0.04431,0.050447,-0.27265,0.072869,0.076698,2.263e-05,0.04,0.54,0
0.056695,-0.0026065,0.12206,0.038093,0.048047,-0.0007614,0,0,0.96221,-0.1294,0,-0.019796,0,0,0,0.12216,0.037996,0.048047,-0.5566,0.069401,0.079645,2.4544e-05,0.06,0.54,0
0.075919,-0.0047434,0.1227,0.036941,0.047893,-0.00047867,0,0,0.91978,-0.1413,0,0.0062136,0,0,0,0.12309,0.036552,0.047893,-0.016901,0.069178,0.081493,2.8853e-05,0.08,0.54,0
0.093832,-0.00517,0.12259,0.037593,0.048056,-0.0038674,0,0,0.74381,-0.098485,0,-0.0049614,0,0,0,0.12386,0.036326,0.048056,-2.0115,0.069415,0.082515,3.4833e-05,0.1,0.54,0
0.10634,-0.0026016,0.1211,0.034445,0.046664,-0.012302,0,0,0.43556,-0.044397,0,-0.055749,0,0,0,0.12411,0.031432,0.046664,-7.3833,0.067403,0.086445,3.8655e-05,0.12,0.54,0
0.11155,0.0018092,0.13017,0.034629,0.04944,-0.020497,0,0,0.1868,-0.022239,0,-0.069973,0,0,0,0.135,0.029803,0.04944,-11.277,0.071413,0.097054,4.6484e-05,0.14,0.54,0
0.11379,0.0062932,0.14393,0.036946,0.054264,-0.024149,0,0,0.11657,-0.022514,0,-0.062788,0,0,0,0.1494,0.031477,0.054264,-11.929,0.078381,0.10837,5.8363e-05,0.16,0.54,0
0.11622,0.0105,0.15287,0.036535,0.056821,-0.024419,0,0,0.12486,-0.026371,0,-0.063488,0,0,0,0.15792,0.031487,0.056821,-11.308,0.082075,0.11587,6.8351e-05,0.18,0.54,0
0.11878,0.014599,0.15849,0.03611,0.058379,-0.02395,0,0,0.13014,-0.02895,0,-0.062271,0,0,0,0.16305,0.031549,0.058379,-10.663,0.084325,0.12035,7.511e-05,0.2,0.54,0
0.12142,0.018633,0.16114,0.036823,0.05939,-0.023781,0,0,0.13228,-0.029337,0,-0.06183,0,0,0,0.16555,0.032419,0.05939,-10.463,0.085786,0.1219,7.798e-05,0.22,0.54,0
0.12408,0.022633,0.1615,0.038525,0.060009,-0.023895,0,0,0.13194,-0.027929,0,-0.062127,0,0,0,0.16599,0.034036,0.060009,-10.619,0.086679,0.12108,7.7245e-05,0.24,0.54,0
0.1267,0.026626,0.16007,0.040896,0.060289,-0.024211,0,0,0.12971,-0.025211,0,-0.062948,0,0,0,0.16482,0.036145,0.060289,-11.053,0.087085,0.11847,7.3688e-05,0.26,0.54,0
0.12926,0.03065,0.15725,0.043613,0.06026,-0.024448,0,0,0.12609,-0.021641,0,-0.063566,0,0,0,0.16232,0.038541,0.06026,-11.623,0.087042,0.11449,6.8065e-05,0.28,0.54,0
0.13174,0.03475,0.15355,0.045829,0.059812,-0.02417,0,0,0.12185,-0.018178,0,-0.062843,0,0,0,0.15876,0.04061,0.059812,-12.043,0.086395,0.10983,6.1443e-05,0.3,0.54,0
0.13414,0.03898,0.14948,0.045783,0.058579,-0.023229,0,0,0.11817,-0.016635,0,-0.060396,0,0,0,0.15449,0.040772,0.058579,-12.01,0.084614,0.10595,5.5677e-05,0.32,0.54,0
0.13647,0.043379,0.14541,0.041509,0.056076,-0.022268,0,0,0.11613,-0.018936,0,-0.057897,0,0,0,0.15002,0.036904,0.056076,-11.561,0.080999,0.10487,5.2907e-05,0.34,0.54,0
0.13878,0.047941,0.14139,0.032543,0.05218,-0.022528,0,0,0.11597,-0.025528,0,-0.058573,0,0,0,0.14588,0.028049,0.05218,-11.211,0.075371,0.10788,5.3976e-05,0.36,0.54,0
0.14111,0.05261,0.13718,0.020446,0.047289,-0.024933,0,0,0.11686,-0.034896,0,-0.064825,0,0,0,0.1423,0.015324,0.047289,-11.505,0.068306,0.11449,5.7563e-05,0.38,0.54,0
0.14346,0.05731,0.13237,0.0073292,0.04191,-0.029433,0,0,0.1176,-0.044955,0,-0.076526,0,0,0,0.139,0.00070347,0.04191,-12.516,0.060537,0.12307,6.1252e-05,0.4,0.54,0
0.14581,0.061991,0.1267,-0.0056643,0.036311,-0.035181,0,0,0.11751,-0.054568,0,-0.09147,0,0,0,0.13553,-0.014488,0.036311,-13.909,0.05245,0.13222,6.3107e-05,0.42,0.54,0
0.14816,0.066647,0.12049,-0.018476,0.030603,-0.040977,0,0,0.11685,-0.063804,0,-0.10654,0,0,0,0.13171,-0.029695,0.030603,-15.212,0.044205,0.14131,6.2223e-05,0.44,0.54,0
0.15049,0.07134,0.11455,-0.031996,0.024766,-0.045264,0,0,0.11672,-0.073791,0,-0.11769,0,0,0,0.12742,-0.044863,0.024766,-15.862,0.035773,0.15015,5.7921e-05,0.46,0.54,0
0.15283,0.076226,0.109,-0.047591,0.018422,-0.046108,0,0,0.11775,-0.085817,0,-0.11988,0,0,0,0.12163,-0.060223,0.018422,-15.296,0.02661,0.15803,4.8553e-05,0.48,0.54,0
0.1552,0.081595,0.10247,-0.062428,0.012013,-0.040765,0,0,0.1176,-0.096774,0,-0.10599,0,0,0,0.1123,-0.072252,0.012013,-13.097,0.017352,0.16011,3.4196e-05,0.5,0.54,0
0.15753,0.087821,0.093619,-0.064002,0.0088851,-0.029415,0,0,0.11346,-0.098427,0,-0.075913,0,0,0,0.099323,-0.069706,0.0088851,-9.6647,0.012834,0.14661,2.262e-05,0.52,0.54,0
0.15972,0.095066,0.081905,-0.047213,0.010407,-0.017062,0,0,0.11961,-0.098233,0,-0.040178,0,0,0,0.08457,-0.049879,0.010407,-6.0522,0.015033,0.11675,1.8586e-05,0.54,0.54,0
0.16248,0.10266,0.072442,-0.026857,0.013675,-0.0069272,0,0,0.18403,-0.12747,0,0.0057682,0,0,0,0.073602,-0.028017,0.013675,-2.4573,0.019753,0.088566,1.7436e-05,0.56,0.54,0
0.16791,0.10919,0.0672,-0.014138,0.015918,0.00096573,0,0,0.34041,-0.19854,0,0.083014,0,0,0,0.067841,-0.01478,0.015918,1.6444,0.022993,0.07238,1.4268e-05,0.58,0.54,0
0.17699,0.11419,0.062503,-0.006717,0.016736,0.0060134,0,0,0.50192,-0.25546,0,0.1655,0,0,0,0.06328,-0.0074938,0.016736,5.3164,0.024174,0.062324,8.6545e-06,0.6,0.54,0
0.18799,0.11883,0.060972,-0.0023078,0.017599,0.0082964,0,0,0.56385,-0.25879,0,0.21571,0,0,0,0.062091,-0.0034264,0.017599,7.358,0.025421,0.057956,5.7676e-06,0.62,0.54,0
0.19928,0.12409,0.062113,-0.0014482,0.018199,0.0095317,0,0,0.57087,-0.25542,0,0.24782,0,0,0,0.063567,-0.002903,0.018199,8.3638,0.026288,0.058834,6.1203e-06,0.64,0.54,0
0.21082,0.12932,0.063915,-0.0027229,0.018358,0.010082,0,0,0.59225,-0.27405,0,0.26213,0,0,0,0.065498,-0.0043053,0.018358,8.4856,0.026517,0.061679,6.8411e-06,0.66,0.54,0
0.22299,0.13352,0.067213,-0.0046187,0.018778,0.0095802,0,0,0.62965,-0.30416,0,0.24908,0,0,0,0.068632,-0.0060381,0.018778,7.5627,0.027124,0.065871,8.0208e-06,0.68,0.54,0
0.236,0.13613,0.071326,-0.0061639,0.019549,0.0083252,0,0,0.67311,-0.33426,0,0.21646,0,0,0,0.072409,-0.0072469,0.019549,6.1357,0.028237,0.07021,9.4982e-06,0.7,0.54,0
0.24991,0.13706,0.07612,-0.0060998,0.021006,0.006854,0,0,0.71648,-0.35238,0,0.1782,0,0,0,0.076871,-0.0068511,0.021006,4.7748,0.030342,0.07385,1.126e-05,0.72,0.54,0
0.26466,0.13663,0.081145,-0.0053599,0.022736,0.0057408,0,0,0.75932,-0.36524,0,0.14926,0,0,0,0.08169,-0.0059049,0.022736,3.8075,0.03284,0.077361,1.3324e-05,0.74,0.54,0
0.28028,0.13534,0.085981,-0.0054151,0.02417,0.0047931,0,0,0.80355,-0.3846,0,0.12462,0,0,0,0.086377,-0.0058107,0.02417,3.0059,0.034912,0.081448,1.5674e-05,0.76,0.54,0
0.29681,0.1334,0.090497,-0.005956,0.025362,0.0035383,0,0,0.84675,-0.40714,0,0.091996,0,0,0,0.09074,-0.0061988,0.025362,2.0962,0.036635,0.085639,1.8168e-05,0.78,0.54,0
0.31415,0.1308,0.094441,-0.0060561,0.026516,0.001892,0,0,0.88303,-0.42343,0,0.049193,0,0,0,0.094558,-0.0061726,0.026516,1.068,0.0383,0.08901,2.048e-05,0.8,0.54,0
0.33213,0.12753,0.097607,-0.0052509,0.027707,0.00011657,0,0,0.9087,-0.42845,0,0.0030309,0,0,0,0.097658,-0.0053026,0.027707,0.050639,0.040021,0.091062,2.2323e-05,0.82,0.54,0
0.3505,0.1237,0.10002,-0.0035178,0.028951,-0.0014225,0,0,0.92392,-0.4221,0,-0.036984,0,0,0,0.10007,-0.0035663,0.028951,-0.80124,0.041819,0.091806,2.3593e-05,0.84,0.54,0
0.36908,0.11954,0.10182,-0.0012029,0.030184,-0.002474,0,0,0.93123,-0.40804,0,-0.064324,0,0,0,0.10189,-0.0012769,0.030184,-1.3861,0.0436,0.091588,2.4335e-05,0.86,0.54,0
0.38775,0.11534,0.10317,0.0012583,0.031328,-0.002972,0,0,0.93391,-0.3909,0,-0.077272,0,0,0,0.10326,0.0011641,0.031328,-1.6764,0.045251,0.090854,2.4692e-05,0.88,0.54,0
0.40644,0.11137,0.10422,0.003537,0.032327,-0.0029918,0,0,0.93461,-0.37427,0,-0.077787,0,0,0,0.10431,0.0034431,0.032327,-1.7051,0.046695,0.089978,2.4832e-05,0.9,0.54,0
0.42513,0.10787,0.10507,0.0054622,0.03316,-0.0026941,0,0,0.93483,-0.36007,0,-0.070046,0,0,0,0.10515,0.0053855,0.03316,-1.5509,0.047897,0.089181,2.488e-05,0.92,0.54,0
0.44383,0.105,0.10576,0.0069629,0.033816,-0.0021684,0,0,0.93524,-0.34909,0,-0.056379,0,0,0,0.10581,0.0069115,0.033816,-1.2584,0.048846,0.088566,2.4907e-05,0.94,0.54,0
0.46255,0.10289,0.10627,0.0080053,0.034283,-0.001488,0,0,0.93585,-0.34161,0,-0.038689,0,0,0,0.1063,0.0079791,0.034283,-0.86865,0.04952,0.088161,2.4937e-05,0.96,0.54,0
0.48127,0.1016,0.1066,0.0086347,0.034569,-0.00098252,0,0,0.93635,-0.33715,0,-0.025546,0,0,0,0.10661,0.0086237,0.034569,-0.57524,0.049934,0.087931,2.4963e-05,0.98,0.54,0
0.49063,0.10116,0.10671,0.0088599,0.034672,-0.00083519,0,0,0.93654,-0.33556,0,-0.021715,0,0,0,0.10672,0.0088527,0.034672,-0.48902,0.050082,0.087852,2.4973e-05,1,0.54,0
0.0096683,0.00024378,0.13037,0.054953,0.055597,0.000954,0,0,0.97206,-0.0083779,0,0.024804,0,0,0,0.13039,0.054937,0.055597,0.73349,0.080307,0.075124,2.191e-05,0,0.56,0
0.01945,-0.0002119,0.13001,0.052023,0.054609,0.0005833,0,0,0.98018,-0.033616,0,0.015166,0,0,0,0.13002,0.05201,0.054609,0.45249,0.07888,0.076792,2.3263e-05,0.02,0.56,0
0.03922,-0.0021588,0.12865,0.044285,0.051881,0.00056912,0,0,0.99802,-0.098748,0,0.014797,0,0,0,0.12872,0.044216,0.051881,0.29791,0.07494,0.081041,2.665e-05,0.04,0.56,0
0.059369,-0.0052881,0.13095,0.039168,0.051036,0.001317,0,0,0.97549,-0.14883,0,0.060279,0,0,0,0.13144,0.038678,0.051036,1.0726,0.073718,0.087288,3.8552e-05,0.06,0.56,0
0.078661,-0.0074757,0.13924,0.044166,0.055021,-0.0013215,0,0,0.81547,-0.12498,0,0.089487,0,0,0,0.14087,0.042534,0.055021,0.50822,0.079474,0.092782,5.9549e-05,0.08,0.56,0
0.093535,-0.0067811,0.14087,0.049282,0.057046,-0.010929,0,0,0.5305,-0.059058,0,0.021545,0,0,0,0.14476,0.045397,0.057046,-4.9899,0.0824,0.094198,7.176e-05,0.1,0.56,0
0.10165,-0.0032345,0.14043,0.044413,0.055454,-0.023068,0,0,0.27937,-0.024055,0,-0.068744,0,0,0,0.14695,0.037892,0.055454,-11.868,0.0801,0.10163,7.6252e-05,0.12,0.56,0
0.10531,0.001377,0.15214,0.038399,0.057162,-0.030187,0,0,0.15872,-0.024985,0,-0.090316,0,0,0,0.15985,0.030694,0.057162,-14.053,0.082568,0.11823,8.5236e-05,0.14,0.56,0
0.10795,0.0057902,0.16266,0.036497,0.059748,-0.030821,0,0,0.13379,-0.030226,0,-0.080135,0,0,0,0.16987,0.029292,0.059748,-13.097,0.086303,0.12811,9.1379e-05,0.16,0.56,0
0.11066,0.0099362,0.16497,0.035456,0.060129,-0.028367,0,0,0.1363,-0.032075,0,-0.073755,0,0,0,0.17098,0.029446,0.060129,-11.876,0.086853,0.12897,9.0962e-05,0.18,0.56,0
0.1134,0.014,0.16551,0.035167,0.060204,-0.02561,0,0,0.1369,-0.032548,0,-0.066586,0,0,0,0.17041,0.030274,0.060204,-10.748,0.086962,0.12783,8.831e-05,0.2,0.56,0
0.11614,0.018039,0.16472,0.036161,0.060265,-0.023526,0,0,0.1358,-0.031336,0,-0.061167,0,0,0,0.16893,0.031956,0.060265,-10.062,0.08705,0.12524,8.397e-05,0.22,0.56,0
0.11883,0.022078,0.16253,0.038204,0.060221,-0.022087,0,0,0.133,-0.028622,0,-0.057427,0,0,0,0.16639,0.034351,0.060221,-9.7828,0.086986,0.12119,7.7674e-05,0.24,0.56,0
0.12146,0.026136,0.1591,0.040842,0.059982,-0.021075,0,0,0.12885,-0.024881,0,-0.054795,0,0,0,0.16281,0.037131,0.059982,-9.7989,0.08664,0.11596,6.9863e-05,0.26,0.56,0
0.12399,0.030235,0.15471,0.043447,0.059446,-0.020225,0,0,0.12384,-0.020799,0,-0.052585,0,0,0,0.15836,0.039794,0.059446,-9.9601,0.085866,0.11007,6.1413e-05,0.28,0.56,0
0.12641,0.034402,0.14973,0.04509,0.058446,-0.019314,0,0,0.11867,-0.017363,0,-0.050217,0,0,0,0.15329,0.041535,0.058446,-10.078,0.084423,0.10433,5.3456e-05,0.3,0.56,0
0.12873,0.038659,0.14453,0.044558,0.056726,-0.018361,0,0,0.11414,-0.015818,0,-0.047739,0,0,0,0.14789,0.041192,0.056726,-10.015,0.081937,0.09985,4.7216e-05,0.32,0.56,0
0.13098,0.043021,0.1393,0.040801,0.054031,-0.017766,0,0,0.11085,-0.017199,0,-0.046192,0,0,0,0.14249,0.037611,0.054031,-9.8414,0.078045,0.097728,4.3577e-05,0.34,0.56,0
0.13317,0.047475,0.13401,0.033581,0.050278,-0.018165,0,0,0.10885,-0.021706,0,-0.047228,0,0,0,0.13726,0.03033,0.050278,-9.8518,0.072624,0.098535,4.2534e-05,0.36,0.56,0
0.13533,0.051986,0.12836,0.023631,0.045596,-0.020029,0,0,0.10759,-0.028555,0,-0.052075,0,0,0,0.13213,0.019859,0.045596,-10.338,0.065861,0.10194,4.3057e-05,0.38,0.56,0
0.13747,0.056509,0.12187,0.012064,0.04018,-0.023369,0,0,0.1062,-0.03655,0,-0.060761,0,0,0,0.12673,0.0072002,0.04018,-11.357,0.058037,0.10701,4.3583e-05,0.4,0.56,0
0.13958,0.06101,0.11412,-0.00038448,0.034121,-0.027766,0,0,0.104,-0.044857,0,-0.072192,0,0,0,0.12062,-0.006885,0.034121,-12.729,0.049286,0.11283,4.2693e-05,0.42,0.56,0
0.14163,0.065483,0.10498,-0.013762,0.027365,-0.032578,0,0,0.1009,-0.053465,0,-0.084703,0,0,0,0.11345,-0.022238,0.027365,-14.156,0.039527,0.119,3.9457e-05,0.44,0.56,0
0.14362,0.069968,0.095005,-0.028979,0.019808,-0.036899,0,0,0.097757,-0.063423,0,-0.095938,0,0,0,0.10524,-0.039212,0.019808,-15.197,0.028611,0.12588,3.335e-05,0.46,0.56,0
0.14554,0.074582,0.08501,-0.048511,0.01095,-0.038241,0,0,0.096278,-0.077299,0,-0.099426,0,0,0,0.095333,-0.058834,0.01095,-14.798,0.015816,0.13384,2.2412e-05,0.48,0.56,0
0.14747,0.07967,0.073776,-0.069526,0.0012751,-0.032246,0,0,0.096869,-0.098206,0,-0.08063,0,0,0,0.081318,-0.077068,0.0012751,-11.453,0.0018419,0.13739,5.5269e-06,0.5,0.56,0
0.14941,0.085806,0.061816,-0.07443,-0.0037843,-0.019893,0,0,0.10793,-0.12423,0,-0.049012,0,0,0,0.06539,-0.078004,-0.0037843,-6.4585,-0.0054662,0.12446,-6.1045e-06,0.52,0.56,0
0.15192,0.092645,0.055988,-0.057,-0.00030349,-0.0087422,0,0,0.16815,-0.17375,0,-0.031021,0,0,0,0.057111,-0.058123,-0.00030349,-2.8993,-0.00043837,0.10003,-1.6705e-06,0.54,0.56,0
0.15686,0.098741,0.058225,-0.035248,0.0068932,-0.0017479,0,0,0.30673,-0.25444,0,0.0056422,0,0,0,0.058618,-0.03564,0.0068932,-0.29465,0.0099569,0.08193,7.6971e-06,0.56,0.56,0
0.16541,0.10365,0.060192,-0.019794,0.012119,0.0028634,0,0,0.46087,-0.30907,0,0.081759,0,0,0,0.060561,-0.020163,0.012119,2.5552,0.017506,0.070464,9.2937e-06,0.58,0.56,0
0.17616,0.10831,0.059283,-0.0098698,0.014824,0.0055888,0,0,0.54295,-0.30272,0,0.14646,0,0,0,0.059865,-0.010451,0.014824,4.7908,0.021413,0.061725,6.5691e-06,0.6,0.56,0
0.18735,0.11345,0.060353,-0.0043455,0.016802,0.0068953,0,0,0.56616,-0.27492,0,0.17928,0,0,0,0.06117,-0.0051617,0.016802,6.0319,0.02427,0.058538,5.6278e-06,0.62,0.56,0
0.19881,0.11881,0.063701,-0.0022271,0.018442,0.0072994,0,0,0.58837,-0.2687,0,0.18978,0,0,0,0.064603,-0.0031288,0.018442,6.2724,0.026639,0.059933,6.4519e-06,0.64,0.56,0
0.21089,0.12365,0.067502,-0.0025153,0.019496,0.0067424,0,0,0.62408,-0.28615,0,0.1753,0,0,0,0.06828,-0.0032934,0.019496,5.5087,0.028161,0.063335,7.6253e-06,0.66,0.56,0
0.22377,0.12729,0.071551,-0.003652,0.02037,0.0054009,0,0,0.66536,-0.31228,0,0.14042,0,0,0,0.072088,-0.0041893,0.02037,4.1587,0.029423,0.067443,9.055e-06,0.68,0.56,0
0.2375,0.1294,0.075692,-0.0046083,0.021325,0.0037429,0,0,0.70677,-0.33714,0,0.097315,0,0,0,0.076006,-0.0049222,0.021325,2.7275,0.030803,0.071516,1.0672e-05,0.7,0.56,0
0.25204,0.12998,0.079845,-0.0048253,0.022506,0.0022479,0,0,0.74541,-0.3553,0,0.058445,0,0,0,0.08002,-0.0050002,0.022506,1.571,0.032508,0.075144,1.2421e-05,0.72,0.56,0
0.26732,0.1293,0.083897,-0.0046128,0.023785,0.0011736,0,0,0.78145,-0.36917,0,0.030514,0,0,0,0.084009,-0.004725,0.023785,0.79893,0.034356,0.078466,1.4283e-05,0.74,0.56,0
0.2833,0.12769,0.087737,-0.0045519,0.024956,0.00039905,0,0,0.81616,-0.3836,0,0.010375,0,0,0,0.087823,-0.0046373,0.024956,0.27397,0.036047,0.081783,1.6251e-05,0.76,0.56,0
0.29997,0.12539,0.091278,-0.0046644,0.025984,-0.00038826,0,0,0.84882,-0.39843,0,-0.010095,0,0,0,0.091347,-0.0047343,0.025984,-0.21878,0.037532,0.084994,1.8252e-05,0.78,0.56,0
0.31725,0.12253,0.094406,-0.0045184,0.026966,-0.0013402,0,0,0.87672,-0.4093,0,-0.034844,0,0,0,0.094474,-0.0045861,0.026966,-0.77329,0.038951,0.087652,2.0112e-05,0.8,0.56,0
0.33503,0.11917,0.096995,-0.0037847,0.027963,-0.0023589,0,0,0.89742,-0.41272,0,-0.061331,0,0,0,0.097082,-0.0038717,0.027963,-1.3435,0.040391,0.089395,2.1634e-05,0.82,0.56,0
0.35315,0.11544,0.099006,-0.0024262,0.028974,-0.0032395,0,0,0.91042,-0.4082,0,-0.084226,0,0,0,0.099128,-0.0025476,0.028974,-1.833,0.041851,0.090149,2.2708e-05,0.84,0.56,0
0.37145,0.11152,0.10051,-0.00062339,0.029965,-0.0038079,0,0,0.91704,-0.39765,0,-0.099005,0,0,0,0.10066,-0.00077566,0.029965,-2.1583,0.043282,0.090089,2.3341e-05,0.86,0.56,0
0.38983,0.10761,0.10161,0.001352,0.030888,-0.003989,0,0,0.91937,-0.38397,0,-0.10371,0,0,0,0.10177,0.0011888,0.030888,-2.2779,0.044616,0.08951,2.3624e-05,0.88,0.56,0
0.40823,0.10395,0.10243,0.0032536,0.031705,-0.0038017,0,0,0.91943,-0.36987,0,-0.098844,0,0,0,0.10258,0.0031047,0.031705,-2.1931,0.045796,0.088704,2.3685e-05,0.9,0.56,0
0.42661,0.10071,0.10306,0.0049122,0.03239,-0.0033191,0,0,0.91865,-0.35722,0,-0.086297,0,0,0,0.10317,0.0047966,0.03239,-1.9347,0.046786,0.087891,2.3635e-05,0.92,0.56,0
0.44497,0.098057,0.10353,0.0062344,0.03293,-0.0026291,0,0,0.91783,-0.34704,0,-0.068356,0,0,0,0.10361,0.0061594,0.03293,-1.5463,0.047566,0.087202,2.3553e-05,0.94,0.56,0
0.46332,0.096092,0.10388,0.0071816,0.033317,-0.0018097,0,0,0.91726,-0.33976,0,-0.047051,0,0,0,0.10391,0.0071434,0.033317,-1.0715,0.048125,0.0867,2.3481e-05,0.96,0.56,0
0.48166,0.094888,0.10409,0.0077466,0.03355,-0.0011162,0,0,0.91696,-0.33544,0,-0.029021,0,0,0,0.1041,0.0077317,0.03355,-0.66377,0.04846,0.086403,2.3438e-05,0.98,0.56,0
0.49083,0.094482,0.10416,0.0079339,0.033627,-0.00085611,0,0,0.91688,-0.33401,0,-0.022259,0,0,0,0.10416,0.0079261,0.033627,-0.50992,0.048572,0.086307,2.3425e-05,1,0.56,0
0.010554,7.7787e-05,0.14209,0.059156,0.060374,0.00065788,0,0,1.0623,-0.015845,0,0.017105,0,0,0,0.1421,0.059147,0.060374,0.45999,0.087207,0.08236,2.9284e-05,0,0.58,0
0.021247,-0.00099289,0.14166,0.054249,0.058774,0.0010328,0,0,1.0776,-0.058823,0,0.026853,0,0,0,0.1417,0.05421,0.058774,0.59963,0.084896,0.085423,3.2493e-05,0.02,0.58,0
0.043103,-0.0045033,0.14566,0.045294,0.057285,0.0014052,0,0,1.0726,-0.14207,0,0.067299,0,0,0,0.14608,0.044867,0.057285,1.1205,0.082745,0.095758,5.6501e-05,0.04,0.58,0
0.064652,-0.0086157,0.15726,0.045061,0.060698,-0.0019194,0,0,0.92132,-0.15945,0,0.10278,0,0,0,0.1591,0.043225,0.060698,0.52143,0.087674,0.10825,0.00010078,0.06,0.58,0
0.081766,-0.009911,0.16425,0.053317,0.065271,-0.012116,0,0,0.60799,-0.09186,0,0.05219,0,0,0,0.16877,0.048801,0.065271,-4.0489,0.09428,0.1127,0.00012404,0.08,0.58,0
0.091378,-0.0077132,0.16536,0.056806,0.06665,-0.024803,0,0,0.31746,-0.031992,0,-0.046185,0,0,0,0.17279,0.049379,0.06665,-10.7,0.096273,0.11584,0.0001209,0.1,0.58,0
0.095831,-0.0036521,0.17352,0.050731,0.067276,-0.032309,0,0,0.18306,-0.022759,0,-0.092743,0,0,0,0.18207,0.042182,0.067276,-13.785,0.097176,0.12929,0.00012344,0.12,0.58,0
0.098946,0.00079189,0.18251,0.040832,0.067001,-0.033037,0,0,0.15543,-0.033944,0,-0.089843,0,0,0,0.19011,0.033232,0.067001,-12.808,0.09678,0.14305,0.00013015,0.14,0.58,0
0.10202,0.0050842,0.18265,0.034461,0.065134,-0.03056,0,0,0.15277,-0.039875,0,-0.079456,0,0,0,0.18889,0.028221,0.065134,-11.318,0.094083,0.14577,0.00012677,0.16,0.58,0
0.10506,0.0092167,0.17858,0.03253,0.063334,-0.027214,0,0,0.14982,-0.040045,0,-0.070758,0,0,0,0.18365,0.027468,0.063334,-10.292,0.091483,0.1417,0.00011616,0.18,0.58,0
0.10802,0.013297,0.17446,0.032663,0.062138,-0.023682,0,0,0.14602,-0.038318,0,-0.061574,0,0,0,0.17844,0.028688,0.062138,-9.2775,0.089755,0.13615,0.00010432,0.2,0.58,0
0.1109,0.01738,0.17024,0.034211,0.061334,-0.020604,0,0,0.14157,-0.03526,0,-0.05357,0,0,0,0.1734,0.031046,0.061334,-8.4502,0.088594,0.1299,9.2619e-05,0.22,0.58,0
0.11368,0.021488,0.16568,0.036847,0.060757,-0.018207,0,0,0.1364,-0.031083,0,-0.047337,0,0,0,0.16832,0.034208,0.060757,-7.9042,0.08776,0.12301,8.104e-05,0.24,0.58,0
0.11635,0.025631,0.16043,0.039919,0.060105,-0.016401,0,0,0.13043,-0.026242,0,-0.042643,0,0,0,0.16275,0.037601,0.060105,-7.6125,0.086819,0.11556,6.9511e-05,0.26,0.58,0
0.11889,0.029818,0.15443,0.042549,0.059094,-0.01488,0,0,0.12394,-0.021508,0,-0.038687,0,0,0,0.15652,0.040457,0.059094,-7.4248,0.085358,0.10797,5.848e-05,0.28,0.58,0
0.12131,0.034055,0.14831,0.04408,0.057719,-0.013555,0,0,0.11778,-0.01773,0,-0.035242,0,0,0,0.15022,0.042175,0.057719,-7.2484,0.083371,0.10118,4.921e-05,0.3,0.58,0
0.12361,0.038347,0.14223,0.043668,0.055771,-0.012599,0,0,0.1124,-0.015734,0,-0.032758,0,0,0,0.14399,0.041908,0.055771,-7.1151,0.080558,0.095911,4.2309e-05,0.32,0.58,0
0.12581,0.042691,0.13606,0.04052,0.052973,-0.01219,0,0,0.10801,-0.016189,0,-0.031695,0,0,0,0.13775,0.038826,0.052973,-7.0838,0.076517,0.092676,3.7777e-05,0.34,0.58,0
0.12793,0.047073,0.12977,0.034464,0.049269,-0.012542,0,0,0.10465,-0.019246,0,-0.03261,0,0,0,0.13155,0.032683,0.049269,-7.2695,0.071166,0.091735,3.5329e-05,0.36,0.58,0
0.12999,0.051467,0.12302,0.02586,0.044665,-0.013815,0,0,0.10186,-0.024446,0,-0.035919,0,0,0,0.12512,0.023757,0.044665,-7.7878,0.064515,0.092758,3.4031e-05,0.38,0.58,0
0.132,0.055848,0.11531,0.015326,0.039192,-0.015938,0,0,0.098958,-0.031026,0,-0.041438,0,0,0,0.11802,0.012618,0.039192,-8.633,0.05661,0.095024,3.2669e-05,0.4,0.58,0
0.13395,0.060197,0.10602,0.0032983,0.032794,-0.018616,0,0,0.095188,-0.038345,0,-0.048402,0,0,0,0.10961,-0.0002919,0.032794,-9.6814,0.04737,0.097739,3.0079e-05,0.42,0.58,0
0.13581,0.064509,0.09448,-0.010372,0.025232,-0.021437,0,0,0.090022,-0.046286,0,-0.055737,0,0,0,0.09915,-0.015042,0.025232,-10.743,0.036447,0.10041,2.5352e-05,0.44,0.58,0
0.13755,0.068803,0.08016,-0.026863,0.015989,-0.023931,0,0,0.083422,-0.055708,0,-0.06222,0,0,0,0.085915,-0.032618,0.015989,-11.547,0.023095,0.10334,1.7813e-05,0.46,0.58,0
0.13915,0.073134,0.064337,-0.049014,0.0045971,-0.024577,0,0,0.077662,-0.069694,0,-0.063901,0,0,0,0.070198,-0.054875,0.0045971,-11.244,0.0066402,0.10856,6.1719e-06,0.48,0.58,0
0.14066,0.077712,0.046367,-0.073248,-0.0080641,-0.020375,0,0,0.078819,-0.10323,0,-0.054415,0,0,0,0.050617,-0.077497,-0.0080641,-8.5604,-0.011648,0.11136,-1.3865e-05,0.5,0.58,0
0.14227,0.082783,0.03454,-0.08096,-0.013926,-0.012969,0,0,0.10738,-0.17046,0,-0.051604,0,0,0,0.036737,-0.083158,-0.013926,-5.1623,-0.020116,0.10466,-2.613e-05,0.52,0.58,0
0.14524,0.087485,0.040871,-0.066263,-0.0076175,-0.0081265,0,0,0.21098,-0.26795,0,-0.074135,0,0,0,0.041916,-0.067308,-0.0076175,-3.7719,-0.011003,0.095298,-1.3529e-05,0.54,0.58,0
0.15183,0.091466,0.051528,-0.0446,0.0020782,-0.0050751,0,0,0.38528,-0.35761,0,-0.072497,0,0,0,0.052127,-0.0452,0.0020782,-2.6735,0.0030019,0.084609,1.1917e-06,0.56,0.58,0
0.16191,0.096198,0.054426,-0.025236,0.0087571,-0.0011435,0,0,0.52177,-0.37744,0,-0.014962,0,0,0,0.054777,-0.025586,0.0087571,-0.35631,0.012649,0.069948,4.2919e-06,0.58,0.58,0
0.17316,0.10194,0.057292,-0.012201,0.013527,0.0018399,0,0,0.56894,-0.33447,0,0.047837,0,0,0,0.057549,-0.012459,0.013527,1.6992,0.019539,0.061337,5.0782e-06,0.6,0.58,0
0.18467,0.10783,0.062269,-0.0054857,0.017035,0.0031778,0,0,0.58805,-0.29277,0,0.082624,0,0,0,0.062574,-0.0057903,0.017035,2.7929,0.024606,0.060302,6.0873e-06,0.62,0.58,0
0.19668,0.11334,0.066922,-0.0020949,0.019448,0.0034016,0,0,0.61716,-0.28006,0,0.088442,0,0,0,0.067238,-0.0024106,0.019448,2.9042,0.028092,0.061699,7.215e-06,0.64,0.58,0
0.20935,0.11788,0.071306,-0.0014151,0.020967,0.0025665,0,0,0.6544,-0.29097,0,0.066729,0,0,0,0.071549,-0.0016586,0.020967,2.1121,0.030286,0.064924,8.591e-06,0.66,0.58,0
0.22285,0.12103,0.075604,-0.0021427,0.022038,0.0011377,0,0,0.69635,-0.31435,0,0.029579,0,0,0,0.075759,-0.0022978,0.022038,0.92885,0.031833,0.06918,1.0264e-05,0.68,0.58,0
0.23721,0.12265,0.079696,-0.0031212,0.022972,-0.00035953,0,0,0.7374,-0.33922,0,-0.0093478,0,0,0,0.079804,-0.0032296,0.022972,-0.17502,0.033182,0.073524,1.2101e-05,0.7,0.58,0
0.25235,0.12285,0.08348,-0.0037297,0.023925,-0.0015884,0,0,0.77421,-0.35951,0,-0.041299,0,0,0,0.083585,-0.0038355,0.023925,-0.98898,0.034558,0.077371,1.3954e-05,0.72,0.58,0
0.26818,0.12187,0.086912,-0.0039566,0.024887,-0.0024355,0,0,0.80633,-0.37496,0,-0.063322,0,0,0,0.087034,-0.0040792,0.024887,-1.4956,0.035947,0.080632,1.5746e-05,0.74,0.58,0
0.2846,0.11999,0.089997,-0.0040191,0.025793,-0.0029919,0,0,0.83465,-0.38756,0,-0.077789,0,0,0,0.090138,-0.0041598,0.025793,-1.7946,0.037257,0.083455,1.7457e-05,0.76,0.58,0
0.30156,0.11746,0.092743,-0.0039744,0.026631,-0.0034397,0,0,0.85947,-0.39787,0,-0.089433,0,0,0,0.092901,-0.0041324,0.026631,-2.0184,0.038467,0.085889,1.9062e-05,0.78,0.58,0
0.31898,0.11443,0.095124,-0.0036818,0.027433,-0.0038988,0,0,0.87998,-0.40449,0,-0.10137,0,0,0,0.095303,-0.0038612,0.027433,-2.2485,0.039625,0.087805,2.0486e-05,0.8,0.58,0
0.33676,0.11102,0.097094,-0.0029853,0.028232,-0.0043586,0,0,0.89519,-0.40583,0,-0.11332,0,0,0,0.0973,-0.0031914,0.028232,-2.4869,0.04078,0.08904,2.1629e-05,0.82,0.58,0
0.35479,0.10738,0.098636,-0.0018549,0.029034,-0.0047203,0,0,0.90482,-0.40156,0,-0.12273,0,0,0,0.098867,-0.0020855,0.029034,-2.684,0.041938,0.089545,2.2424e-05,0.84,0.58,0
0.37295,0.10364,0.099785,-0.0003941,0.029817,-0.0048775,0,0,0.90958,-0.39275,0,-0.12681,0,0,0,0.10003,-0.00063584,0.029817,-2.7818,0.04307,0.089415,2.2871e-05,0.86,0.58,0
0.39117,0.099978,0.10062,0.0012229,0.030551,-0.0047676,0,0,0.91083,-0.38127,0,-0.12396,0,0,0,0.10085,0.00099202,0.030551,-2.7401,0.04413,0.088843,2.3031e-05,0.88,0.58,0
0.40939,0.096573,0.10121,0.0028174,0.031208,-0.0043845,0,0,0.91,-0.36907,0,-0.114,0,0,0,0.1014,0.0026199,0.031208,-2.5455,0.045077,0.088045,2.2997e-05,0.9,0.58,0
0.42757,0.093577,0.10163,0.0042468,0.031764,-0.0037643,0,0,0.9083,-0.35772,0,-0.097871,0,0,0,0.10178,0.0040984,0.031764,-2.2085,0.045881,0.087207,2.2861e-05,0.92,0.58,0
0.44572,0.091119,0.10194,0.0054167,0.032207,-0.0029623,0,0,0.90651,-0.34827,0,-0.07702,0,0,0,0.10203,0.0053217,0.032207,-1.7543,0.046521,0.086464,2.2699e-05,0.94,0.58,0
0.46383,0.089298,0.10215,0.0062739,0.032527,-0.002036,0,0,0.90508,-0.34129,0,-0.052936,0,0,0,0.1022,0.0062256,0.032527,-1.2145,0.046983,0.085896,2.2558e-05,0.96,0.58,0
0.48192,0.08818,0.10227,0.0067939,0.03272,-0.0012178,0,0,0.90419,-0.33704,0,-0.031662,0,0,0,0.10229,0.0067757,0.03272,-0.73003,0.047262,0.085547,2.2467e-05,0.98,0.58,0
0.49096,0.087803,0.10231,0.0069678,0.032785,-0.00088691,0,0,0.90389,-0.33562,0,-0.02306,0,0,0,0.10232,0.0069593,0.032785,-0.53287,0.047356,0.085431,2.2436e-05,1,0.58,0
0.012338,-0.00039002,0.16583,0.066076,0.069573,-0.0011088,0,0,1.2514,-0.045456,0,-0.028829,0,0,0,0.16591,0.066,0.069573,-0.4274,0.10049,0.098238,5.2388e-05,0,0.6,0
0.025028,-0.0025648,0.17218,0.0578,0.068994,3.9428e-05,0,0,1.2296,-0.10329,0,0.010136,0,0,0,0.17232,0.057658,0.068994,0.24133,0.099658,0.10982,0.00011337,0.02,0.6,0
0.049743,-0.0079268,0.18727,0.048441,0.070714,-0.0021557,0,0,1.0672,-0.17044,0,0.064253,0,0,0,0.18852,0.047195,0.070714,0.075266,0.10214,0.13144,0.00022264,0.04,0.6,0
0.069748,-0.011952,0.19386,0.053786,0.074292,-0.013555,0,0,0.71596,-0.12948,0,0.030037,0,0,0,0.19811,0.049531,0.074292,-4.1549,0.10731,0.13799,0.00024185,0.06,0.6,0
0.081103,-0.011499,0.19015,0.06207,0.075665,-0.027469,0,0,0.37319,-0.051639,0,-0.057542,0,0,0,0.1979,0.054322,0.075665,-10.407,0.10929,0.13421,0.00018995,0.08,0.6,0
0.086217,-0.0082509,0.19472,0.061479,0.07686,-0.034425,0,0,0.2067,-0.02445,0,-0.09739,0,0,0,0.20377,0.052433,0.07686,-13.338,0.11102,0.14076,0.00016458,0.1,0.6,0
0.089629,-0.0041957,0.20261,0.052183,0.076438,-0.033277,0,0,0.17037,-0.031638,0,-0.089854,0,0,0,0.21009,0.044701,0.076438,-12.096,0.11041,0.15208,0.00016275,0.12,0.6,0
0.092995,1.0334e-05,0.20142,0.03935,0.072232,-0.029051,0,0,0.16795,-0.042746,0,-0.075534,0,0,0,0.20675,0.034018,0.072232,-9.9592,0.10433,0.15719,0.00016063,0.14,0.6,0
0.096347,0.0041952,0.19536,0.031261,0.067988,-0.025508,0,0,0.16559,-0.047745,0,-0.066322,0,0,0,0.19944,0.027181,0.067988,-8.6893,0.098204,0.15592,0.00015121,0.16,0.6,0
0.099619,0.0083344,0.18899,0.028875,0.06536,-0.022212,0,0,0.16072,-0.047431,0,-0.05775,0,0,0,0.19222,0.02565,0.06536,-7.7991,0.094409,0.15069,0.00013613,0.18,0.6,0
0.10278,0.012467,0.1825,0.029307,0.063543,-0.018712,0,0,0.15465,-0.044506,0,-0.04865,0,0,0,0.18494,0.026866,0.063543,-6.8991,0.091784,0.14331,0.00011904,0.2,0.6,0
0.1058,0.016628,0.17607,0.031395,0.062239,-0.015352,0,0,0.14798,-0.040098,0,-0.039914,0,0,0,0.17786,0.029601,0.062239,-6.0162,0.089901,0.13495,0.00010226,0.22,0.6,0
0.1087,0.020833,0.16993,0.034683,0.061384,-0.012494,0,0,0.14111,-0.034711,0,-0.032485,0,0,0,0.17127,0.033342,0.061384,-5.2579,0.088665,0.12628,8.685e-05,0.24,0.6,0
0.11144,0.025083,0.16329,0.038239,0.060458,-0.010218,0,0,0.13368,-0.028885,0,-0.026566,0,0,0,0.16435,0.037181,0.060458,-4.6604,0.087328,0.11729,7.2424e-05,0.26,0.6,0
0.11403,0.029372,0.15576,0.041069,0.05905,-0.0083533,0,0,0.12573,-0.023376,0,-0.021719,0,0,0,0.15662,0.040215,0.05905,-4.1514,0.085294,0.10824,5.8925e-05,0.28,0.6,0
0.11648,0.033691,0.14881,0.042946,0.057527,-0.0069392,0,0,0.11867,-0.018955,0,-0.018042,0,0,0,0.1495,0.04225,0.057527,-3.7362,0.083094,0.1005,4.8322e-05,0.3,0.6,0
0.11879,0.03803,0.14226,0.043038,0.055589,-0.0061088,0,0,0.11267,-0.016317,0,-0.015883,0,0,0,0.14287,0.04243,0.055589,-3.5061,0.080296,0.094549,4.0764e-05,0.32,0.6,0
0.12098,0.042374,0.13548,0.040474,0.052786,-0.005848,0,0,0.1075,-0.016006,0,-0.015205,0,0,0,0.13607,0.039888,0.052786,-3.4918,0.076247,0.090425,3.5456e-05,0.34,0.6,0
0.12309,0.046705,0.12866,0.035164,0.049148,-0.0061226,0,0,0.10337,-0.018178,0,-0.015919,0,0,0,0.12929,0.034534,0.049148,-3.6926,0.070991,0.088381,3.2184e-05,0.36,0.6,0
0.12512,0.051008,0.1215,0.027284,0.044636,-0.0068541,0,0,0.099925,-0.022557,0,-0.017821,0,0,0,0.12226,0.026529,0.044636,-4.0774,0.064474,0.088124,3.0084e-05,0.38,0.6,0
0.12709,0.055268,0.11354,0.01722,0.039227,-0.0078411,0,0,0.096604,-0.02861,0,-0.020387,0,0,0,0.1145,0.016256,0.039227,-4.5447,0.056662,0.089074,2.8123e-05,0.4,0.6,0
0.12898,0.059476,0.1042,0.0052598,0.032839,-0.0087688,0,0,0.092773,-0.035853,0,-0.022799,0,0,0,0.10544,0.0040259,0.032839,-4.9452,0.047434,0.09059,2.5316e-05,0.42,0.6,0
0.1308,0.063632,0.092874,-0.0087665,0.025232,-0.0092665,0,0,0.087934,-0.044198,0,-0.024093,0,0,0,0.094399,-0.010291,0.025232,-5.1193,0.036446,0.092312,2.0895e-05,0.44,0.6,0
0.1325,0.06774,0.078997,-0.026001,0.015899,-0.0090125,0,0,0.082028,-0.05447,0,-0.023433,0,0,0,0.08079,-0.027795,0.015899,-4.9228,0.022965,0.094784,1.4292e-05,0.46,0.6,0
0.13408,0.071794,0.064088,-0.049147,0.0044822,-0.0086713,0,0,0.077487,-0.069718,0,-0.022545,0,0,0,0.065874,-0.050934,0.0044822,-4.5762,0.0064743,0.10142,4.415e-06,0.48,0.6,0
0.1356,0.075666,0.047152,-0.075408,-0.0084768,-0.0096866,0,0,0.080581,-0.1055,0,-0.037692,0,0,0,0.048823,-0.07708,-0.0084768,-5.0865,-0.012244,0.10948,-1.5881e-05,0.5,0.6,0
0.13727,0.078857,0.038061,-0.083331,-0.013581,-0.012034,0,0,0.10117,-0.17484,0,-0.072924,0,0,0,0.039965,-0.085235,-0.013581,-6.4757,-0.019617,0.10943,-2.6414e-05,0.52,0.6,0
0.13976,0.080951,0.046933,-0.067741,-0.0062423,-0.013398,0,0,0.17313,-0.24778,0,-0.10413,0,0,0,0.048878,-0.069685,-0.0062423,-7.1217,-0.0090167,0.10366,-9.9661e-06,0.54,0.6,0
0.14496,0.083376,0.058419,-0.04865,0.0029308,-0.011671,0,0,0.3297,-0.30627,0,-0.12084,0,0,0,0.059854,-0.050085,0.0029308,-6.1832,0.0042334,0.095667,4.0645e-06,0.56,0.6,0
0.15431,0.088209,0.063305,-0.030128,0.0099531,-0.0075393,0,0,0.51129,-0.35619,0,-0.11253,0,0,0,0.064116,-0.030939,0.0099531,-4.1077,0.014377,0.082721,7.5578e-06,0.58,0.6,0
0.16644,0.094934,0.065611,-0.014881,0.015219,-0.0033758,0,0,0.6165,-0.36258,0,-0.069973,0,0,0,0.06595,-0.01522,0.015219,-1.9138,0.021983,0.071069,8.7061e-06,0.6,0.6,0
0.17926,0.10174,0.068277,-0.0064327,0.018553,-0.001041,0,0,0.64641,-0.32482,0,-0.027067,0,0,0,0.06841,-0.0065651,0.018553,-0.5977,0.026799,0.066124,8.0765e-06,0.62,0.6,0
0.1923,0.10761,0.072458,-0.0015019,0.021287,-0.00079955,0,0,0.66522,-0.29625,0,-0.020788,0,0,0,0.07258,-0.0016243,0.021287,-0.48754,0.030748,0.065819,9.0051e-06,0.64,0.6,0
0.20587,0.11201,0.076581,-5.4679e-05,0.022958,-0.0017464,0,0,0.6971,-0.29916,0,-0.045407,0,0,0,0.076741,-0.00021433,0.022958,-1.179,0.033161,0.068381,1.0427e-05,0.66,0.6,0
0.22018,0.11471,0.080549,-0.00078374,0.02393,-0.0029937,0,0,0.73606,-0.32127,0,-0.077837,0,0,0,0.080757,-0.00099105,0.02393,-2.001,0.034565,0.072572,1.2248e-05,0.68,0.6,0
0.23531,0.11583,0.084278,-0.0019981,0.024684,-0.0040635,0,0,0.77472,-0.34687,0,-0.10565,0,0,0,0.084535,-0.0022554,0.024684,-2.6182,0.035654,0.076944,1.4217e-05,0.7,0.6,0
0.25117,0.1156,0.087543,-0.0029517,0.025378,-0.0048274,0,0,0.80816,-0.36828,0,-0.12551,0,0,0,0.087843,-0.0032514,0.025378,-2.998,0.036656,0.080684,1.6071e-05,0.72,0.6,0
0.26764,0.1143,0.090319,-0.0035076,0.026043,-0.0052971,0,0,0.83558,-0.38416,0,-0.13772,0,0,0,0.090646,-0.0038348,0.026043,-3.1906,0.037618,0.083645,1.7712e-05,0.74,0.6,0
0.2846,0.11218,0.092677,-0.003734,0.026683,-0.0055472,0,0,0.85792,-0.39542,0,-0.14423,0,0,0,0.093016,-0.0040734,0.026683,-3.2623,0.038542,0.085943,1.9136e-05,0.76,0.6,0
0.30195,0.10948,0.094683,-0.0036885,0.027298,-0.0056806,0,0,0.876,-0.40283,0,-0.14769,0,0,0,0.095025,-0.0040312,0.027298,-3.2815,0.039431,0.087695,2.0356e-05,0.78,0.6,0
0.31964,0.10635,0.096365,-0.0033534,0.027903,-0.0057713,0,0,0.89,-0.40634,0,-0.15005,0,0,0,0.096709,-0.0036973,0.027903,-3.2942,0.040305,0.088922,2.1357e-05,0.8,0.6,0
0.33755,0.10294,0.097729,-0.0026897,0.028512,-0.0058286,0,0,0.89982,-0.40562,0,-0.15154,0,0,0,0.098073,-0.0030338,0.028512,-3.3073,0.041184,0.089601,2.2107e-05,0.82,0.6,0
0.35563,0.099378,0.098781,-0.0017041,0.029123,-0.0058077,0,0,0.90555,-0.40075,0,-0.151,0,0,0,0.099119,-0.0020426,0.029123,-3.2954,0.042067,0.089735,2.2585e-05,0.84,0.6,0
0.37378,0.095805,0.099549,-0.00047071,0.029724,-0.0056467,0,0,0.90774,-0.39253,0,-0.14682,0,0,0,0.099869,-0.00079069,0.029724,-3.2201,0.042934,0.089399,2.28e-05,0.86,0.6,0
0.39194,0.09236,0.10008,0.00089005,0.030292,-0.0053005,0,0,0.90729,-0.38223,0,-0.13781,0,0,0,0.10037,0.00060589,0.030292,-3.0487,0.043755,0.088726,2.2799e-05,0.88,0.6,0
0.41007,0.089183,0.10044,0.0022465,0.030806,-0.0047552,0,0,0.90524,-0.37127,0,-0.12364,0,0,0,0.10067,0.0020145,0.030806,-2.7639,0.044498,0.087875,2.2652e-05,0.9,0.6,0
0.42815,0.086402,0.10067,0.0034831,0.031247,-0.0040259,0,0,0.90255,-0.36093,0,-0.10467,0,0,0,0.10084,0.0033134,0.031247,-2.3654,0.045135,0.086996,2.2432e-05,0.92,0.6,0
0.44617,0.084126,0.10082,0.0045133,0.031601,-0.0031459,0,0,0.8999,-0.35215,0,-0.081792,0,0,0,0.10093,0.0044062,0.031601,-1.8663,0.045647,0.086208,2.2202e-05,0.94,0.6,0
0.46414,0.082441,0.10092,0.0052802,0.03186,-0.0021555,0,0,0.89777,-0.34554,0,-0.056042,0,0,0,0.10097,0.0052262,0.03186,-1.2884,0.04602,0.085597,2.2009e-05,0.96,0.6,0
0.48208,0.081406,0.10097,0.005751,0.032017,-0.0012637,0,0,0.89642,-0.34146,0,-0.032857,0,0,0,0.10099,0.005731,0.032017,-0.75939,0.046247,0.085216,2.1884e-05,0.98,0.6,0
0.49104,0.081058,0.10099,0.0059094,0.03207,-0.0008896,0,0,0.89595,-0.34008,0,-0.023129,0,0,0,0.101,0.0059006,0.03207,-0.53591,0.046323,0.085087,2.1841e-05,1,0.6,0
0.014531,-0.0017404,0.19504,0.074331,0.080813,-0.007086,0,0,1.485,-0.08426,0,-0.18424,0,0,0,0.19571,0.073665,0.080813,-3.0614,0.11673,0.11877,8.8304e-05,0,0.62,0
0.0297,-0.0051938,0.20563,0.060867,0.079948,-0.0061396,0,0,1.3672,-0.13393,0,-0.13863,0,0,0,0.20633,0.060158,0.079948,-2.2882,0.11548,0.13809,0.0002038,0.02,0.62,0
0.055805,-0.011615,0.21963,0.049203,0.08065,-0.011211,0,0,0.96309,-0.15337,0,-0.074264,0,0,0,0.22233,0.046503,0.08065,-3.8622,0.11649,0.16222,0.00036028,0.04,0.62,0
0.070782,-0.014232,0.21649,0.061753,0.083473,-0.025939,0,0,0.47998,-0.07804,0,-0.086323,0,0,0,0.22338,0.054864,0.083473,-9.7205,0.12057,0.15662,0.00031484,0.06,0.62,0
0.076723,-0.01225,0.21383,0.070783,0.085382,-0.035477,0,0,0.23481,-0.028052,0,-0.10997,0,0,0,0.22275,0.061856,0.085382,-13.128,0.12333,0.15055,0.00021045,0.08,0.62,0
0.080404,-0.0087572,0.219,0.062763,0.08453,-0.033668,0,0,0.18244,-0.028843,0,-0.091734,0,0,0,0.2264,0.055363,0.08453,-11.737,0.1221,0.15853,0.00019086,0.1,0.62,0
0.083973,-0.0049221,0.21671,0.048665,0.079612,-0.027888,0,0,0.17823,-0.040231,0,-0.072508,0,0,0,0.22159,0.043782,0.079612,-9.257,0.11499,0.16293,0.00018595,0.12,0.62,0
0.087533,-0.00091796,0.20963,0.035624,0.073575,-0.022647,0,0,0.17687,-0.049336,0,-0.058882,0,0,0,0.21274,0.032506,0.073575,-7.3403,0.10628,0.16364,0.00017805,0.14,0.62,0
0.091048,0.0031744,0.20282,0.028126,0.069284,-0.018948,0,0,0.1736,-0.053506,0,-0.049264,0,0,0,0.20504,0.025911,0.069284,-6.1485,0.10008,0.16186,0.0001665,0.16,0.62,0
0.094475,0.0073195,0.19603,0.025666,0.066508,-0.015826,0,0,0.16838,-0.053095,0,-0.041147,0,0,0,0.19765,0.024044,0.066508,-5.2854,0.096068,0.15675,0.00015047,0.18,0.62,0
0.097778,0.011517,0.18886,0.026389,0.064576,-0.012628,0,0,0.16157,-0.049643,0,-0.032833,0,0,0,0.18999,0.02526,0.064576,-4.4313,0.093276,0.14902,0.00013153,0.2,0.62,0
0.10094,0.015776,0.18134,0.028736,0.063023,-0.0091519,0,0,0.15381,-0.044573,0,-0.023795,0,0,0,0.18206,0.028017,0.063023,-3.4242,0.091033,0.13987,0.00011203,0.22,0.62,0
0.10393,0.020098,0.17404,0.032078,0.061835,-0.0057169,0,0,0.14586,-0.038684,0,-0.014864,0,0,0,0.17448,0.031632,0.061835,-2.3116,0.089317,0.13042,9.411e-05,0.24,0.62,0
0.10677,0.024473,0.16659,0.035857,0.060735,-0.0028357,0,0,0.13761,-0.032341,0,-0.0073729,0,0,0,0.16691,0.035539,0.060735,-1.2654,0.087728,0.12078,7.7899e-05,0.26,0.62,0
0.10943,0.02888,0.15855,0.039298,0.059355,-0.00083014,0,0,0.12896,-0.026074,0,-0.0021584,0,0,0,0.15882,0.039026,0.059355,-0.44282,0.085735,0.11106,6.2988e-05,0.28,0.62,0
0.11193,0.033296,0.1512,0.041935,0.057941,0.00031049,0,0,0.12124,-0.020808,0,0.00080728,0,0,0,0.15146,0.041679,0.057941,0.10493,0.083692,0.10263,5.1174e-05,0.3,0.62,0
0.11429,0.037695,0.14443,0.042725,0.056147,0.00078054,0,0,0.11477,-0.017449,0,0.0020294,0,0,0,0.14468,0.042482,0.056147,0.3778,0.081101,0.096096,4.2737e-05,0.32,0.62,0
0.11652,0.042051,0.13756,0.040806,0.053509,0.00053756,0,0,0.10926,-0.016513,0,0.0013977,0,0,0,0.13776,0.040602,0.053509,0.2597,0.07729,0.091393,3.6729e-05,0.34,0.62,0
0.11866,0.046346,0.13067,0.035958,0.049988,-8.4005e-05,0,0,0.10488,-0.018238,0,-0.00021841,0,0,0,0.13083,0.035794,0.049988,-0.092316,0.072204,0.088811,3.2923e-05,0.36,0.62,0
0.12072,0.050565,0.12367,0.028214,0.045565,-0.00033935,0,0,0.10154,-0.022556,0,-0.00088232,0,0,0,0.12386,0.028024,0.045565,-0.25501,0.065816,0.088419,3.0758e-05,0.38,0.62,0
0.12272,0.054704,0.11642,0.018022,0.040334,-0.00020854,0,0,0.098916,-0.029004,0,-0.0005422,0,0,0,0.11668,0.017764,0.040334,-0.21334,0.05826,0.089845,2.9332e-05,0.4,0.62,0
0.12467,0.058763,0.10858,0.0057322,0.034293,0.00020079,0,0,0.096569,-0.037129,0,0.00052207,0,0,0,0.1089,0.0054065,0.034293,-0.044779,0.049534,0.092576,2.7633e-05,0.42,0.62,0
0.12658,0.062741,0.10004,-0.0087432,0.027388,0.001223,0,0,0.094443,-0.046971,0,0.0031799,0,0,0,0.10043,-0.0091405,0.027388,0.38979,0.039561,0.096727,2.5085e-05,0.44,0.62,0
0.12845,0.066624,0.09146,-0.026103,0.019607,0.0028296,0,0,0.093409,-0.059423,0,0.0073569,0,0,0,0.091905,-0.026547,0.019607,1.0276,0.028321,0.10353,2.148e-05,0.46,0.62,0
0.13032,0.070346,0.084108,-0.048537,0.010671,0.002986,0,0,0.095468,-0.076971,0,0.0077636,0,0,0,0.084502,-0.048931,0.010671,1.0024,0.015414,0.11594,1.5157e-05,0.48,0.62,0
0.13227,0.073608,0.075869,-0.07408,0.00053673,-0.0018795,0,0,0.10076,-0.10317,0,-0.012745,0,0,0,0.076424,-0.074635,0.00053673,-1.248,0.00077527,0.13108,4.395e-07,0.5,0.62,0
0.13434,0.07582,0.069835,-0.081691,-0.0035569,-0.010649,0,0,0.10441,-0.13114,0,-0.049293,0,0,0,0.071239,-0.083096,-0.0035569,-5.0695,-0.0051377,0.13411,-7.4556e-06,0.52,0.62,0
0.13642,0.077003,0.068515,-0.066104,0.00072348,-0.015834,0,0,0.11985,-0.14617,0,-0.073182,0,0,0,0.070665,-0.068253,0.00072348,-7.5072,0.001045,0.12079,1.9497e-06,0.54,0.62,0
0.1393,0.078282,0.069048,-0.048996,0.0060156,-0.01463,0,0,0.20485,-0.17446,0,-0.092499,0,0,0,0.07095,-0.050897,0.0060156,-7.4228,0.0086892,0.10585,1.0465e-05,0.56,0.62,0
0.14554,0.081342,0.075216,-0.033333,0.012565,-0.011102,0,0,0.39514,-0.25669,0,-0.12063,0,0,0,0.076439,-0.034556,0.012565,-5.8274,0.018149,0.096627,1.7283e-05,0.58,0.62,0
0.15673,0.087274,0.08062,-0.01834,0.018684,-0.0073918,0,0,0.60378,-0.34211,0,-0.12993,0,0,0,0.081259,-0.018979,0.018684,-4.0168,0.026988,0.087753,2.0054e-05,0.6,0.62,0
0.17091,0.094838,0.080074,-0.0075566,0.021755,-0.0047701,0,0,0.71271,-0.3524,0,-0.11522,0,0,0,0.080384,-0.0078668,0.021755,-2.9642,0.031424,0.077833,1.4971e-05,0.62,0.62,0
0.18557,0.10149,0.080867,-0.00054728,0.024096,-0.0044885,0,0,0.73803,-0.32036,0,-0.1167,0,0,0,0.08117,-0.00085033,0.024096,-3.0348,0.034805,0.07284,1.2548e-05,0.64,0.62,0
0.20043,0.10591,0.08389,0.0012274,0.025535,-0.0055169,0,0,0.75862,-0.316,0,-0.14344,0,0,0,0.084314,0.00080392,0.025535,-3.6936,0.036884,0.074299,1.3712e-05,0.66,0.62,0
0.21592,0.10818,0.087053,0.00013166,0.026155,-0.006496,0,0,0.79166,-0.33831,0,-0.1689,0,0,0,0.087576,-0.00039141,0.026155,-4.1726,0.03778,0.078153,1.554e-05,0.68,0.62,0
0.2321,0.10877,0.089919,-0.001342,0.026573,-0.0070437,0,0,0.8235,-0.3629,0,-0.18314,0,0,0,0.090485,-0.0019075,0.026573,-4.3411,0.038384,0.081953,1.7352e-05,0.7,0.62,0
0.24886,0.10811,0.092263,-0.0025556,0.026912,-0.0073021,0,0,0.84956,-0.38308,0,-0.18985,0,0,0,0.092838,-0.0031301,0.026912,-4.3505,0.038873,0.085026,1.8909e-05,0.72,0.62,0
0.26608,0.1065,0.094157,-0.0033374,0.027246,-0.0073716,0,0,0.86985,-0.39758,0,-0.19166,0,0,0,0.094722,-0.0039017,0.027246,-4.2827,0.039355,0.08732,2.0182e-05,0.74,0.62,0
0.28365,0.10418,0.095695,-0.0037005,0.027598,-0.007309,0,0,0.88526,-0.40689,0,-0.19003,0,0,0,0.096237,-0.0042422,0.027598,-4.1725,0.039864,0.088941,2.1193e-05,0.76,0.62,0
0.30149,0.10135,0.096944,-0.0037006,0.027973,-0.0071669,0,0,0.89663,-0.41176,0,-0.18634,0,0,0,0.097457,-0.0042134,0.027973,-4.0459,0.040406,0.090003,2.1971e-05,0.78,0.62,0
0.31952,0.098176,0.097946,-0.0033753,0.028371,-0.0069818,0,0,0.90447,-0.4127,0,-0.18153,0,0,0,0.098428,-0.0038576,0.028371,-3.9192,0.04098,0.090579,2.2534e-05,0.8,0.62,0
0.33767,0.0948,0.09872,-0.0027497,0.028791,-0.0067593,0,0,0.90908,-0.41003,0,-0.17574,0,0,0,0.099171,-0.0032001,0.028791,-3.7918,0.041587,0.09071,2.2887e-05,0.82,0.62,0
0.35588,0.091346,0.099286,-0.0018629,0.029227,-0.0064751,0,0,0.91076,-0.40417,0,-0.16835,0,0,0,0.0997,-0.002277,0.029227,-3.6463,0.042217,0.090439,2.3036e-05,0.84,0.62,0
0.3741,0.087936,0.099666,-0.00078351,0.029665,-0.0060919,0,0,0.91001,-0.39583,0,-0.15839,0,0,0,0.10004,-0.0011528,0.029665,-3.4563,0.042849,0.089836,2.3001e-05,0.86,0.62,0
0.39228,0.084689,0.099895,0.00039523,0.030087,-0.0055779,0,0,0.9075,-0.38599,0,-0.14503,0,0,0,0.10021,8.1982e-05,0.030087,-3.1967,0.043459,0.089003,2.2821e-05,0.88,0.62,0
0.4104,0.081722,0.10001,0.0015719,0.030476,-0.0049188,0,0,0.90399,-0.37575,0,-0.12789,0,0,0,0.10026,0.0013244,0.030476,-2.8509,0.04402,0.088059,2.2549e-05,0.9,0.62,0
0.42844,0.079139,0.10006,0.0026529,0.030814,-0.004119,0,0,0.90021,-0.36609,0,-0.10709,0,0,0,0.10024,0.0024755,0.030814,-2.4143,0.044509,0.087122,2.2241e-05,0.92,0.62,0
0.44641,0.077033,0.10007,0.0035626,0.031089,-0.003198,0,0,0.89673,-0.35785,0,-0.083149,0,0,0,0.10018,0.0034521,0.031089,-1.8932,0.044907,0.086294,2.195e-05,0.94,0.62,0
0.46431,0.075477,0.10006,0.0042466,0.031292,-0.0021838,0,0,0.89398,-0.35159,0,-0.056778,0,0,0,0.10011,0.0041912,0.031292,-1.3029,0.045199,0.085652,2.1714e-05,0.96,0.62,0
0.48217,0.074522,0.10005,0.0046695,0.031416,-0.0012633,0,0,0.89224,-0.3477,0,-0.032845,0,0,0,0.10007,0.0046493,0.031416,-0.75781,0.045378,0.085249,2.1563e-05,0.98,0.62,0
0.49109,0.0742,0.10005,0.0048125,0.031457,-0.00086942,0,0,0.89164,-0.34638,0,-0.022605,0,0,0,0.10005,0.0048039,0.031457,-0.52293,0.045438,0.085113,2.1512e-05,1,0.62,0
0.015357,-0.0037604,0.20548,0.07766,0.084942,-0.013508,0,0,1.567,-0.094674,0,-0.3512,0,0,0,0.20717,0.07597,0.084942,-5.973,0.12269,0.12709,0.00010357,0,0.64,0
0.03134,-0.0080609,0.20749,0.064137,0.081488,-0.014233,0,0,1.4029,-0.12131,0,-0.31633,0,0,0,0.20977,0.061851,0.081488,-5.9179,0.1177,0.13997,0.00016312,0.02,0.64,0
0.056674,-0.014394,0.20967,0.054072,0.079123,-0.021948,0,0,0.88914,-0.10364,0,-0.23405,0,0,0,0.21525,0.048491,0.079123,-8.7693,0.11429,0.15484,0.00023882,0.04,0.64,0
0.067934,-0.015321,0.21273,0.067039,0.083931,-0.033696,0,0,0.3641,-0.038269,0,-0.15114,0,0,0,0.22197,0.057798,0.083931,-13.172,0.12123,0.15342,0.00022001,0.06,0.64,0
0.071619,-0.012675,0.22066,0.070443,0.087331,-0.035235,0,0,0.18451,-0.023337,0,-0.099446,0,0,0,0.22896,0.062146,0.087331,-12.758,0.12614,0.15583,0.00018922,0.08,0.64,0
0.075225,-0.0094043,0.22394,0.056503,0.084134,-0.028142,0,0,0.18175,-0.03592,0,-0.073168,0,0,0,0.22891,0.051542,0.084134,-9.3491,0.12153,0.16359,0.00019452,0.1,0.64,0
0.078889,-0.005805,0.21913,0.04221,0.078402,-0.021313,0,0,0.18295,-0.04705,0,-0.055413,0,0,0,0.22191,0.039434,0.078402,-6.8148,0.11325,0.16649,0.0001934,0.12,0.64,0
0.082543,-0.0019631,0.21285,0.031349,0.07326,-0.016121,0,0,0.18147,-0.054484,0,-0.041915,0,0,0,0.21446,0.029741,0.07326,-5.0591,0.10582,0.16728,0.0001865,0.14,0.64,0
0.086148,0.0020533,0.20653,0.024814,0.069405,-0.012205,0,0,0.17827,-0.057968,0,-0.031734,0,0,0,0.20752,0.023834,0.069405,-3.8403,0.10025,0.16567,0.00017545,0.16,0.64,0
0.089667,0.0062017,0.20008,0.022382,0.06674,-0.0089711,0,0,0.17335,-0.057664,0,-0.023325,0,0,0,0.20072,0.021743,0.06674,-2.9,0.096402,0.16127,0.00016052,0.18,0.64,0
0.093068,0.010463,0.19297,0.022938,0.064772,-0.0056703,0,0,0.16666,-0.054384,0,-0.014743,0,0,0,0.19339,0.022512,0.064772,-1.9312,0.09356,0.15417,0.00014205,0.2,0.64,0
0.096326,0.014826,0.18515,0.025236,0.063115,-0.0020178,0,0,0.15864,-0.049243,0,-0.0052462,0,0,0,0.18544,0.024948,0.063115,-0.74497,0.091166,0.14523,0.00012198,0.22,0.64,0
0.099424,0.019278,0.17738,0.028786,0.06185,0.0016403,0,0,0.15019,-0.042982,0,0.0042647,0,0,0,0.17764,0.028524,0.06185,0.61346,0.089338,0.13558,0.00010289,0.24,0.64,0
0.10235,0.023792,0.17014,0.03333,0.06104,0.0046554,0,0,0.14183,-0.036023,0,0.012104,0,0,0,0.17051,0.032959,0.06104,1.9203,0.088169,0.1259,8.6065e-05,0.26,0.64,0
0.1051,0.028333,0.16275,0.037848,0.060178,0.006643,0,0,0.13334,-0.02903,0,0.017272,0,0,0,0.1633,0.037293,0.060178,2.9857,0.086924,0.11629,7.093e-05,0.28,0.64,0
0.10769,0.032861,0.15538,0.041276,0.058996,0.0076444,0,0,0.1253,-0.023036,0,0.019875,0,0,0,0.15609,0.040558,0.058996,3.7343,0.085216,0.10753,5.8066e-05,0.3,0.64,0
0.11012,0.037332,0.14856,0.042744,0.05739,0.0078867,0,0,0.11852,-0.01904,0,0.020505,0,0,0,0.14936,0.041942,0.05739,4.1301,0.082897,0.10059,4.8539e-05,0.32,0.64,0
0.11242,0.04171,0.14198,0.041392,0.055012,0.0073199,0,0,0.11306,-0.017706,0,0.019032,0,0,0,0.14277,0.040604,0.055012,3.9911,0.079461,0.095784,4.2015e-05,0.34,0.64,0
0.11463,0.045971,0.13531,0.036661,0.051593,0.0062738,0,0,0.10884,-0.019411,0,0.016312,0,0,0,0.13598,0.035991,0.051593,3.4639,0.074523,0.093198,3.7879e-05,0.36,0.64,0
0.11677,0.050102,0.1289,0.028694,0.047278,0.0058589,0,0,0.10611,-0.024159,0,0.015233,0,0,0,0.12944,0.028151,0.047278,3.1932,0.068291,0.093256,3.5894e-05,0.38,0.64,0
0.11888,0.054107,0.12296,0.018084,0.042312,0.0063175,0,0,0.10484,-0.031497,0,0.016426,0,0,0,0.12348,0.01756,0.042312,3.2983,0.061118,0.096035,3.5526e-05,0.4,0.64,0
0.12097,0.057991,0.11719,0.0052358,0.036728,0.0072104,0,0,0.1046,-0.040939,0,0.018747,0,0,0,0.11778,0.0046475,0.036728,3.52,0.053051,0.10106,3.561e-05,0.42,0.64,0
0.12306,0.061753,0.11184,-0.0096913,0.030645,0.0084549,0,0,0.10556,-0.052437,0,0.021983,0,0,0,0.11252,-0.010373,0.030645,3.813,0.044265,0.10846,3.5458e-05,0.44,0.64,0
0.12519,0.065363,0.10777,-0.02695,0.024245,0.0094263,0,0,0.10858,-0.066553,0,0.024508,0,0,0,0.10847,-0.027659,0.024245,3.9042,0.03502,0.11908,3.4618e-05,0.46,0.64,0
0.1274,0.068715,0.10512,-0.047214,0.017373,0.0080774,0,0,0.11408,-0.083963,0,0.021001,0,0,0,0.10563,-0.047723,0.017373,3.0873,0.025094,0.1334,3.1081e-05,0.48,0.64,0
0.12975,0.071575,0.10219,-0.067083,0.010534,0.00207,0,0,0.11916,-0.1009,0,0.005382,0,0,0,0.10248,-0.067366,0.010534,0.80964,0.015215,0.14735,2.3023e-05,0.5,0.64,0
0.13217,0.073682,0.099013,-0.073703,0.0075929,-0.007185,0,0,0.11885,-0.10569,0,-0.018681,0,0,0,0.09968,-0.07437,0.0075929,-2.4832,0.010968,0.1509,1.7966e-05,0.52,0.64,0
0.13451,0.07503,0.094477,-0.064704,0.0089319,-0.013672,0,0,0.11507,-0.099641,0,-0.039076,0,0,0,0.095874,-0.066101,0.0089319,-5.2459,0.012902,0.14047,1.9702e-05,0.54,0.64,0
0.13675,0.075865,0.087904,-0.050782,0.011137,-0.013982,0,0,0.13357,-0.10423,0,-0.051764,0,0,0,0.089406,-0.052283,0.011137,-6.0431,0.016086,0.123,2.2452e-05,0.56,0.64,0
0.14004,0.077043,0.088586,-0.034849,0.016121,-0.010688,0,0,0.239,-0.15026,0,-0.067901,0,0,0,0.089629,-0.035893,0.016121,-4.8439,0.023286,0.10935,3.0725e-05,0.58,0.64,0
0.14737,0.080615,0.098074,-0.020515,0.023268,-0.0080016,0,0,0.46212,-0.24738,0,-0.10233,0,0,0,0.098736,-0.021176,0.023268,-3.5502,0.033609,0.10507,4.5492e-05,0.6,0.64,0
0.16034,0.087481,0.10197,-0.0087671,0.02796,-0.0069306,0,0,0.69676,-0.32512,0,-0.13584,0,0,0,0.10246,-0.0092645,0.02796,-3.4604,0.040386,0.098608,4.6183e-05,0.62,0.64,0
0.17656,0.094793,0.097413,0.00063084,0.029413,-0.0066172,0,0,0.81889,-0.33842,0,-0.15966,0,0,0,0.097905,0.00013825,0.029413,-3.9435,0.042486,0.086949,2.9309e-05,0.64,0.64,0
0.19344,0.099367,0.094648,0.0028577,0.029252,-0.0075125,0,0,0.85015,-0.34312,0,-0.19532,0,0,0,0.095291,0.0022145,0.029252,-4.6503,0.042252,0.082937,1.9676e-05,0.66,0.64,0
0.21056,0.10118,0.09543,0.00084488,0.028882,-0.00858,0,0,0.86512,-0.36449,0,-0.22308,0,0,0,0.096208,6.7131e-05,0.028882,-5.1291,0.041719,0.08546,2.0495e-05,0.68,0.64,0
0.22805,0.10131,0.096507,-0.0010164,0.028647,-0.0088113,0,0,0.88218,-0.38563,0,-0.22909,0,0,0,0.0973,-0.0018093,0.028647,-5.1135,0.041379,0.087932,2.1494e-05,0.7,0.64,0
0.24585,0.10027,0.097456,-0.0024738,0.028495,-0.0087515,0,0,0.89649,-0.40259,0,-0.22754,0,0,0,0.098219,-0.0032368,0.028495,-4.9624,0.041159,0.089894,2.2351e-05,0.72,0.64,0
0.26391,0.098394,0.098247,-0.0034202,0.028448,-0.0085486,0,0,0.90739,-0.41429,0,-0.22226,0,0,0,0.098963,-0.0041358,0.028448,-4.7699,0.041092,0.091278,2.3012e-05,0.74,0.64,0
0.28215,0.095909,0.098874,-0.0038825,0.028498,-0.0082619,0,0,0.9149,-0.42094,0,-0.21481,0,0,0,0.099536,-0.004544,0.028498,-4.5656,0.041163,0.092116,2.3472e-05,0.76,0.64,0
0.3005,0.093007,0.099348,-0.0039292,0.028626,-0.0079264,0,0,0.91939,-0.42321,0,-0.20609,0,0,0,0.099954,-0.0045351,0.028626,-4.3619,0.041348,0.092481,2.3745e-05,0.78,0.64,0
0.31892,0.08984,0.099683,-0.0036282,0.028816,-0.007561,0,0,0.92126,-0.42178,0,-0.19658,0,0,0,0.10023,-0.0041796,0.028816,-4.1627,0.041624,0.092443,2.3852e-05,0.8,0.64,0
0.33735,0.086537,0.099892,-0.0030398,0.029056,-0.0071655,0,0,0.92088,-0.41724,0,-0.1863,0,0,0,0.10039,-0.0035371,0.029056,-3.9622,0.041969,0.092064,2.381e-05,0.82,0.64,0
0.35576,0.083212,0.09999,-0.002225,0.02933,-0.006723,0,0,0.91859,-0.41021,0,-0.1748,0,0,0,0.10043,-0.0026662,0.02933,-3.746,0.042365,0.091402,2.3635e-05,0.84,0.64,0
0.3741,0.079972,0.099994,-0.0012538,0.029622,-0.0062083,0,0,0.91483,-0.40138,0,-0.16141,0,0,0,0.10037,-0.0016344,0.029622,-3.4944,0.042787,0.090523,2.3351e-05,0.86,0.64,0
0.39235,0.07692,0.099925,-0.00020622,0.029916,-0.0055984,0,0,0.91012,-0.39159,0,-0.14556,0,0,0,0.10024,-0.00052017,0.029916,-3.1883,0.043212,0.089511,2.299e-05,0.88,0.64,0
0.4105,0.074153,0.099812,0.00083503,0.030194,-0.0048806,0,0,0.90503,-0.38167,0,-0.1269,0,0,0,0.10005,0.00059221,0.030194,-2.8138,0.043614,0.088459,2.2592e-05,0.9,0.64,0
0.42855,0.071758,0.099681,0.0017928,0.030442,-0.0040548,0,0,0.9001,-0.37244,0,-0.10542,0,0,0,0.099852,0.0016214,0.030442,-2.3653,0.043972,0.087458,2.2199e-05,0.92,0.64,0
0.44651,0.069812,0.099555,0.0026022,0.030647,-0.0031322,0,0,0.8958,-0.36458,0,-0.081437,0,0,0,0.09966,0.0024964,0.030647,-1.846,0.044268,0.086592,2.1851e-05,0.94,0.64,0
0.46438,0.068377,0.099452,0.0032136,0.0308,-0.0021325,0,0,0.89248,-0.35862,0,-0.055444,0,0,0,0.099505,0.0031609,0.0308,-1.2668,0.044489,0.085927,2.1579e-05,0.96,0.64,0
0.48221,0.067498,0.099386,0.0035933,0.030894,-0.0012231,0,0,0.8904,-0.35491,0,-0.031801,0,0,0,0.099406,0.0035743,0.030894,-0.7306,0.044625,0.08551,2.1407e-05,0.98,0.64,0
0.49111,0.067202,0.099364,0.003722,0.030926,-0.00083009,0,0,0.88969,-0.35365,0,-0.021582,0,0,0,0.099372,0.0037141,0.030926,-0.49717,0.044671,0.085369,2.1349e-05,1,0.64,0
0.016605,-0.0055274,0.23271,0.080528,0.093971,-0.01876,0,0,1.5425,-0.080721,0,-0.39379,0,0,0,0.2354,0.07784,0.093971,-6.8391,0.13574,0.15074,0.00031575,0,0.66,0
0.031562,-0.010116,0.22824,0.073768,0.090603,-0.022309,0,0,1.3172,-0.087472,0,-0.35106,0,0,0,0.23286,0.069155,0.090603,-8.2683,0.13087,0.15489,0.00034191,0.02,0.66,0
0.05403,-0.015884,0.22011,0.069997,0.087031,-0.032155,0,0,0.77994,-0.058449,0,-0.27655,0,0,0,0.22904,0.061066,0.087031,-12.395,0.12571,0.15735,0.00029851,0.04,0.66,0
0.063307,-0.015802,0.22227,0.071514,0.088134,-0.037592,0,0,0.32412,-0.023947,0,-0.17014,0,0,0,0.23234,0.061439,0.088134,-14.008,0.1273,0.15959,0.00022131,0.06,0.66,0
0.066912,-0.013169,0.22744,0.062745,0.087057,-0.031796,0,0,0.1825,-0.031605,0,-0.08267,0,0,0,0.23412,0.056073,0.087057,-10.867,0.12575,0.16482,0.00020876,0.08,0.66,0
0.070607,-0.010194,0.22423,0.048653,0.081866,-0.022506,0,0,0.18508,-0.043177,0,-0.058515,0,0,0,0.2275,0.045384,0.081866,-7.2747,0.11825,0.16694,0.00020103,0.1,0.66,0
0.074315,-0.0068041,0.21865,0.036413,0.07652,-0.015123,0,0,0.18477,-0.052139,0,-0.039319,0,0,0,0.22013,0.034937,0.07652,-4.7393,0.11053,0.16833,0.00019512,0.12,0.66,0
0.077998,-0.0030973,0.21256,0.027111,0.071901,-0.0098561,0,0,0.18286,-0.058227,0,-0.025626,0,0,0,0.21324,0.026431,0.071901,-3.0413,0.10386,0.16875,0.00018757,0.14,0.66,0
0.08163,0.00085362,0.20669,0.021159,0.068356,-0.0057801,0,0,0.17984,-0.061356,0,-0.015028,0,0,0,0.20701,0.020838,0.068356,-1.785,0.098736,0.16755,0.00017772,0.16,0.66,0
0.085185,0.0050024,0.20082,0.018327,0.065745,-0.002014,0,0,0.1756,-0.061644,0,-0.0052364,0,0,0,0.20102,0.018131,0.065745,-0.63656,0.094965,0.16434,0.00016525,0.18,0.66,0
0.08864,0.0093206,0.19437,0.018101,0.063742,0.0019103,0,0,0.16982,-0.059333,0,0.0049668,0,0,0,0.19461,0.017864,0.063742,0.60677,0.092072,0.15887,0.00014973,0.2,0.66,0
0.091971,0.013786,0.18748,0.02038,0.062357,0.0056961,0,0,0.16266,-0.05457,0,0.01481,0,0,0,0.18789,0.019968,0.062357,1.9296,0.090072,0.15127,0.0001322,0.22,0.66,0
0.095157,0.018371,0.18072,0.024922,0.061692,0.0090217,0,0,0.15473,-0.047801,0,0.023456,0,0,0,0.18143,0.02421,0.061692,3.2813,0.089111,0.14226,0.00011444,0.24,0.66,0
0.098182,0.023034,0.17444,0.030775,0.061564,0.011748,0,0,0.14674,-0.040026,0,0.030546,0,0,0,0.17557,0.029648,0.061564,4.615,0.088926,0.13289,9.8019e-05,0.26,0.66,0
0.10104,0.027723,0.16791,0.036427,0.061301,0.013715,0,0,0.13859,-0.032336,0,0.035658,0,0,0,0.16949,0.034844,0.061301,5.8456,0.088547,0.12359,8.2824e-05,0.28,0.66,0
0.10373,0.032376,0.16097,0.040759,0.060519,0.014733,0,0,0.13059,-0.025688,0,0.038305,0,0,0,0.16291,0.038824,0.060519,6.8086,0.087417,0.1148,6.9119e-05,0.3,0.66,0
0.10626,0.036933,0.15441,0.043019,0.059228,0.014888,0,0,0.12373,-0.021072,0,0.038708,0,0,0,0.15651,0.040913,0.059228,7.3773,0.085551,0.10763,5.8405e-05,0.32,0.66,0
0.10867,0.04134,0.1482,0.042121,0.057096,0.014441,0,0,0.11844,-0.019468,0,0.037546,0,0,0,0.15031,0.040006,0.057096,7.478,0.082473,0.10284,5.1148e-05,0.34,0.66,0
0.11099,0.045565,0.14208,0.03734,0.053827,0.013315,0,0,0.11473,-0.021433,0,0.034619,0,0,0,0.14397,0.035457,0.053827,6.9822,0.07775,0.10061,4.6824e-05,0.36,0.66,0
0.11325,0.049596,0.13659,0.029034,0.049688,0.012046,0,0,0.11298,-0.02685,0,0.031321,0,0,0,0.13808,0.02755,0.049688,6.1983,0.071771,0.10133,4.5199e-05,0.38,0.66,0
0.11551,0.053443,0.13193,0.017859,0.044936,0.011681,0,0,0.11309,-0.0352,0,0.030372,0,0,0,0.13318,0.016608,0.044936,5.7039,0.064907,0.10537,4.5918e-05,0.4,0.66,0
0.11778,0.057125,0.12778,0.0043985,0.039653,0.01222,0,0,0.11456,-0.045831,0,0.031773,0,0,0,0.12901,0.0031627,0.039653,5.5351,0.057276,0.11222,4.7672e-05,0.42,0.66,0
0.12009,0.060643,0.12432,-0.010728,0.034078,0.012906,0,0,0.11732,-0.058248,0,0.033556,0,0,0,0.12557,-0.011972,0.034078,5.3735,0.049224,0.12133,4.9239e-05,0.44,0.66,0
0.12247,0.063962,0.12179,-0.027206,0.028374,0.012645,0,0,0.12144,-0.072255,0,0.032876,0,0,0,0.12288,-0.028299,0.028374,4.8352,0.040985,0.13235,4.959e-05,0.46,0.66,0
0.12495,0.066987,0.11974,-0.044229,0.022654,0.0098874,0,0,0.12622,-0.086948,0,0.025707,0,0,0,0.12043,-0.044915,0.022654,3.506,0.032723,0.14404,4.7256e-05,0.48,0.66,0
0.12752,0.069572,0.11755,-0.05816,0.017818,0.0037702,0,0,0.12966,-0.098772,0,0.0098025,0,0,0,0.11783,-0.058438,0.017818,1.2823,0.025737,0.15316,4.247e-05,0.5,0.66,0
0.13013,0.071592,0.11552,-0.063695,0.015548,-0.0041691,0,0,0.12997,-0.10302,0,-0.01084,0,0,0,0.11583,-0.064008,0.015548,-1.3476,0.022458,0.15612,3.8921e-05,0.52,0.66,0
0.13272,0.073039,0.11375,-0.060846,0.015872,-0.010773,0,0,0.12724,-0.099733,0,-0.028009,0,0,0,0.11454,-0.061631,0.015872,-3.5691,0.022926,0.15295,3.8384e-05,0.54,0.66,0
0.13522,0.074014,0.11061,-0.052134,0.017542,-0.013449,0,0,0.12553,-0.093452,0,-0.036163,0,0,0,0.11174,-0.053269,0.017542,-4.7132,0.025339,0.14341,3.9061e-05,0.56,0.66,0
0.13771,0.074759,0.10657,-0.037819,0.020626,-0.010709,0,0,0.15328,-0.097513,0,-0.031467,0,0,0,0.1075,-0.038745,0.020626,-3.723,0.029793,0.12746,4.3e-05,0.58,0.66,0
0.14154,0.076485,0.1108,-0.024429,0.025912,-0.0071133,0,0,0.30009,-0.1464,0,-0.040362,0,0,0,0.1114,-0.025023,0.025912,-2.1245,0.037429,0.11963,6.1215e-05,0.6,0.66,0
0.15086,0.081256,0.1181,-0.012028,0.031821,-0.0062416,0,0,0.60086,-0.24269,0,-0.072248,0,0,0,0.11859,-0.012524,0.031821,-2.1699,0.045964,0.11597,6.9586e-05,0.62,0.66,0
0.16721,0.087817,0.11346,0.0012941,0.034425,-0.0057415,0,0,0.86675,-0.32621,0,-0.11423,0,0,0,0.11388,0.00086604,0.034425,-2.8469,0.049725,0.1008,4.5137e-05,0.64,0.66,0
0.18623,0.092186,0.10617,0.0051353,0.033392,-0.0067922,0,0,0.94612,-0.36733,0,-0.1766,0,0,0,0.10671,0.0045964,0.033392,-3.8684,0.048233,0.091202,2.6586e-05,0.66,0.66,0
0.20505,0.093597,0.10407,0.0017205,0.031736,-0.0086251,0,0,0.94028,-0.3902,0,-0.22425,0,0,0,0.10481,0.00098019,0.031736,-4.8075,0.04584,0.092376,2.6055e-05,0.68,0.66,0
0.22384,0.093349,0.10302,-0.00079844,0.030667,-0.0090853,0,0,0.94061,-0.40905,0,-0.23622,0,0,0,0.10382,-0.0015933,0.030667,-4.9777,0.044296,0.09355,2.5929e-05,0.7,0.66,0
0.24268,0.092011,0.10251,-0.0025593,0.029986,-0.0090469,0,0,0.94284,-0.42309,0,-0.23522,0,0,0,0.10329,-0.0033358,0.029986,-4.8942,0.043313,0.09448,2.5931e-05,0.72,0.66,0
0.26155,0.08993,0.1022,-0.0036604,0.029562,-0.0087817,0,0,0.9443,-0.43189,0,-0.22833,0,0,0,0.10293,-0.0043865,0.029562,-4.7158,0.042701,0.095003,2.5886e-05,0.74,0.66,0
0.28045,0.087341,0.10194,-0.0042013,0.029321,-0.0084117,0,0,0.94403,-0.43579,0,-0.2187,0,0,0,0.1026,-0.0048659,0.029321,-4.507,0.042353,0.095102,2.5739e-05,0.76,0.66,0
0.29932,0.08442,0.10167,-0.0042859,0.029216,-0.0079935,0,0,0.94194,-0.43553,0,-0.20783,0,0,0,0.10227,-0.0048875,0.029216,-4.2923,0.042201,0.094827,2.5488e-05,0.78,0.66,0
0.31812,0.081304,0.10138,-0.0040094,0.029212,-0.0075496,0,0,0.93823,-0.43188,0,-0.19629,0,0,0,0.10192,-0.0045492,0.029212,-4.0777,0.042196,0.094243,2.5145e-05,0.8,0.66,0
0.33685,0.07811,0.10107,-0.0034541,0.029285,-0.0070804,0,0,0.93322,-0.42561,0,-0.18409,0,0,0,0.10155,-0.0039333,0.029285,-3.8581,0.042301,0.093415,2.4727e-05,0.82,0.66,0
0.35545,0.074938,0.10074,-0.0026948,0.029413,-0.0065735,0,0,0.92723,-0.4174,0,-0.17091,0,0,0,0.10116,-0.0031127,0.029413,-3.6215,0.042486,0.092405,2.4252e-05,0.84,0.66,0
0.37393,0.071881,0.10039,-0.0018041,0.029577,-0.0060101,0,0,0.92062,-0.40795,0,-0.15626,0,0,0,0.10075,-0.0021585,0.029577,-3.353,0.042722,0.091276,2.3737e-05,0.86,0.66,0
0.39228,0.069026,0.10005,-0.00085471,0.029759,-0.0053733,0,0,0.91379,-0.39797,0,-0.13971,0,0,0,0.10034,-0.0011426,0.029759,-3.0379,0.042985,0.090097,2.3209e-05,0.88,0.66,0
0.41049,0.066455,0.099723,8.2382e-05,0.029942,-0.0046524,0,0,0.90716,-0.38817,0,-0.12096,0,0,0,0.099943,-0.00013749,0.029942,-2.6654,0.043249,0.088941,2.2695e-05,0.9,0.66,0
0.42857,0.064242,0.099428,0.00094199,0.030111,-0.0038457,0,0,0.90112,-0.3792,0,-0.099989,0,0,0,0.099581,0.00078829,0.030111,-2.2304,0.043494,0.087881,2.2225e-05,0.92,0.66,0
0.44653,0.06245,0.099181,0.0016684,0.030255,-0.0029607,0,0,0.89604,-0.37162,0,-0.076977,0,0,0,0.099275,0.0015742,0.030255,-1.7353,0.043702,0.086983,2.1826e-05,0.94,0.66,0
0.46441,0.061132,0.098996,0.002218,0.030364,-0.0020115,0,0,0.89221,-0.3659,0,-0.052298,0,0,0,0.099043,0.0021713,0.030364,-1.1884,0.043859,0.086301,2.1524e-05,0.96,0.66,0
0.48222,0.060325,0.098881,0.0025599,0.030432,-0.0011487,0,0,0.88983,-0.36234,0,-0.029867,0,0,0,0.098898,0.0025431,0.030432,-0.68248,0.043958,0.085877,2.1336e-05,0.98,0.66,0
0.49111,0.060054,0.098842,0.0026759,0.030455,-0.00077444,0,0,0.88903,-0.36113,0,-0.020136,0,0,0,0.098849,0.002669,0.030455,-0.46135,0.043991,0.085734,2.1273e-05,1,0.66,0
0.020027,-0.0069448,0.28819,0.085698,0.11217,-0.026177,0,0,1.5714,-0.061963,0,-0.47424,0,0,0,0.29267,0.081218,0.11217,-7.5255,0.16202,0.19925,0.00063327,0,0.68,0
0.033639,-0.011546,0.27601,0.079026,0.10651,-0.028548,0,0,1.1933,-0.061348,0,-0.38057,0,0,0,0.28223,0.072804,0.10651,-9.1374,0.15385,0.19602,0.00067155,0.02,0.68,0
0.051925,-0.016771,0.25183,0.076088,0.098375,-0.032197,0,0,0.58211,-0.038876,0,-0.2434,0,0,0,0.26028,0.06764,0.098375,-11.723,0.1421,0.17987,0.00052971,0.04,0.68,0
0.058678,-0.01631,0.24416,0.071691,0.094754,-0.029956,0,0,0.27519,-0.028045,0,-0.13432,0,0,0,0.25105,0.064795,0.094754,-10.388,0.13687,0.17336,0.00031253,0.06,0.68,0
0.062705,-0.013939,0.2396,0.05637,0.08879,-0.022264,0,0,0.19605,-0.042147,0,-0.057886,0,0,0,0.24319,0.052774,0.08879,-6.8536,0.12825,0.17523,0.00024612,0.08,0.68,0
0.06652,-0.011131,0.22481,0.042807,0.080284,-0.014616,0,0,0.18788,-0.048721,0,-0.038002,0,0,0,0.22642,0.041195,0.080284,-4.5483,0.11597,0.16913,0.00020522,0.1,0.68,0
0.07022,-0.0078905,0.21519,0.031563,0.074025,-0.0086026,0,0,0.18351,-0.055201,0,-0.022367,0,0,0,0.21579,0.030958,0.074025,-2.6662,0.10692,0.16753,0.00018874,0.12,0.68,0
0.073861,-0.0042922,0.20863,0.023241,0.069562,-0.0040991,0,0,0.18079,-0.060217,0,-0.010658,0,0,0,0.20884,0.023028,0.069562,-1.2561,0.10048,0.16748,0.00018,0.14,0.68,0
0.077452,-0.00040001,0.20341,0.017693,0.066332,-0.0003859,0,0,0.17821,-0.063231,0,-0.0010033,0,0,0,0.20351,0.0176,0.066332,-0.11026,0.095813,0.16697,0.00017227,0.16,0.68,0
0.080987,0.0037416,0.19872,0.014688,0.064022,0.0032718,0,0,0.17511,-0.064135,0,0.0085068,0,0,0,0.19886,0.014546,0.064022,1.0273,0.092477,0.16523,0.00016367,0.18,0.68,0
0.084452,0.0081034,0.19405,0.014196,0.062473,0.0072049,0,0,0.17105,-0.06276,0,0.018733,0,0,0,0.19442,0.013827,0.062473,2.3022,0.090238,0.16185,0.00015338,0.2,0.68,0
0.087826,0.01266,0.1893,0.016542,0.061752,0.011131,0,0,0.16581,-0.058773,0,0.028939,0,0,0,0.1901,0.015744,0.061752,3.6852,0.089197,0.15651,0.00014127,0.22,0.68,0
0.091087,0.017375,0.18451,0.021565,0.061821,0.014725,0,0,0.15949,-0.052333,0,0.038286,0,0,0,0.18592,0.020146,0.061821,5.1323,0.089297,0.14938,0.00012767,0.24,0.68,0
0.094213,0.022193,0.17956,0.028109,0.062302,0.017781,0,0,0.15244,-0.044451,0,0.046231,0,0,0,0.18173,0.025941,0.062302,6.6054,0.089992,0.14119,0.00011337,0.26,0.68,0
0.097188,0.02704,0.17413,0.034654,0.062636,0.02003,0,0,0.14495,-0.036377,0,0.052079,0,0,0,0.17706,0.031731,0.062636,7.9931,0.090474,0.13263,9.8941e-05,0.28,0.68,0
0.10001,0.031833,0.16823,0.040088,0.062496,0.021203,0,0,0.13746,-0.02913,0,0.055127,0,0,0,0.17174,0.036582,0.062496,9.106,0.090272,0.12427,8.5157e-05,0.3,0.68,0
0.10269,0.036489,0.16231,0.043491,0.06174,0.021232,0,0,0.13074,-0.023724,0,0.055203,0,0,0,0.16606,0.039738,0.06174,9.7566,0.08918,0.1169,7.3228e-05,0.32,0.68,0
0.10524,0.040935,0.15658,0.043531,0.060034,0.020321,0,0,0.12551,-0.021455,0,0.052834,0,0,0,0.16018,0.039936,0.060034,9.8113,0.086716,0.11156,6.4311e-05,0.34,0.68,0
0.1077,0.045121,0.15119,0.039034,0.057068,0.018642,0,0,0.12236,-0.023444,0,0.048468,0,0,0,0.15426,0.035966,0.057068,9.1465,0.082432,0.1093,5.9231e-05,0.36,0.68,0
0.11013,0.049034,0.14646,0.030064,0.052956,0.016816,0,0,0.12155,-0.02976,0,0.043721,0,0,0,0.14889,0.027635,0.052956,8.0341,0.076493,0.11083,5.8135e-05,0.38,0.68,0
0.11257,0.0527,0.14244,0.017784,0.048067,0.015916,0,0,0.12268,-0.039367,0,0.041383,0,0,0,0.14447,0.015756,0.048067,7.1365,0.06943,0.11605,5.9997e-05,0.4,0.68,0
0.11504,0.056157,0.13894,0.003651,0.042778,0.016018,0,0,0.12501,-0.050865,0,0.041646,0,0,0,0.14083,0.0017626,0.042778,6.6364,0.06179,0.12383,6.2797e-05,0.42,0.68,0
0.11757,0.059423,0.13591,-0.011212,0.037408,0.016123,0,0,0.12805,-0.063207,0,0.041921,0,0,0,0.13767,-0.012977,0.037408,6.1757,0.054034,0.13288,6.4722e-05,0.44,0.68,0
0.12016,0.062473,0.13324,-0.026096,0.032144,0.015034,0,0,0.13143,-0.075712,0,0.039088,0,0,0,0.13469,-0.027542,0.032144,5.3638,0.04643,0.14216,6.4603e-05,0.46,0.68,0
0.12282,0.065237,0.13069,-0.03987,0.027247,0.01174,0,0,0.13448,-0.087252,0,0.030524,0,0,0,0.13159,-0.040767,0.027247,3.9551,0.039357,0.1504,6.1885e-05,0.48,0.68,0
0.12554,0.067624,0.12802,-0.050389,0.023289,0.0060376,0,0,0.13615,-0.095782,0,0.015698,0,0,0,0.12838,-0.050752,0.023289,1.962,0.03364,0.15594,5.7267e-05,0.5,0.68,0
0.12827,0.069561,0.12518,-0.055628,0.020867,-0.0010713,0,0,0.13561,-0.099443,0,-0.0027854,0,0,0,0.12537,-0.055817,0.020867,-0.33924,0.030141,0.15755,5.2596e-05,0.52,0.68,0
0.13096,0.071041,0.12239,-0.055412,0.020092,-0.0078734,0,0,0.13298,-0.098156,0,-0.020471,0,0,0,0.12288,-0.055907,0.020092,-2.5486,0.029022,0.15542,4.931e-05,0.54,0.68,0
0.13359,0.072136,0.11995,-0.050854,0.02073,-0.012465,0,0,0.12899,-0.093058,0,-0.032408,0,0,0,0.12092,-0.051824,0.02073,-4.1674,0.029943,0.15025,4.7423e-05,0.56,0.68,0
0.13612,0.073025,0.11599,-0.042464,0.022057,-0.01165,0,0,0.12862,-0.086742,0,-0.028266,0,0,0,0.11695,-0.043432,0.022057,-3.8806,0.03186,0.1397,4.5796e-05,0.58,0.68,0
0.13869,0.074225,0.11296,-0.03242,0.024161,-0.0070132,0,0,0.22902,-0.098614,0,-0.010388,0,0,0,0.11353,-0.032997,0.024161,-2.0236,0.034899,0.1284,4.6762e-05,0.6,0.68,0
0.14554,0.077098,0.1141,-0.016346,0.029327,-0.0037796,0,0,0.53825,-0.17245,0,-0.0043787,0,0,0,0.11446,-0.016701,0.029327,-0.89289,0.042362,0.11635,4.4916e-05,0.62,0.68,0
0.16087,0.081476,0.11413,0.0026009,0.035019,-0.002949,0,0,0.86777,-0.2887,0,-0.043426,0,0,0,0.11436,0.0023675,0.035019,-1.1934,0.050583,0.10039,3.5247e-05,0.64,0.68,0
0.1806,0.084674,0.1119,0.0075031,0.035822,-0.0047311,0,0,0.98907,-0.36815,0,-0.12301,0,0,0,0.1122,0.0072107,0.035822,-2.5492,0.051743,0.094026,2.9695e-05,0.66,0.68,0
0.20043,0.085574,0.10991,0.0027019,0.033784,-0.007184,0,0,0.98965,-0.40406,0,-0.18678,0,0,0,0.11042,0.0021926,0.033784,-3.8202,0.048799,0.096403,2.9912e-05,0.68,0.68,0
0.22019,0.08495,0.10809,-0.0005566,0.03226,-0.0081473,0,0,0.98578,-0.42661,0,-0.21183,0,0,0,0.10871,-0.0011778,0.03226,-4.2766,0.046598,0.097569,2.9539e-05,0.7,0.68,0
0.23986,0.083351,0.10671,-0.0026787,0.031209,-0.0083333,0,0,0.9815,-0.44054,0,-0.21667,0,0,0,0.10735,-0.0033192,0.031209,-4.3425,0.04508,0.098075,2.9025e-05,0.72,0.68,0
0.25945,0.081118,0.10558,-0.003946,0.03049,-0.0081599,0,0,0.97616,-0.44767,0,-0.21216,0,0,0,0.10619,-0.0045581,0.03049,-4.2458,0.044041,0.098042,2.8411e-05,0.74,0.68,0
0.27891,0.078477,0.10459,-0.00456,0.030008,-0.0078304,0,0,0.96953,-0.44939,0,-0.20359,0,0,0,0.10515,-0.0051251,0.030008,-4.0883,0.043345,0.097576,2.7726e-05,0.76,0.68,0
0.29823,0.075586,0.10369,-0.0046781,0.029703,-0.0074359,0,0,0.9618,-0.44695,0,-0.19333,0,0,0,0.1042,-0.0051912,0.029703,-3.9109,0.042904,0.096783,2.6999e-05,0.78,0.68,0
0.31738,0.072565,0.10286,-0.004425,0.02953,-0.0070099,0,0,0.95326,-0.44141,0,-0.18226,0,0,0,0.10332,-0.0048854,0.02953,-3.7248,0.042654,0.095753,2.6253e-05,0.8,0.68,0
0.33636,0.069512,0.10209,-0.0039005,0.029457,-0.006557,0,0,0.94425,-0.43365,0,-0.17048,0,0,0,0.1025,-0.0043084,0.029457,-3.5274,0.04255,0.09456,2.5506e-05,0.82,0.68,0
0.35515,0.066516,0.10139,-0.0031887,0.029459,-0.0060679,0,0,0.93505,-0.42442,0,-0.15776,0,0,0,0.10174,-0.003543,0.029459,-3.3097,0.042552,0.093269,2.4771e-05,0.84,0.68,0
0.37376,0.063654,0.10074,-0.0023634,0.029513,-0.0055287,0,0,0.92594,-0.41439,0,-0.14375,0,0,0,0.10104,-0.0026623,0.029513,-3.0598,0.04263,0.091938,2.4061e-05,0.86,0.68,0
0.39219,0.061001,0.10016,-0.0014929,0.029599,-0.0049266,0,0,0.91724,-0.40419,0,-0.12809,0,0,0,0.1004,-0.0017344,0.029599,-2.7668,0.042754,0.090624,2.3392e-05,0.88,0.68,0
0.41045,0.058626,0.099642,-0.00063999,0.029701,-0.0042537,0,0,0.90924,-0.39443,0,-0.1106,0,0,0,0.099825,-0.00082349,0.029701,-2.4226,0.042901,0.089386,2.2781e-05,0.9,0.68,0
0.42856,0.05659,0.099205,0.00013893,0.029803,-0.0035086,0,0,0.90223,-0.38564,0,-0.091224,0,0,0,0.099333,1.118e-05,0.029803,-2.0238,0.043049,0.088281,2.2247e-05,0.92,0.68,0
0.44654,0.054947,0.098855,0.00079579,0.029895,-0.0026971,0,0,0.89648,-0.37829,0,-0.070124,0,0,0,0.098933,0.00071772,0.029895,-1.5724,0.043182,0.087361,2.181e-05,0.94,0.68,0
0.46442,0.053741,0.098599,0.0012924,0.029967,-0.0018307,0,0,0.89221,-0.37278,0,-0.047598,0,0,0,0.098638,0.0012537,0.029967,-1.0759,0.043286,0.086671,2.1484e-05,0.96,0.68,0
0.48223,0.053005,0.098443,0.0016013,0.030013,-0.0010453,0,0,0.88958,-0.36935,0,-0.027179,0,0,0,0.098457,0.0015875,0.030013,-0.61777,0.043352,0.086245,2.1284e-05,0.98,0.68,0
0.49112,0.052757,0.09839,0.0017061,0.030029,-0.00070512,0,0,0.8887,-0.3682,0,-0.018333,0,0,0,0.098396,0.0017004,0.030029,-0.41783,0.043375,0.086101,2.1217e-05,1,0.68,0
0.019569,-0.0076339,0.27361,0.084,0.10728,-0.031049,0,0,1.5119,-0.020576,0,-0.67646,0,0,0,0.28087,0.076741,0.10728,-11.144,0.15497,0.19228,0.00050875,0,0.7,0
0.03252,-0.012271,0.25693,0.074282,0.099363,-0.028144,0,0,1.1315,-0.022587,0,-0.52839,0,0,0,0.26387,0.067343,0.099363,-10.588,0.14352,0.18403,0.00051747,0.02,0.7,0
0.049616,-0.017401,0.22864,0.066748,0.088617,-0.020436,0,0,0.53211,-0.022933,0,-0.24173,0,0,0,0.23349,0.061902,0.088617,-8.2087,0.128,0.16062,0.00038871,0.04,0.7,0
0.055671,-0.016997,0.22352,0.062611,0.08584,-0.013413,0,0,0.25025,-0.029872,0,-0.066118,0,0,0,0.22568,0.060449,0.08584,-4.8423,0.12399,0.15426,0.00023277,0.06,0.7,0
0.059418,-0.014855,0.2236,0.049462,0.08192,-0.0092721,0,0,0.18419,-0.042195,0,-0.024108,0,0,0,0.22451,0.048554,0.08192,-2.7731,0.11833,0.16193,0.00019843,0.08,0.7,0
0.063039,-0.012143,0.21272,0.037141,0.074958,-0.0057056,0,0,0.17909,-0.049163,0,-0.014835,0,0,0,0.21312,0.036744,0.074958,-1.7502,0.10827,0.16074,0.00017599,0.1,0.7,0
0.066582,-0.0090121,0.20523,0.027389,0.069785,-0.0024103,0,0,0.17607,-0.055114,0,-0.0062667,0,0,0,0.20538,0.027236,0.069785,-0.73129,0.1008,0.16116,0.00016639,0.12,0.7,0
0.070082,-0.005506,0.20011,0.020026,0.066041,0.00065699,0,0,0.17429,-0.05982,0,0.0017082,0,0,0,0.20019,0.019952,0.066041,0.23383,0.095393,0.16219,0.00016145,0.14,0.7,0
0.073553,-0.0016743,0.19648,0.014852,0.0634,0.0034164,0,0,0.173,-0.063112,0,0.0088826,0,0,0,0.19659,0.01474,0.0634,1.0908,0.091577,0.16307,0.00015801,0.16,0.7,0
0.077002,0.0024444,0.19382,0.01177,0.061678,0.0062874,0,0,0.17179,-0.064881,0,0.016347,0,0,0,0.19408,0.011511,0.061678,1.9816,0.08909,0.16337,0.000155,0.18,0.7,0
0.080425,0.0068264,0.19172,0.010979,0.06081,0.0097068,0,0,0.17018,-0.06478,0,0.025238,0,0,0,0.19229,0.010407,0.06081,3.0701,0.087837,0.16265,0.00015161,0.2,0.7,0
0.083809,0.011453,0.18977,0.012973,0.060822,0.013759,0,0,0.16763,-0.062205,0,0.035774,0,0,0,0.1909,0.011837,0.060822,4.4352,0.087854,0.1603,0.00014683,0.22,0.7,0
0.08713,0.016287,0.18769,0.018015,0.06171,0.017978,0,0,0.16377,-0.056804,0,0.046742,0,0,0,0.18965,0.016051,0.06171,6.004,0.089137,0.15588,0.0001398,0.24,0.7,0
0.09036,0.021258,0.18523,0.025152,0.063115,0.021658,0,0,0.15875,-0.049351,0,0.056311,0,0,0,0.18818,0.022203,0.063115,7.5959,0.091165,0.14979,0.00013051,0.26,0.7,0
0.09348,0.026268,0.18207,0.03246,0.064358,0.024448,0,0,0.15302,-0.041468,0,0.063565,0,0,0,0.18602,0.028509,0.064358,9.0686,0.092962,0.14302,0.00011976,0.28,0.7,0
0.096481,0.031211,0.17801,0.038733,0.065024,0.0263,0,0,0.14689,-0.034178,0,0.06838,0,0,0,0.18286,0.033886,0.065024,10.346,0.093924,0.13613,0.00010824,0.3,0.7,0
0.099356,0.035984,0.17325,0.043596,0.065055,0.026867,0,0,0.14066,-0.027896,0,0.069854,0,0,0,0.17864,0.038213,0.065055,11.216,0.093968,0.12913,9.6153e-05,0.32,0.7,0
0.10211,0.040486,0.16818,0.045526,0.064111,0.02567,0,0,0.13528,-0.024159,0,0.066741,0,0,0,0.17338,0.040325,0.064111,11.274,0.092604,0.12291,8.4861e-05,0.34,0.7,0
0.10477,0.044634,0.16311,0.041818,0.061477,0.02316,0,0,0.13212,-0.025557,0,0.060215,0,0,0,0.16745,0.037475,0.061477,10.386,0.0888,0.11981,7.7511e-05,0.36,0.7,0
0.10739,0.04841,0.15832,0.031731,0.057016,0.020827,0,0,0.1317,-0.032871,0,0.054151,0,0,0,0.16172,0.028335,0.057016,9.0869,0.082357,0.12166,7.5982e-05,0.38,0.7,0
0.11003,0.05187,0.15404,0.017811,0.051554,0.019792,0,0,0.13323,-0.043866,0,0.051459,0,0,0,0.15688,0.014964,0.051554,8.084,0.074467,0.12769,7.8357e-05,0.4,0.7,0
0.11272,0.05509,0.15013,0.0030809,0.045964,0.019773,0,0,0.13542,-0.055748,0,0.051411,0,0,0,0.15277,0.00044472,0.045964,7.5024,0.066392,0.13549,8.0978e-05,0.42,0.7,0
0.11545,0.058115,0.14635,-0.011056,0.040587,0.0196,0,0,0.13749,-0.067137,0,0.05096,0,0,0,0.14878,-0.013493,0.040587,6.978,0.058626,0.14316,8.1444e-05,0.44,0.7,0
0.11822,0.060934,0.14259,-0.024081,0.035551,0.018134,0,0,0.13914,-0.077522,0,0.047147,0,0,0,0.14459,-0.026089,0.035551,6.1401,0.051352,0.14974,7.9083e-05,0.46,0.7,0
0.12102,0.063497,0.13879,-0.035309,0.031043,0.014723,0,0,0.14007,-0.086258,0,0.03828,0,0,0,0.14013,-0.036649,0.031043,4.8111,0.04484,0.15451,7.4195e-05,0.48,0.7,0
0.12382,0.06574,0.13478,-0.043716,0.02732,0.0094034,0,0,0.1397,-0.092347,0,0.024449,0,0,0,0.13543,-0.044367,0.02732,3.0157,0.039462,0.15679,6.7655e-05,0.5,0.7,0
0.12661,0.067615,0.13038,-0.048435,0.024585,0.0028933,0,0,0.13754,-0.094926,0,0.0075226,0,0,0,0.13062,-0.048675,0.024585,0.92564,0.035511,0.15615,6.0617e-05,0.52,0.7,0
0.12932,0.069113,0.12547,-0.049438,0.02281,-0.0036324,0,0,0.13346,-0.093922,0,-0.0094442,0,0,0,0.12574,-0.049705,0.02281,-1.1968,0.032947,0.1527,5.3904e-05,0.54,0.7,0
0.13194,0.070292,0.12019,-0.047698,0.021746,-0.0086328,0,0,0.12797,-0.090278,0,-0.022445,0,0,0,0.12077,-0.048279,0.021746,-2.9373,0.031411,0.14712,4.7793e-05,0.56,0.7,0
0.13444,0.071301,0.11559,-0.045243,0.021105,-0.0097111,0,0,0.12283,-0.086252,0,-0.025249,0,0,0,0.11627,-0.045919,0.021105,-3.4175,0.030485,0.14117,4.2671e-05,0.58,0.7,0
0.13686,0.072428,0.11147,-0.038735,0.021822,-0.0063807,0,0,0.21884,-0.091442,0,-0.012078,0,0,0,0.11188,-0.039146,0.021822,-2.2145,0.03152,0.13215,3.3728e-05,0.6,0.7,0
0.1432,0.0741,0.10907,-0.017777,0.027389,-0.0025099,0,0,0.52352,-0.14456,0,-0.0020104,0,0,0,0.10925,-0.017955,0.027389,-0.79377,0.039562,0.11302,2.3673e-05,0.62,0.7,0
0.1578,0.076135,0.11072,0.0057468,0.034941,-0.0017318,0,0,0.85035,-0.25234,0,-0.031586,0,0,0,0.11083,0.0056453,0.034941,-0.82564,0.050471,0.09478,2.4046e-05,0.64,0.7,0
0.17721,0.07746,0.11279,0.0099416,0.036821,-0.0036105,0,0,0.98765,-0.34943,0,-0.093874,0,0,0,0.11296,0.0097801,0.036821,-1.9562,0.053185,0.0927,2.9394e-05,0.66,0.7,0
0.1973,0.077435,0.11252,0.0037045,0.034867,-0.0056484,0,0,1.0095,-0.40511,0,-0.14686,0,0,0,0.11283,0.0033947,0.034867,-2.9518,0.050364,0.097594,3.149e-05,0.68,0.7,0
0.21759,0.076285,0.11124,-0.00028087,0.033289,-0.0066587,0,0,1.0134,-0.43641,0,-0.17313,0,0,0,0.11165,-0.00069109,0.033289,-3.4091,0.048084,0.099797,3.1803e-05,0.7,0.7,0
0.23784,0.07439,0.10967,-0.0027633,0.032072,-0.0069468,0,0,1.0088,-0.45286,0,-0.18062,0,0,0,0.11011,-0.0032047,0.032072,-3.5298,0.046327,0.10044,3.1239e-05,0.72,0.7,0
0.25794,0.072023,0.10808,-0.0041887,0.031168,-0.0068768,0,0,0.99989,-0.45964,0,-0.1788,0,0,0,0.10852,-0.0046211,0.031168,-3.4987,0.045021,0.10016,3.0291e-05,0.74,0.7,0
0.27784,0.069365,0.10658,-0.0048691,0.030512,-0.0066511,0,0,0.98883,-0.45996,0,-0.17293,0,0,0,0.10698,-0.0052755,0.030512,-3.4081,0.044073,0.099324,2.9206e-05,0.76,0.7,0
0.2975,0.066542,0.10519,-0.0050192,0.030051,-0.0063586,0,0,0.9768,-0.45592,0,-0.16532,0,0,0,0.10556,-0.0053939,0.030051,-3.2942,0.043407,0.098159,2.8103e-05,0.78,0.7,0
0.31691,0.063648,0.10393,-0.0047919,0.029743,-0.0060298,0,0,0.96449,-0.44895,0,-0.15678,0,0,0,0.10428,-0.0051327,0.029743,-3.1662,0.042962,0.096803,2.7037e-05,0.8,0.7,0
0.33608,0.060764,0.10281,-0.0043011,0.029552,-0.0056678,0,0,0.95233,-0.44009,0,-0.14736,0,0,0,0.10311,-0.0046062,0.029552,-3.0212,0.042686,0.095346,2.6031e-05,0.82,0.7,0
0.355,0.057961,0.1018,-0.0036361,0.02945,-0.0052648,0,0,0.9406,-0.43012,0,-0.13688,0,0,0,0.10207,-0.0039033,0.02945,-2.8511,0.042539,0.093854,2.5097e-05,0.84,0.7,0
0.3737,0.055305,0.10092,-0.002871,0.029414,-0.00481,0,0,0.92954,-0.4197,0,-0.12506,0,0,0,0.10114,-0.0030978,0.029414,-2.6468,0.042486,0.092381,2.4239e-05,0.86,0.7,0
0.39218,0.052858,0.10014,-0.0020703,0.029421,-0.0042943,0,0,0.91936,-0.40939,0,-0.11165,0,0,0,0.10033,-0.0022541,0.029421,-2.4001,0.042498,0.090976,2.3465e-05,0.88,0.7,0
0.41047,0.050678,0.099479,-0.0012906,0.029456,-0.0037126,0,0,0.91029,-0.39971,0,-0.096527,0,0,0,0.099619,-0.0014307,0.029456,-2.1053,0.042548,0.089688,2.2785e-05,0.9,0.7,0
0.42859,0.048816,0.09893,-0.00058172,0.029504,-0.0030652,0,0,0.90253,-0.39112,0,-0.079695,0,0,0,0.099027,-0.00067941,0.029504,-1.7607,0.042617,0.088561,2.2207e-05,0.92,0.7,0
0.44657,0.047318,0.098497,1.4402e-05,0.029553,-0.0023579,0,0,0.89627,-0.38401,0,-0.061305,0,0,0,0.098557,-4.5366e-05,0.029553,-1.369,0.042688,0.087636,2.1743e-05,0.94,0.7,0
0.46445,0.046221,0.098185,0.0004644,0.029595,-0.0016013,0,0,0.89167,-0.3787,0,-0.041633,0,0,0,0.098215,0.00043478,0.029595,-0.93721,0.042748,0.086948,2.1404e-05,0.96,0.7,0
0.48224,0.045551,0.097996,0.00074412,0.029622,-0.00091858,0,0,0.88887,-0.37541,0,-0.023883,0,0,0,0.098007,0.00073345,0.029622,-0.5406,0.042788,0.086526,2.1197e-05,0.98,0.7,0
0.49113,0.045326,0.097933,0.00083899,0.029632,-0.00062495,0,0,0.88792,-0.37431,0,-0.016249,0,0,0,0.097938,0.00083455,0.029632,-0.36875,0.042801,0.086383,2.1128e-05,1,0.7,0
0.01462,-0.0071572,0.20036,0.076978,0.083201,-0.029523,0,0,1.3284,0.013139,0,-0.74919,0,0,0,0.20858,0.068753,0.083201,-14.446,0.12018,0.1339,0.00017142,0,0.72,0
0.027353,-0.011894,0.19322,0.069919,0.07894,-0.025462,0,0,1.1178,0.0070106,0,-0.61096,0,0,0,0.2002,0.062933,0.07894,-12.558,0.11403,0.13075,0.00016589,0.02,0.72,0
0.046217,-0.017493,0.18192,0.059817,0.07252,-0.015019,0,0,0.64537,-0.010881,0,-0.28095,0,0,0,0.18526,0.056473,0.07252,-7.5227,0.10475,0.12204,0.00012894,0.04,0.72,0
0.053827,-0.01756,0.18366,0.053473,0.071141,-0.0065474,0,0,0.2683,-0.02546,0,-0.050386,0,0,0,0.18423,0.052907,0.071141,-3.1583,0.10276,0.12339,0.00010387,0.06,0.72,0
0.056886,-0.015627,0.19066,0.043785,0.070334,-0.0030577,0,0,0.15643,-0.034513,0,-0.0079501,0,0,0,0.19079,0.043656,0.070334,-1.2651,0.10159,0.13587,0.00011763,0.08,0.72,0
0.060084,-0.013098,0.19107,0.03259,0.067097,-0.000431,0,0,0.16116,-0.044859,0,-0.0011206,0,0,0,0.19112,0.032534,0.067097,-0.12789,0.096918,0.14448,0.00012814,0.1,0.72,0
0.063333,-0.010095,0.18912,0.024166,0.063985,0.0018591,0,0,0.16267,-0.051765,0,0.0048337,0,0,0,0.18918,0.0241,0.063985,0.68589,0.092422,0.14921,0.00013203,0.12,0.72,0
0.066591,-0.006685,0.18685,0.017785,0.061392,0.0037447,0,0,0.1631,-0.056689,0,0.0097363,0,0,0,0.18697,0.017675,0.061392,1.2954,0.088677,0.15222,0.00013328,0.14,0.72,0
0.069857,-0.0029245,0.18546,0.012947,0.059521,0.0053197,0,0,0.16372,-0.060547,0,0.013831,0,0,0,0.18564,0.012769,0.059521,1.774,0.085975,0.15488,0.00013477,0.16,0.72,0
0.07314,0.0011464,0.18529,0.009497,0.058435,0.0070949,0,0,0.16491,-0.063619,0,0.018447,0,0,0,0.18559,0.0091956,0.058435,2.3006,0.084406,0.15765,0.00013768,0.18,0.72,0
0.076453,0.0055122,0.18621,0.0077391,0.058185,0.0097235,0,0,0.16643,-0.06558,0,0.025281,0,0,0,0.18678,0.0071727,0.058185,3.0959,0.084045,0.16031,0.00014193,0.2,0.72,0
0.079797,0.010172,0.18774,0.0086406,0.058913,0.013524,0,0,0.16747,-0.065354,0,0.035163,0,0,0,0.18883,0.0075493,0.058913,4.293,0.085097,0.16184,0.0001461,0.22,0.72,0
0.083152,0.015103,0.18955,0.013643,0.060959,0.017985,0,0,0.16717,-0.06151,0,0.046762,0,0,0,0.19147,0.011726,0.060959,5.8044,0.088051,0.1609,0.0001482,0.24,0.72,0
0.086484,0.020219,0.19147,0.021972,0.064032,0.021994,0,0,0.16567,-0.054677,0,0.057184,0,0,0,0.19437,0.019073,0.064032,7.3206,0.09249,0.15772,0.00014776,0.26,0.72,0
0.089778,0.025381,0.19256,0.029721,0.066683,0.025318,0,0,0.16364,-0.048051,0,0.065826,0,0,0,0.1965,0.025777,0.066683,8.7006,0.09632,0.1544,0.0001462,0.28,0.72,0
0.093029,0.030466,0.19176,0.035399,0.068147,0.028714,0,0,0.16069,-0.042572,0,0.074656,0,0,0,0.19697,0.030183,0.068147,10.164,0.098434,0.15144,0.00014331,0.3,0.72,0
0.096206,0.035374,0.18892,0.041503,0.069128,0.031627,0,0,0.15573,-0.035912,0,0.082231,0,0,0,0.19551,0.034922,0.069128,11.662,0.099852,0.14655,0.00013529,0.32,0.72,0
0.099259,0.039969,0.18458,0.047221,0.06954,0.031864,0,0,0.14955,-0.029015,0,0.082845,0,0,0,0.19166,0.040145,0.06954,12.393,0.10045,0.13919,0.00012102,0.34,0.72,0
0.10219,0.044098,0.17892,0.045562,0.067345,0.02905,0,0,0.14505,-0.028319,0,0.075529,0,0,0,0.18507,0.039419,0.067345,11.687,0.097276,0.13391,0.00010765,0.36,0.72,0
0.10506,0.047719,0.17257,0.033684,0.061875,0.025991,0,0,0.1439,-0.036649,0,0.067575,0,0,0,0.17736,0.028892,0.061875,10.224,0.089376,0.13511,0.00010264,0.38,0.72,0
0.10794,0.050945,0.16663,0.017691,0.055296,0.024811,0,0,0.14473,-0.048887,0,0.064509,0,0,0,0.17071,0.013613,0.055296,9.1664,0.079873,0.14103,0.00010331,0.4,0.72,0
0.11085,0.053927,0.16101,0.0027716,0.049135,0.024826,0,0,0.14544,-0.060272,0,0.064548,0,0,0,0.16487,-0.0010897,0.049135,8.6601,0.070972,0.14746,0.00010288,0.42,0.72,0
0.11376,0.056738,0.15531,-0.010299,0.043504,0.024449,0,0,0.14535,-0.069943,0,0.063567,0,0,0,0.15892,-0.013903,0.043504,8.1912,0.062839,0.15248,9.9022e-05,0.44,0.72,0
0.11666,0.059372,0.14976,-0.021514,0.038474,0.022649,0,0,0.14467,-0.077983,0,0.058888,0,0,0,0.1528,-0.024552,0.038474,7.3921,0.055573,0.15574,9.2412e-05,0.46,0.72,0
0.11955,0.061787,0.14442,-0.030717,0.034112,0.019089,0,0,0.14341,-0.084278,0,0.049632,0,0,0,0.14661,-0.032903,0.034112,6.1441,0.049273,0.15713,8.4099e-05,0.48,0.72,0
0.1224,0.06393,0.13909,-0.037601,0.030446,0.014001,0,0,0.14123,-0.088461,0,0.036403,0,0,0,0.14036,-0.038873,0.030446,4.4998,0.043978,0.15655,7.4947e-05,0.5,0.72,0
0.1252,0.065764,0.13339,-0.041875,0.027456,0.0080749,0,0,0.13772,-0.09013,0,0.020995,0,0,0,0.13396,-0.042446,0.027456,2.6249,0.039658,0.15388,6.558e-05,0.52,0.72,0
0.12791,0.067284,0.12709,-0.043572,0.025055,0.0022365,0,0,0.13264,-0.089215,0,0.0058149,0,0,0,0.12733,-0.043817,0.025055,0.73979,0.036191,0.14917,5.6426e-05,0.54,0.72,0
0.1305,0.068525,0.12056,-0.043577,0.023094,-0.0024806,0,0,0.1267,-0.086672,0,-0.0064496,0,0,0,0.12079,-0.043807,0.023094,-0.87045,0.033358,0.14338,4.8141e-05,0.56,0.72,0
0.13298,0.069574,0.11535,-0.045065,0.021085,-0.0049653,0,0,0.12254,-0.085995,0,-0.01291,0,0,0,0.11562,-0.045332,0.021085,-1.7675,0.030456,0.1401,4.1893e-05,0.58,0.72,0
0.13541,0.070567,0.11186,-0.041625,0.021069,-0.0047327,0,0,0.2194,-0.094346,0,-0.01941,0,0,0,0.11206,-0.041829,0.021069,-1.7812,0.030434,0.13454,3.3693e-05,0.6,0.72,0
0.14175,0.071315,0.11033,-0.018438,0.027568,-0.003362,0,0,0.52097,-0.13948,0,-0.039577,0,0,0,0.11047,-0.018573,0.027568,-1.5791,0.03982,0.11462,2.4591e-05,0.62,0.72,0
0.15624,0.071382,0.11166,0.0079221,0.035873,-0.0030889,0,0,0.84479,-0.23494,0,-0.07167,0,0,0,0.11179,0.0077901,0.035873,-1.7845,0.051817,0.093948,2.4241e-05,0.64,0.72,0
0.17554,0.070697,0.11353,0.011772,0.03759,-0.0038975,0,0,0.9872,-0.33564,0,-0.10133,0,0,0,0.11369,0.011609,0.03759,-2.173,0.054297,0.091934,2.9329e-05,0.66,0.72,0
0.19573,0.069369,0.11389,0.0044572,0.035504,-0.0046733,0,0,1.019,-0.40361,0,-0.12151,0,0,0,0.1141,0.0042512,0.035504,-2.4376,0.051284,0.098044,3.2284e-05,0.68,0.72,0
0.21631,0.067494,0.11306,-9.216e-05,0.03389,-0.0050667,0,0,1.0292,-0.44176,0,-0.13173,0,0,0,0.1133,-0.00033131,0.03389,-2.5617,0.048952,0.10097,3.31e-05,0.7,0.72,0
0.2369,0.065236,0.11147,-0.0028103,0.032597,-0.0051736,0,0,1.0253,-0.46029,0,-0.13451,0,0,0,0.11172,-0.003061,0.032597,-2.5909,0.047085,0.10175,3.2559e-05,0.72,0.72,0
0.25732,0.062733,0.10961,-0.004334,0.031582,-0.0051352,0,0,1.0143,-0.46691,0,-0.13352,0,0,0,0.10986,-0.004582,0.031582,-2.5785,0.045619,0.10132,3.1394e-05,0.74,0.72,0
0.27747,0.060079,0.10776,-0.0050586,0.03081,-0.0050318,0,0,1.0003,-0.46629,0,-0.13083,0,0,0,0.108,-0.0052975,0.03081,-2.5508,0.044503,0.10024,3.0033e-05,0.76,0.72,0
0.29733,0.057349,0.10604,-0.005238,0.030239,-0.0048917,0,0,0.98536,-0.46121,0,-0.12718,0,0,0,0.10626,-0.005465,0.030239,-2.5133,0.043679,0.098837,2.8672e-05,0.78,0.72,0
0.31689,0.054607,0.10448,-0.0050428,0.029832,-0.0047177,0,0,0.97047,-0.45337,0,-0.12266,0,0,0,0.1047,-0.0052555,0.029832,-2.462,0.043091,0.097276,2.739e-05,0.8,0.72,0
0.33615,0.051909,0.1031,-0.0045936,0.029553,-0.0045028,0,0,0.95617,-0.44391,0,-0.11707,0,0,0,0.1033,-0.0047894,0.029553,-2.3894,0.042688,0.095659,2.6215e-05,0.82,0.72,0
0.35513,0.049311,0.10189,-0.0039814,0.029373,-0.0042371,0,0,0.94274,-0.43361,0,-0.11016,0,0,0,0.10207,-0.0041569,0.029373,-2.2871,0.042428,0.094054,2.5154e-05,0.84,0.72,0
0.37386,0.046866,0.10084,-0.0032786,0.029267,-0.003912,0,0,0.93039,-0.42309,0,-0.10171,0,0,0,0.10099,-0.0034304,0.029267,-2.1474,0.042275,0.092509,2.4207e-05,0.86,0.72,0
0.39235,0.044626,0.099927,-0.002546,0.029214,-0.0035215,0,0,0.91926,-0.41288,0,-0.09156,0,0,0,0.10005,-0.002671,0.029214,-1.9642,0.042198,0.091067,2.3373e-05,0.88,0.72,0
0.41063,0.042637,0.09916,-0.0018356,0.029197,-0.003064,0,0,0.90951,-0.40343,0,-0.079664,0,0,0,0.099256,-0.0019319,0.029197,-1.7343,0.042174,0.089767,2.2655e-05,0.9,0.72,0
0.42873,0.040945,0.098532,-0.0011916,0.029202,-0.0025419,0,0,0.90129,-0.39512,0,-0.06609,0,0,0,0.098599,-0.0012594,0.029202,-1.4574,0.042181,0.088645,2.2056e-05,0.92,0.72,0
0.44668,0.039587,0.098042,-0.00065134,0.029217,-0.0019622,0,0,0.89472,-0.38829,0,-0.051018,0,0,0,0.098084,-0.00069303,0.029217,-1.137,0.042203,0.087733,2.1583e-05,0.94,0.72,0
0.46452,0.038594,0.097692,-0.00024407,0.029234,-0.0013358,0,0,0.88994,-0.38322,0,-0.034731,0,0,0,0.097712,-0.00026481,0.029234,-0.78012,0.042227,0.08706,2.124e-05,0.96,0.72,0
0.48228,0.037988,0.097481,8.8892e-06,0.029247,-0.00077477,0,0,0.88704,-0.38009,0,-0.020144,0,0,0,0.097488,1.3426e-06,0.029247,-0.45491,0.042245,0.086648,2.1033e-05,0.98,0.72,0
0.49114,0.037785,0.09741,9.4645e-05,0.029251,-0.0005371,0,0,0.88606,-0.37904,0,-0.013965,0,0,0,0.097413,9.1415e-05,0.029251,-0.31617,0.042252,0.08651,2.0963e-05,1,0.72,0
0.011848,-0.0068252,0.162,0.069406,0.069423,-0.026505,0,0,1.2035,-0.0002196,0,-0.68914,0,0,0,0.16926,0.062151,0.069423,-14.84,0.10028,0.10367,5.6648e-05,0,0.74,0
0.024071,-0.011719,0.16449,0.064988,0.068843,-0.025281,0,0,1.0738,-0.0075692,0,-0.58826,0,0,0,0.1711,0.058382,0.068843,-13.627,0.099441,0.10807,6.8246e-05,0.02,0.74,0
0.043348,-0.017718,0.16445,0.055316,0.06593,-0.018662,0,0,0.67527,-0.0193,0,-0.31711,0,0,0,0.16862,0.051151,0.06593,-9.4191,0.095232,0.11112,8.0006e-05,0.04,0.74,0
0.051827,-0.018028,0.16188,0.047371,0.062776,-0.0085369,0,0,0.27478,-0.023754,0,-0.078673,0,0,0,0.16316,0.046094,0.062776,-4.1549,0.090677,0.10984,7.4833e-05,0.06,0.74,0
0.054638,-0.016235,0.16587,0.039538,0.061621,-0.0021197,0,0,0.14209,-0.029392,0,-0.0058146,0,0,0,0.16598,0.039421,0.061621,-1.0454,0.089008,0.11713,7.7227e-05,0.08,0.74,0
0.057462,-0.013937,0.17003,0.029817,0.059955,0.0012217,0,0,0.1431,-0.039179,0,0.0031765,0,0,0,0.1701,0.029753,0.059955,0.47488,0.086601,0.12798,8.95e-05,0.1,0.74,0
0.060362,-0.011083,0.1699,0.022154,0.057615,0.0037668,0,0,0.14597,-0.0461,0,0.0097936,0,0,0,0.17001,0.02204,0.057615,1.478,0.083222,0.13379,9.6293e-05,0.12,0.74,0
0.063301,-0.0077736,0.1696,0.016695,0.055888,0.0049344,0,0,0.14783,-0.050952,0,0.012829,0,0,0,0.16977,0.01653,0.055888,1.8633,0.080728,0.13785,0.00010038,0.14,0.74,0
0.066275,-0.0040962,0.17016,0.012259,0.054725,0.0052636,0,0,0.15006,-0.055205,0,0.013685,0,0,0,0.17034,0.012079,0.054725,1.8996,0.079047,0.14183,0.00010484,0.16,0.74,0
0.069303,-0.00010042,0.17222,0.0085327,0.054226,0.0055401,0,0,0.15339,-0.059402,0,0.014404,0,0,0,0.17243,0.0083247,0.054226,1.8998,0.078327,0.14665,0.0001116,0.18,0.74,0
0.072411,0.0042032,0.17619,0.0058221,0.054603,0.0065799,0,0,0.15806,-0.063415,0,0.017108,0,0,0,0.17651,0.0054989,0.054603,2.1475,0.078871,0.15251,0.00012179,0.2,0.74,0
0.075625,0.0088384,0.18201,0.0053046,0.056195,0.0090726,0,0,0.16356,-0.066157,0,0.023589,0,0,0,0.18264,0.0046803,0.056195,2.8727,0.08117,0.1586,0.00013522,0.22,0.74,0
0.078953,0.013826,0.18956,0.010044,0.059882,0.012484,0,0,0.16859,-0.06479,0,0.032458,0,0,0,0.19073,0.0088829,0.059882,3.9483,0.086497,0.16248,0.00014947,0.24,0.74,0
0.082369,0.019071,0.19804,0.018984,0.065108,0.015888,0,0,0.17282,-0.059961,0,0.041308,0,0,0,0.19986,0.017167,0.065108,5.0838,0.094045,0.16409,0.00016356,0.26,0.74,0
0.085866,0.024346,0.20614,0.025496,0.069491,0.020103,0,0,0.17764,-0.057194,0,0.052268,0,0,0,0.20877,0.022863,0.069491,6.3943,0.10038,0.16755,0.00018219,0.28,0.74,0
0.089475,0.029508,0.21228,0.02894,0.072365,0.026391,0,0,0.18189,-0.056454,0,0.068617,0,0,0,0.21641,0.024812,0.072365,8.2188,0.10453,0.17282,0.00020436,0.3,0.74,0
0.093141,0.034548,0.21321,0.034572,0.074335,0.033872,0,0,0.18054,-0.051691,0,0.088069,0,0,0,0.2198,0.027986,0.074335,10.616,0.10737,0.17341,0.00021242,0.32,0.74,0
0.096696,0.039325,0.20875,0.044979,0.076119,0.039004,0,0,0.17242,-0.040481,0,0.10141,0,0,0,0.21784,0.035892,0.076119,12.836,0.10995,0.16565,0.00019584,0.34,0.74,0
0.10004,0.043501,0.20113,0.049308,0.075131,0.038699,0,0,0.1638,-0.033569,0,0.10062,0,0,0,0.21069,0.039746,0.075131,13.338,0.10852,0.15636,0.00016983,0.36,0.74,0
0.10325,0.046944,0.19075,0.03686,0.068283,0.035194,0,0,0.15921,-0.04085,0,0.091504,0,0,0,0.1987,0.028906,0.068283,12.108,0.098631,0.15403,0.00015077,0.38,0.74,0
0.10641,0.049914,0.17989,0.018293,0.059455,0.033071,0,0,0.15656,-0.05351,0,0.085985,0,0,0,0.18657,0.01161,0.059455,11.006,0.085879,0.15669,0.00013863,0.4,0.74,0
0.10951,0.05268,0.17022,0.0033847,0.052082,0.032444,0,0,0.15358,-0.063306,0,0.084355,0,0,0,0.17647,-0.0028651,0.052082,10.546,0.075229,0.15918,0.00012746,0.42,0.74,0
0.11255,0.055317,0.16156,-0.0086822,0.045864,0.031232,0,0,0.15041,-0.07091,0,0.081202,0,0,0,0.16726,-0.014379,0.045864,10.03,0.066248,0.16027,0.00011532,0.44,0.74,0
0.11553,0.057814,0.15409,-0.018315,0.040732,0.028657,0,0,0.14736,-0.076762,0,0.074509,0,0,0,0.15888,-0.023104,0.040732,9.1734,0.058835,0.15994,0.00010303,0.46,0.74,0
0.11844,0.060126,0.14756,-0.025871,0.036507,0.024586,0,0,0.14437,-0.081091,0,0.063923,0,0,0,0.15114,-0.029455,0.036507,7.9048,0.052732,0.1583,9.1105e-05,0.48,0.74,0
0.1213,0.062202,0.14156,-0.031663,0.03297,0.019373,0,0,0.14117,-0.084023,0,0.050371,0,0,0,0.14388,-0.033984,0.03297,6.2975,0.047623,0.15561,7.9909e-05,0.5,0.74,0
0.12409,0.064009,0.13561,-0.035836,0.029931,0.013787,0,0,0.13738,-0.085497,0,0.035846,0,0,0,0.13689,-0.03712,0.029931,4.5575,0.043234,0.15202,6.9535e-05,0.52,0.74,0
0.1268,0.065545,0.12927,-0.038392,0.027263,0.0086635,0,0,0.13261,-0.085351,0,0.022525,0,0,0,0.1299,-0.039021,0.027263,2.9288,0.039379,0.14742,5.9814e-05,0.54,0.74,0
0.1294,0.066825,0.12275,-0.039751,0.024899,0.0043531,0,0,0.1272,-0.084044,0,0.011318,0,0,0,0.12305,-0.040053,0.024899,1.5072,0.035965,0.14223,5.0997e-05,0.56,0.74,0
0.13188,0.067861,0.11755,-0.042668,0.022465,0.00055185,0,0,0.12361,-0.084673,0,0.0014348,0,0,0,0.1177,-0.042821,0.022465,0.2002,0.032449,0.13983,4.4367e-05,0.58,0.74,0
0.13434,0.068655,0.11395,-0.040831,0.021935,-0.0028369,0,0,0.22286,-0.094786,0,-0.025765,0,0,0,0.11411,-0.040993,0.021935,-1.2365,0.031684,0.13565,3.5643e-05,0.6,0.74,0
0.1408,0.068521,0.11219,-0.018738,0.028036,-0.0049625,0,0,0.53023,-0.14248,0,-0.081569,0,0,0,0.11248,-0.019023,0.028036,-2.5931,0.040496,0.11678,2.5898e-05,0.62,0.74,0
0.15555,0.066737,0.11343,0.0077017,0.03634,-0.0052714,0,0,0.85931,-0.2404,0,-0.1225,0,0,0,0.11375,0.0073875,0.03634,-3.0339,0.052491,0.09602,2.5575e-05,0.64,0.74,0
0.17517,0.064035,0.1152,0.01177,0.038092,-0.0045615,0,0,1.0024,-0.34218,0,-0.1186,0,0,0,0.11542,0.011551,0.038092,-2.5491,0.055022,0.093515,3.0791e-05,0.66,0.74,0
0.19565,0.06129,0.1153,0.0043998,0.03591,-0.0037912,0,0,1.0321,-0.40963,0,-0.098571,0,0,0,0.11544,0.0042577,0.03591,-1.9695,0.05187,0.099234,3.3461e-05,0.68,0.74,0
0.21645,0.058614,0.11416,-0.00013416,0.034207,-0.0033053,0,0,1.0394,-0.44643,0,-0.085939,0,0,0,0.11427,-0.00024768,0.034207,-1.6597,0.04941,0.10177,3.3934e-05,0.7,0.74,0
0.23722,0.055978,0.11226,-0.002831,0.032829,-0.003111,0,0,1.0326,-0.46358,0,-0.080887,0,0,0,0.11237,-0.0029365,0.032829,-1.5476,0.04742,0.10223,3.3087e-05,0.72,0.74,0
0.25776,0.053346,0.11013,-0.0043456,0.031735,-0.0030857,0,0,1.0191,-0.46905,0,-0.080227,0,0,0,0.11023,-0.0044493,0.031735,-1.5417,0.04584,0.10155,3.168e-05,0.74,0.74,0
0.27799,0.050714,0.10805,-0.0050783,0.030891,-0.0031279,0,0,1.003,-0.4676,0,-0.081326,0,0,0,0.10815,-0.0051825,0.030891,-1.5809,0.04462,0.10029,3.0134e-05,0.76,0.74,0
0.29788,0.048093,0.10613,-0.0052835,0.030255,-0.0031765,0,0,0.98641,-0.46199,0,-0.08259,0,0,0,0.10624,-0.0053885,0.030255,-1.6299,0.043701,0.098752,2.8634e-05,0.78,0.74,0
0.31744,0.045513,0.10442,-0.0051295,0.029786,-0.0031956,0,0,0.97019,-0.4539,0,-0.083085,0,0,0,0.10452,-0.0052341,0.029786,-1.6675,0.043024,0.097103,2.7252e-05,0.8,0.74,0
0.33669,0.043008,0.1029,-0.0047342,0.02945,-0.0031635,0,0,0.95487,-0.4444,0,-0.082252,0,0,0,0.103,-0.0048361,0.02945,-1.68,0.042539,0.095434,2.6007e-05,0.82,0.74,0
0.35564,0.040617,0.10158,-0.0041854,0.029218,-0.0030676,0,0,0.94068,-0.43424,0,-0.079756,0,0,0,0.10167,-0.0042812,0.029218,-1.6579,0.042204,0.093805,2.4899e-05,0.84,0.74,0
0.37432,0.038381,0.10043,-0.0035522,0.029064,-0.0029006,0,0,0.92778,-0.42401,0,-0.075416,0,0,0,0.10052,-0.0036384,0.029064,-1.5945,0.041981,0.09226,2.3924e-05,0.86,0.74,0
0.39275,0.036343,0.099452,-0.0028914,0.028968,-0.0026602,0,0,0.91629,-0.41417,0,-0.069166,0,0,0,0.099525,-0.0029646,0.028968,-1.4859,0.041843,0.090836,2.3077e-05,0.88,0.74,0
0.41097,0.034541,0.09863,-0.0022507,0.028914,-0.0023479,0,0,0.90631,-0.40514,0,-0.061044,0,0,0,0.098688,-0.0023085,0.028914,-1.3305,0.041764,0.089565,2.2357e-05,0.9,0.74,0
0.429,0.033011,0.097961,-0.0016706,0.028887,-0.0019688,0,0,0.89796,-0.39725,0,-0.051188,0,0,0,0.098002,-0.001712,0.028887,-1.1298,0.041726,0.088477,2.1763e-05,0.92,0.74,0
0.44689,0.031786,0.097442,-0.0011842,0.028877,-0.0015316,0,0,0.89134,-0.3908,0,-0.039822,0,0,0,0.097467,-0.00121,0.028877,-0.88797,0.041712,0.087599,2.1298e-05,0.94,0.74,0
0.46466,0.030892,0.097071,-0.00081775,0.028876,-0.0010481,0,0,0.88654,-0.38602,0,-0.027251,0,0,0,0.097084,-0.00083073,0.028876,-0.61229,0.04171,0.086954,2.0963e-05,0.96,0.74,0
0.48235,0.030347,0.096849,-0.00059026,0.028878,-0.00062077,0,0,0.88362,-0.38308,0,-0.01614,0,0,0,0.096853,-0.00059507,0.028878,-0.36455,0.041712,0.086561,2.0761e-05,0.98,0.74,0
0.49118,0.030164,0.096774,-0.00051315,0.028878,-0.00044511,0,0,0.88265,-0.38209,0,-0.011573,0,0,0,0.096777,-0.00051533,0.028878,-0.26204,0.041713,0.086429,2.0693e-05,1,0.74,0
0.010493,-0.0071659,0.14172,0.059686,0.060421,-0.0269,0,0,1.0569,-0.0095539,0,-0.69941,0,0,0,0.15007,0.051332,0.060421,-16.964,0.087275,0.094547,4.3605e-05,0,0.76,0
0.021137,-0.012154,0.14816,0.057993,0.061846,-0.027068,0,0,0.95602,-0.012286,0,-0.63001,0,0,0,0.15623,0.049923,0.061846,-16.413,0.089334,0.101,6.5466e-05,0.02,0.76,0
0.039035,-0.018182,0.15203,0.051701,0.06112,-0.02223,0,0,0.64651,-0.016038,0,-0.40754,0,0,0,0.15806,0.045678,0.06112,-12.783,0.088285,0.10567,9.012e-05,0.04,0.76,0
0.048799,-0.018471,0.14173,0.041576,0.05499,-0.01052,0,0,0.30841,-0.020967,0,-0.14733,0,0,0,0.14412,0.039186,0.05499,-6.3342,0.079431,0.098077,7.3151e-05,0.06,0.76,0
0.052566,-0.016804,0.13763,0.032189,0.050946,-0.00178,0,0,0.15246,-0.02767,0,-0.021466,0,0,0,0.13792,0.031898,0.050946,-1.6795,0.073588,0.097952,5.4356e-05,0.08,0.76,0
0.055059,-0.014665,0.14425,0.025569,0.050946,0.0016775,0,0,0.12551,-0.033564,0,0.0026604,0,0,0,0.14433,0.025492,0.050946,0.5113,0.073588,0.1084,5.8544e-05,0.1,0.76,0
0.057561,-0.011939,0.14786,0.020707,0.050569,0.0037642,0,0,0.12647,-0.038821,0,0.0097869,0,0,0,0.14798,0.020584,0.050569,1.6703,0.073044,0.11538,6.3868e-05,0.12,0.76,0
0.060118,-0.0087231,0.14913,0.016538,0.049699,0.0043082,0,0,0.12926,-0.04311,0,0.011201,0,0,0,0.14927,0.016391,0.049699,1.8295,0.071788,0.11976,6.8121e-05,0.14,0.76,0
0.062731,-0.0051327,0.15092,0.012479,0.049019,0.0037088,0,0,0.13247,-0.047502,0,0.009643,0,0,0,0.15103,0.012364,0.049019,1.4922,0.070806,0.12447,7.3133e-05,0.16,0.76,0
0.065417,-0.0012297,0.15398,0.0088079,0.048837,0.0026372,0,0,0.13669,-0.052037,0,0.0068567,0,0,0,0.15407,0.0087228,0.048837,0.96978,0.070542,0.13002,8.016e-05,0.18,0.76,0
0.068198,0.0029756,0.15911,0.0057962,0.049472,0.0016242,0,0,0.14253,-0.056778,0,0.0042229,0,0,0,0.15923,0.0056803,0.049472,0.4794,0.071459,0.13701,9.0903e-05,0.2,0.76,0
0.071118,0.0075253,0.16716,0.0042097,0.051412,0.0013741,0,0,0.15048,-0.061363,0,0.0035726,0,0,0,0.16743,0.0039418,0.051412,0.2725,0.074262,0.14568,0.00010733,0.22,0.76,0
0.074217,0.012511,0.17573,0.0082207,0.055186,0.0016172,0,0,0.16364,-0.062029,0,0.0011582,0,0,0,0.17632,0.0076376,0.055186,0.049099,0.079714,0.15067,0.00012774,0.24,0.76,0
0.077617,0.01782,0.18503,0.016332,0.060409,0.0036047,0,0,0.1827,-0.061719,0,0.0053432,0,0,0,0.18589,0.015469,0.060409,0.62742,0.087257,0.15302,0.00015834,0.26,0.76,0
0.081432,0.023093,0.1983,0.020074,0.065513,0.0097443,0,0,0.20005,-0.067448,0,0.031801,0,0,0,0.1995,0.018877,0.065513,3.271,0.09463,0.16242,0.00020506,0.28,0.76,0
0.085572,0.028208,0.21128,0.020927,0.069663,0.018974,0,0,0.21199,-0.073361,0,0.070244,0,0,0,0.21372,0.01849,0.069663,6.6473,0.10062,0.17535,0.00025497,0.3,0.76,0
0.089911,0.033306,0.21865,0.02481,0.073037,0.030041,0,0,0.21975,-0.07332,0,0.11055,0,0,0,0.22391,0.019546,0.073037,9.8727,0.1055,0.18359,0.00029827,0.32,0.76,0
0.094362,0.03835,0.21834,0.038071,0.076925,0.042057,0,0,0.21881,-0.059479,0,0.15233,0,0,0,0.22877,0.02765,0.076925,13.715,0.11111,0.18168,0.00030989,0.34,0.76,0
0.098594,0.042756,0.2125,0.050857,0.079006,0.049982,0,0,0.20212,-0.040497,0,0.16707,0,0,0,0.22763,0.035724,0.079006,16.379,0.11412,0.17444,0.00027177,0.36,0.76,0
0.10231,0.046085,0.20294,0.042152,0.073526,0.049993,0,0,0.1781,-0.041272,0,0.14309,0,0,0,0.21802,0.027073,0.073526,15.852,0.1062,0.17257,0.00021826,0.38,0.76,0
0.10565,0.048805,0.18832,0.021829,0.063046,0.04613,0,0,0.16286,-0.053581,0,0.11994,0,0,0,0.20085,0.0093005,0.063046,14.336,0.091066,0.17119,0.00017635,0.4,0.76,0
0.10882,0.051395,0.17358,0.0058587,0.053831,0.042702,0,0,0.15567,-0.062364,0,0.11103,0,0,0,0.18419,-0.0047594,0.053831,13.431,0.077755,0.16756,0.00014618,0.42,0.76,0
0.11187,0.053901,0.1627,-0.0058632,0.047052,0.039461,0,0,0.15035,-0.06879,0,0.1026,0,0,0,0.17174,-0.014896,0.047052,12.52,0.067965,0.16466,0.00012493,0.44,0.76,0
0.11484,0.056301,0.1544,-0.01429,0.042034,0.035519,0,0,0.14608,-0.073222,0,0.09235,0,0,0,0.16179,-0.021674,0.042034,11.408,0.060716,0.16134,0.00010811,0.46,0.76,0
0.11772,0.058543,0.14772,-0.02046,0.038179,0.030497,0,0,0.14241,-0.076231,0,0.079293,0,0,0,0.15329,-0.026023,0.038179,9.9627,0.055148,0.15737,9.3917e-05,0.48,0.76,0
0.12053,0.060569,0.14214,-0.025443,0.035011,0.024643,0,0,0.13927,-0.078589,0,0.064071,0,0,0,0.14589,-0.029184,0.035011,8.1932,0.050571,0.15341,8.2115e-05,0.5,0.76,0
0.12329,0.062344,0.13724,-0.029931,0.032194,0.018824,0,0,0.13656,-0.080762,0,0.048942,0,0,0,0.13949,-0.032178,0.032194,6.344,0.046502,0.15022,7.263e-05,0.52,0.76,0
0.12599,0.06387,0.13249,-0.033851,0.029593,0.014006,0,0,0.13377,-0.082477,0,0.036414,0,0,0,0.13377,-0.03513,0.029593,4.7652,0.042745,0.14761,6.4776e-05,0.54,0.76,0
0.12864,0.065163,0.12748,-0.036544,0.027281,0.010214,0,0,0.13026,-0.082973,0,0.026556,0,0,0,0.12822,-0.037282,0.027281,3.5133,0.039406,0.14448,5.7601e-05,0.56,0.76,0
0.13121,0.066188,0.12297,-0.038398,0.025371,0.0054697,0,0,0.12688,-0.0829,0,0.014221,0,0,0,0.12334,-0.03877,0.025371,1.9015,0.036647,0.14142,5.1375e-05,0.58,0.76,0
0.13371,0.066776,0.11815,-0.036607,0.024463,-0.00077062,0,0,0.23006,-0.093258,0,-0.031652,0,0,0,0.11845,-0.036913,0.024463,-0.65816,0.035335,0.13612,3.9819e-05,0.6,0.76,0
0.14041,0.065616,0.11469,-0.019062,0.028688,-0.0053278,0,0,0.55289,-0.15487,0,-0.11447,0,0,0,0.11522,-0.019591,0.028688,-3.0388,0.041438,0.11972,2.6953e-05,0.62,0.76,0
0.15583,0.061766,0.11612,0.0047879,0.036271,-0.0060926,0,0,0.89601,-0.2706,0,-0.15152,0,0,0,0.11661,0.004295,0.036271,-3.4946,0.052392,0.10106,2.7831e-05,0.64,0.76,0
0.17625,0.05701,0.11792,0.0098969,0.038345,-0.0042156,0,0,1.0345,-0.36983,0,-0.10961,0,0,0,0.11815,0.0096731,0.038345,-2.3013,0.055388,0.09739,3.3906e-05,0.66,0.76,0
0.19721,0.052984,0.11673,0.0035758,0.036092,-0.0021203,0,0,1.0483,-0.42272,0,-0.055129,0,0,0,0.11681,0.0034967,0.036092,-1.0941,0.052134,0.10105,3.4968e-05,0.68,0.76,0
0.21818,0.049636,0.11447,-0.00035778,0.034233,-0.0010585,0,0,1.043,-0.44968,0,-0.027521,0,0,0,0.11451,-0.00039858,0.034233,-0.5286,0.049447,0.1021,3.4205e-05,0.7,0.76,0
0.23893,0.046693,0.11197,-0.0027805,0.032758,-0.0007643,0,0,1.0298,-0.462,0,-0.019872,0,0,0,0.11201,-0.0028126,0.032758,-0.37588,0.047317,0.10181,3.2748e-05,0.72,0.76,0
0.25937,0.043971,0.10958,-0.0041838,0.03162,-0.00085451,0,0,1.0135,-0.46545,0,-0.022217,0,0,0,0.10961,-0.0042134,0.03162,-0.42371,0.045673,0.10081,3.11e-05,0.74,0.76,0
0.27947,0.041375,0.10739,-0.0048944,0.03075,-0.0010946,0,0,0.99637,-0.46337,0,-0.028459,0,0,0,0.10742,-0.0049241,0.03075,-0.5525,0.044416,0.099432,2.9479e-05,0.76,0.76,0
0.29923,0.03887,0.10543,-0.0051263,0.030091,-0.001361,0,0,0.97941,-0.45783,0,-0.035387,0,0,0,0.10546,-0.0051583,0.030091,-0.7002,0.043465,0.097878,2.7972e-05,0.78,0.76,0
0.31865,0.036451,0.10369,-0.0050261,0.0296,-0.0015919,0,0,0.96319,-0.45013,0,-0.04139,0,0,0,0.10373,-0.0050614,0.0296,-0.83453,0.042755,0.096258,2.6608e-05,0.8,0.76,0
0.33776,0.034133,0.10216,-0.0046997,0.029239,-0.0017572,0,0,0.948,-0.4412,0,-0.045687,0,0,0,0.1022,-0.0047378,0.029239,-0.93823,0.042234,0.09464,2.5392e-05,0.82,0.76,0
0.35657,0.031941,0.10083,-0.0042274,0.02898,-0.0018433,0,0,0.93401,-0.43169,0,-0.047925,0,0,0,0.10087,-0.0042668,0.02898,-1.0018,0.04186,0.093075,2.4317e-05,0.84,0.76,0
0.37512,0.029905,0.099671,-0.0036733,0.028799,-0.0018455,0,0,0.92134,-0.42215,0,-0.047984,0,0,0,0.09971,-0.0037116,0.028799,-1.02,0.041599,0.0916,2.3376e-05,0.86,0.76,0
0.39342,0.028059,0.098684,-0.0030903,0.028678,-0.001765,0,0,0.91008,-0.41299,0,-0.045889,0,0,0,0.098719,-0.0031249,0.028678,-0.99071,0.041424,0.090248,2.2564e-05,0.88,0.76,0
0.41152,0.026432,0.097857,-0.0025227,0.0286,-0.0016062,0,0,0.90034,-0.4046,0,-0.041762,0,0,0,0.097886,-0.0025512,0.0286,-0.91429,0.041312,0.089046,2.1876e-05,0.9,0.76,0
0.42944,0.025055,0.097185,-0.0020074,0.028553,-0.0013772,0,0,0.89221,-0.39729,0,-0.035808,0,0,0,0.097206,-0.0020285,0.028553,-0.79342,0.041243,0.088023,2.1311e-05,0.92,0.76,0
0.44721,0.023955,0.096664,-0.0015748,0.028527,-0.0010885,0,0,0.88578,-0.39132,0,-0.0283,0,0,0,0.096677,-0.0015883,0.028527,-0.63321,0.041205,0.0872,2.0871e-05,0.94,0.76,0
0.46487,0.023153,0.096292,-0.0012486,0.028513,-0.00075273,0,0,0.88113,-0.3869,0,-0.019571,0,0,0,0.096299,-0.0012555,0.028513,-0.44106,0.041185,0.086597,2.0554e-05,0.96,0.76,0
0.48245,0.022665,0.096069,-0.0010461,0.028507,-0.00046377,0,0,0.87831,-0.38419,0,-0.012058,0,0,0,0.096072,-0.0010487,0.028507,-0.27315,0.041177,0.086229,2.0364e-05,0.98,0.76,0
0.49123,0.022501,0.095995,-0.00097738,0.028505,-0.0003527,0,0,0.87737,-0.38327,0,-0.0091701,0,0,0,0.095996,-0.00097873,0.028505,-0.20824,0.041174,0.086106,2.0301e-05,1,0.76,0
0.0081801,-0.0072074,0.11008,0.048593,0.047602,-0.027503,0,0,0.81222,0.012885,0,-0.71507,0,0,0,0.12086,0.037813,0.047602,-21.429,0.068759,0.078633,2.5831e-05,0,0.78,0
0.016244,-0.012127,0.11371,0.049156,0.048859,-0.026839,0,0,0.77729,0.01686,0,-0.67088,0,0,0,0.1239,0.038968,0.048859,-20.875,0.070574,0.080469,3.6119e-05,0.02,0.78,0
0.031489,-0.018196,0.11898,0.046632,0.049684,-0.022526,0,0,0.64147,0.007482,0,-0.5104,0,0,0,0.12664,0.038971,0.049684,-17.481,0.071766,0.082879,5.0661e-05,0.04,0.78,0
0.04327,-0.018795,0.11463,0.037316,0.045584,-0.0137,0,0,0.41414,-0.016236,0,-0.27495,0,0,0,0.11853,0.03342,0.045584,-11.36,0.065844,0.079766,4.5436e-05,0.06,0.78,0
0.04979,-0.017354,0.1066,0.025897,0.039748,-0.0052288,0,0,0.21322,-0.02718,0,-0.097104,0,0,0,0.10792,0.024578,0.039748,-5.8799,0.057414,0.076935,3.308e-05,0.08,0.78,0
0.05274,-0.015283,0.11006,0.019453,0.038855,-0.00050921,0,0,0.12161,-0.02889,0,-0.020736,0,0,0,0.11044,0.019077,0.038855,-2.165,0.056125,0.083282,3.2118e-05,0.1,0.78,0
0.054812,-0.012635,0.12014,0.018013,0.041445,0.0012752,0,0,0.1055,-0.031217,0,0.00060429,0,0,0,0.12029,0.017863,0.041445,-0.023243,0.059865,0.092913,3.6556e-05,0.12,0.78,0
0.056942,-0.009498,0.12655,0.016062,0.042783,0.0016936,0,0,0.10889,-0.034737,0,0.0044033,0,0,0,0.12664,0.015966,0.042783,0.67636,0.061798,0.10001,4.1429e-05,0.14,0.78,0
0.059167,-0.0059963,0.12975,0.012567,0.042694,0.0014166,0,0,0.11317,-0.039165,0,0.0036832,0,0,0,0.12979,0.01252,0.042694,0.60153,0.061669,0.10548,4.6045e-05,0.16,0.78,0
0.061469,-0.0021819,0.13196,0.0093453,0.04239,0.00034205,0,0,0.11644,-0.042959,0,0.00088932,0,0,0,0.13198,0.0093205,0.04239,0.11808,0.061231,0.10993,5.0425e-05,0.18,0.78,0
0.063825,0.0019321,0.13368,0.0065345,0.042064,-0.0015205,0,0,0.1191,-0.046189,0,-0.0039534,0,0,0,0.13375,0.0064653,0.042064,-0.72146,0.060759,0.11375,5.5533e-05,0.2,0.78,0
0.066233,0.0063839,0.13399,0.0038176,0.041342,-0.0037657,0,0,0.12285,-0.049703,0,-0.0076953,0,0,0,0.13427,0.0035419,0.041342,-1.2458,0.059716,0.11653,6.3362e-05,0.22,0.78,0
0.068734,0.011334,0.13101,0.0053997,0.040924,-0.0062336,0,0,0.14465,-0.052565,0,-0.012966,0,0,0,0.1319,0.0045152,0.040924,-2.0282,0.059112,0.11369,7.4514e-05,0.24,0.78,0
0.072058,0.01658,0.13165,0.011791,0.043031,-0.0052008,0,0,0.19879,-0.061436,0,-0.0015484,0,0,0,0.1329,0.010542,0.043031,-1.6152,0.062156,0.10984,0.00010345,0.26,0.78,0
0.07678,0.021637,0.13995,0.014363,0.046292,0.0022747,0,0,0.24909,-0.07844,0,0.050946,0,0,0,0.14097,0.013339,0.046292,2.9273,0.066867,0.11478,0.0001506,0.28,0.78,0
0.082072,0.026574,0.14841,0.013633,0.048614,0.011283,0,0,0.26604,-0.089012,0,0.11618,0,0,0,0.15002,0.012027,0.048614,8.2241,0.07022,0.12383,0.0001922,0.3,0.78,0
0.087421,0.031615,0.15777,0.015938,0.052113,0.020395,0,0,0.27841,-0.091994,0,0.17668,0,0,0,0.16152,0.01219,0.052113,11.736,0.075275,0.13392,0.00024856,0.32,0.78,0
0.093208,0.036941,0.16744,0.027934,0.058612,0.03567,0,0,0.28305,-0.079112,0,0.23785,0,0,0,0.1784,0.016968,0.058612,16.005,0.084662,0.14526,0.0003022,0.34,0.78,0
0.098724,0.041871,0.17314,0.043275,0.064926,0.052956,0,0,0.24063,-0.0488,0,0.25157,0,0,0,0.19425,0.022172,0.064926,20.448,0.093782,0.15534,0.00028554,0.36,0.78,0
0.10279,0.045288,0.17673,0.04189,0.065586,0.060172,0,0,0.17992,-0.035209,0,0.20274,0,0,0,0.20102,0.017598,0.065586,21.443,0.094735,0.16487,0.00022526,0.38,0.78,0
0.10589,0.047771,0.17421,0.026308,0.060157,0.058077,0,0,0.1517,-0.043984,0,0.1575,0,0,0,0.19534,0.005177,0.060157,19.451,0.086893,0.16955,0.00017635,0.4,0.78,0
0.10886,0.050185,0.16521,0.010255,0.052641,0.052846,0,0,0.14635,-0.055101,0,0.1374,0,0,0,0.18215,-0.0066838,0.052641,17.21,0.076037,0.16729,0.00014344,0.42,0.78,0
0.11175,0.052566,0.15643,-0.0018916,0.046362,0.047159,0,0,0.14309,-0.06273,0,0.12261,0,0,0,0.16974,-0.015202,0.046362,15.425,0.066968,0.16313,0.00012119,0.44,0.78,0
0.11458,0.054886,0.1498,-0.0094881,0.042094,0.041841,0,0,0.14002,-0.067056,0,0.10879,0,0,0,0.16036,-0.020049,0.042094,13.873,0.060802,0.15874,0.00010482,0.46,0.78,0
0.11735,0.057077,0.14451,-0.014349,0.03905,0.035799,0,0,0.1371,-0.069418,0,0.093078,0,0,0,0.15244,-0.02227,0.03905,12.137,0.056405,0.15353,9.1206e-05,0.48,0.78,0
0.12006,0.059058,0.14041,-0.0185,0.036574,0.028941,0,0,0.13499,-0.071597,0,0.075246,0,0,0,0.14574,-0.023829,0.036574,10.015,0.052829,0.14887,8.0381e-05,0.5,0.78,0
0.12275,0.060779,0.1375,-0.023504,0.034197,0.022168,0,0,0.13429,-0.075012,0,0.057636,0,0,0,0.14066,-0.026671,0.034197,7.7186,0.049396,0.14671,7.3087e-05,0.52,0.78,0
0.12543,0.062245,0.13558,-0.029291,0.031888,0.016841,0,0,0.13481,-0.079532,0,0.043787,0,0,0,0.13737,-0.031073,0.031888,5.7895,0.046061,0.14742,6.9148e-05,0.54,0.78,0
0.12814,0.063506,0.13429,-0.033225,0.030318,0.013087,0,0,0.13516,-0.082606,0,0.034027,0,0,0,0.13535,-0.034287,0.030318,4.4354,0.043793,0.1483,6.7022e-05,0.56,0.78,0
0.13084,0.064545,0.13052,-0.032173,0.029504,0.0075374,0,0,0.13903,-0.083331,0,0.016593,0,0,0,0.1311,-0.032755,0.029504,2.3558,0.042617,0.14328,6.483e-05,0.58,0.78,0
0.13365,0.064924,0.12627,-0.029369,0.02907,0.0009241,0,0,0.25257,-0.10507,0,-0.02746,0,0,0,0.1267,-0.029802,0.02907,-0.46976,0.04199,0.13745,6.757e-05,0.6,0.78,0
0.14123,0.062326,0.12582,-0.01856,0.032179,-0.0026039,0,0,0.59275,-0.19518,0,-0.09159,0,0,0,0.12641,-0.019146,0.032179,-2.1497,0.046481,0.12908,6.5697e-05,0.62,0.78,0
0.15809,0.055913,0.12443,0.00093124,0.037608,-0.0034246,0,0,0.94856,-0.32343,0,-0.10669,0,0,0,0.12488,0.00048227,0.037608,-2.1696,0.054322,0.11133,4.8922e-05,0.64,0.78,0
0.17957,0.049241,0.12056,0.007449,0.038402,-0.0016346,0,0,1.068,-0.40238,0,-0.0425,0,0,0,0.12072,0.0072838,0.038402,-0.87798,0.055469,0.10154,3.7262e-05,0.66,0.78,0
0.20082,0.044382,0.11672,0.0026312,0.035804,0.00085639,0,0,1.0519,-0.43125,0,0.022266,0,0,0,0.1168,0.0025515,0.035804,0.43292,0.051717,0.10178,3.5323e-05,0.68,0.78,0
0.22164,0.040627,0.11317,-0.00052985,0.033792,0.0017209,0,0,1.0319,-0.44619,0,0.044744,0,0,0,0.11324,-0.00059777,0.033792,0.88125,0.048811,0.10113,3.3181e-05,0.7,0.78,0
0.24209,0.037498,0.11029,-0.0025627,0.032317,0.001739,0,0,1.0136,-0.45344,0,0.045214,0,0,0,0.11034,-0.0026193,0.032317,0.89732,0.04668,0.10017,3.1293e-05,0.72,0.78,0
0.26219,0.034728,0.10786,-0.0038112,0.031216,0.0013821,0,0,0.99643,-0.45535,0,0.035934,0,0,0,0.1079,-0.0038515,0.031216,0.72134,0.04509,0.098996,2.9607e-05,0.74,0.78,0
0.28195,0.032179,0.10577,-0.0044933,0.030383,0.00089462,0,0,0.98004,-0.45339,0,0.02326,0,0,0,0.1058,-0.0045189,0.030383,0.47473,0.043887,0.097659,2.8089e-05,0.76,0.78,0
0.30139,0.02978,0.10393,-0.0047619,0.029752,0.00040172,0,0,0.96437,-0.44868,0,0.010445,0,0,0,0.10395,-0.0047779,0.029752,0.21953,0.042975,0.096228,2.6721e-05,0.78,0.78,0
0.32052,0.027508,0.10232,-0.0047308,0.029275,-3.5525e-05,0,0,0.94952,-0.44208,0,-0.00092365,0,0,0,0.10233,-0.0047422,0.029275,-0.012856,0.042287,0.094756,2.5494e-05,0.8,0.78,0
0.33937,0.02536,0.10089,-0.0044882,0.02892,-0.00038938,0,0,0.93559,-0.43431,0,-0.010124,0,0,0,0.1009,-0.0044984,0.02892,-0.20675,0.041774,0.093291,2.4399e-05,0.82,0.78,0
0.35795,0.023349,0.099637,-0.0041048,0.02866,-0.00064949,0,0,0.9227,-0.42594,0,-0.016887,0,0,0,0.099648,-0.0041155,0.02866,-0.35462,0.041397,0.09187,2.3428e-05,0.84,0.78,0
0.37628,0.021496,0.098548,-0.003639,0.028473,-0.00081475,0,0,0.91098,-0.41745,0,-0.021183,0,0,0,0.09856,-0.0036505,0.028473,-0.45338,0.041127,0.090529,2.2575e-05,0.86,0.78,0
0.39439,0.019823,0.097614,-0.00314,0.028342,-0.00088926,0,0,0.90053,-0.40927,0,-0.023121,0,0,0,0.097626,-0.0031514,0.028342,-0.50277,0.040939,0.089297,2.1838e-05,0.88,0.78,0
0.4123,0.018357,0.096829,-0.0026488,0.028254,-0.00088049,0,0,0.89147,-0.40174,0,-0.022893,0,0,0,0.096839,-0.0026591,0.028254,-0.50466,0.040811,0.088203,2.1213e-05,0.9,0.78,0
0.43005,0.01712,0.096189,-0.0022001,0.028197,-0.00079839,0,0,0.8839,-0.39516,0,-0.020758,0,0,0,0.096197,-0.0022082,0.028197,-0.46291,0.040729,0.08727,2.07e-05,0.92,0.78,0
0.44766,0.016134,0.095693,-0.0018218,0.028161,-0.00065495,0,0,0.87791,-0.38978,0,-0.017029,0,0,0,0.095698,-0.0018273,0.028161,-0.38327,0.040677,0.086521,2.0299e-05,0.94,0.78,0
0.46516,0.015416,0.095338,-0.001536,0.028141,-0.00046386,0,0,0.87357,-0.3858,0,-0.01206,0,0,0,0.095341,-0.0015389,0.028141,-0.27329,0.040648,0.085972,2.0012e-05,0.96,0.78,0
0.4826,0.01498,0.095126,-0.0013582,0.02813,-0.00031088,0,0,0.87094,-0.38335,0,-0.008083,0,0,0,0.095127,-0.0013594,0.02813,-0.18415,0.040633,0.085638,1.984e-05,0.98,0.78,0
0.4913,0.014833,0.095055,-0.0012978,0.028127,-0.00026355,0,0,0.87006,-0.38252,0,-0.0068524,0,0,0,0.095056,-0.0012986,0.028127,-0.15653,0.040628,0.085526,1.9782e-05,1,0.78,0
0.0061438,-0.0066505,0.083264,0.039235,0.036749,-0.025227,0,0,0.60468,0.032306,0,-0.6559,0,0,0,0.094801,0.027697,0.036749,-24.703,0.053083,0.063097,1.2748e-05,0,0.8,0
0.012094,-0.011438,0.083023,0.040156,0.036954,-0.023617,0,0,0.5989,0.041632,0,-0.61405,0,0,0,0.093596,0.029583,0.036954,-24.056,0.053378,0.060696,1.1801e-05,0.02,0.8,0
0.023956,-0.017803,0.084246,0.038551,0.036839,-0.019851,0,0,0.57418,0.029097,0,-0.50633,0,0,0,0.092125,0.030672,0.036839,-21.148,0.053212,0.058631,1.2615e-05,0.04,0.8,0
0.035372,-0.019106,0.086892,0.03261,0.03585,-0.015819,0,0,0.48463,-0.0095554,0,-0.36902,0,0,0,0.091954,0.027548,0.03585,-16.658,0.051784,0.060716,1.6642e-05,0.06,0.8,0
0.044426,-0.017932,0.08462,0.023946,0.03257,-0.011253,0,0,0.31788,-0.027456,0,-0.22084,0,0,0,0.087723,0.020843,0.03257,-12.453,0.047045,0.061915,1.789e-05,0.08,0.8,0
0.04948,-0.01584,0.082589,0.016566,0.029747,-0.0067299,0,0,0.16628,-0.025731,0,-0.10199,0,0,0,0.084407,0.014748,0.029747,-9.1449,0.042967,0.063546,1.6834e-05,0.1,0.8,0
0.051852,-0.013189,0.089535,0.014937,0.031342,-0.0040399,0,0,0.10049,-0.02197,0,-0.046226,0,0,0,0.09072,0.013752,0.031342,-6.9149,0.045271,0.069871,1.8784e-05,0.12,0.8,0
0.053655,-0.010113,0.097346,0.013987,0.0334,-0.0022113,0,0,0.092757,-0.023415,0,-0.022975,0,0,0,0.09798,0.013353,0.0334,-4.6967,0.048244,0.076619,2.2777e-05,0.14,0.8,0
0.055562,-0.0066993,0.10056,0.011209,0.03353,-0.00062029,0,0,0.096726,-0.027706,0,-0.0057161,0,0,0,0.10075,0.011016,0.03353,-1.4756,0.048432,0.080894,2.6044e-05,0.16,0.8,0
0.057524,-0.002948,0.10081,0.0086658,0.032843,0.00014872,0,0,0.097808,-0.030932,0,0.0080349,0,0,0,0.10102,0.0084591,0.032843,1.7879,0.047439,0.083118,2.7425e-05,0.18,0.8,0
0.059474,0.0011281,0.097822,0.00632,0.031243,-5.6837e-05,0,0,0.095592,-0.03309,0,0.019536,0,0,0,0.098411,0.0057309,0.031243,3.3448,0.045128,0.082938,2.6815e-05,0.2,0.8,0
0.061347,0.0055318,0.08923,0.0032734,0.027751,-0.0010413,0,0,0.099705,-0.036831,0,0.031026,0,0,0,0.090239,0.0022639,0.027751,3.7043,0.040085,0.078435,2.5087e-05,0.22,0.8,0
0.063595,0.010339,0.078078,0.002393,0.024141,-0.0027263,0,0,0.14416,-0.049085,0,0.049542,0,0,0,0.079764,0.00070759,0.024141,3.2848,0.034871,0.070382,2.4722e-05,0.24,0.8,0
0.067618,0.015241,0.072633,0.0061381,0.023631,-0.0019528,0,0,0.23709,-0.072277,0,0.085034,0,0,0,0.074784,0.0039877,0.023631,3.6419,0.034134,0.063365,3.3509e-05,0.26,0.8,0
0.073689,0.019898,0.070808,0.0085297,0.023801,0.0033285,0,0,0.30959,-0.093607,0,0.13567,0,0,0,0.072542,0.0067959,0.023801,7.3002,0.03438,0.059134,4.8771e-05,0.28,0.8,0
0.080241,0.024647,0.069471,0.0077682,0.023172,0.0083566,0,0,0.32304,-0.10213,0,0.18527,0,0,0,0.071216,0.0060234,0.023172,11.39,0.03347,0.058544,5.9989e-05,0.3,0.8,0
0.086611,0.029626,0.07308,0.0084998,0.024474,0.012071,0,0,0.32725,-0.10356,0,0.23257,0,0,0,0.075855,0.0057246,0.024474,13.789,0.035351,0.062896,8.3332e-05,0.32,0.8,0
0.093331,0.035109,0.084277,0.014559,0.029651,0.023196,0,0,0.32354,-0.097794,0,0.27043,0,0,0,0.093359,0.0054768,0.029651,16.503,0.042829,0.078705,0.0001258,0.34,0.8,0
0.099724,0.040642,0.099712,0.02516,0.037461,0.041006,0,0,0.26073,-0.071825,0,0.26177,0,0,0,0.12014,0.0047328,0.037461,20.717,0.054111,0.10315,0.00014809,0.36,0.8,0
0.10421,0.044582,0.11609,0.031309,0.044221,0.052887,0,0,0.1732,-0.038838,0,0.21498,0,0,0,0.14277,0.0046345,0.044221,24.393,0.063874,0.12328,0.00013671,0.38,0.8,0
0.10705,0.047037,0.1321,0.02663,0.04762,0.057144,0,0,0.13003,-0.030324,0,0.17513,0,0,0,0.15803,0.0007017,0.04762,24.244,0.068785,0.13993,0.000122,0.4,0.8,0
0.10952,0.049191,0.14162,0.014489,0.046834,0.056256,0,0,0.12589,-0.042118,0,0.15082,0,0,0,0.16358,-0.0074683,0.046834,21.185,0.067649,0.15141,0.00011233,0.42,0.8,0
0.11208,0.051392,0.14269,0.0026523,0.043601,0.051347,0,0,0.12881,-0.053234,0,0.1335,0,0,0,0.15983,-0.014493,0.043601,18.247,0.06298,0.15375,0.00010214,0.44,0.8,0
0.11468,0.053619,0.14072,-0.0043294,0.040917,0.045627,0,0,0.12974,-0.05882,0,0.11863,0,0,0,0.15408,-0.017687,0.040917,16.131,0.059102,0.15123,9.2629e-05,0.46,0.8,0
0.11727,0.055766,0.13847,-0.007922,0.039165,0.039249,0,0,0.1291,-0.061213,0,0.10205,0,0,0,0.14853,-0.017982,0.039165,14.112,0.056572,0.14655,8.3116e-05,0.48,0.8,0
0.11984,0.057705,0.13643,-0.011081,0.037603,0.031782,0,0,0.12847,-0.06329,0,0.082634,0,0,0,0.14323,-0.017881,0.037603,11.664,0.054316,0.14176,7.4552e-05,0.5,0.8,0
0.12241,0.059344,0.13537,-0.016123,0.035775,0.023941,0,0,0.12948,-0.067467,0,0.062248,0,0,0,0.13931,-0.020064,0.035775,8.8158,0.051674,0.14008,6.9253e-05,0.52,0.8,0
0.12502,0.060689,0.13502,-0.02433,0.033206,0.017413,0,0,0.13235,-0.074797,0,0.045273,0,0,0,0.13703,-0.026346,0.033206,6.2219,0.047964,0.14324,6.7604e-05,0.54,0.8,0
0.1277,0.061859,0.13266,-0.030171,0.030746,0.01262,0,0,0.13814,-0.082175,0,0.034205,0,0,0,0.13369,-0.031204,0.030746,4.4336,0.044411,0.14428,6.7405e-05,0.56,0.8,0
0.13051,0.062869,0.12826,-0.026313,0.030585,0.0071688,0,0,0.1775,-0.097655,0,0.02266,0,0,0,0.12882,-0.026871,0.030585,2.3012,0.044179,0.1364,7.3199e-05,0.58,0.8,0
0.13502,0.062437,0.13186,-0.020682,0.033353,0.0033122,0,0,0.35248,-0.16539,0,0.023195,0,0,0,0.13231,-0.021131,0.033353,0.45318,0.048176,0.13496,0.00010233,0.6,0.8,0
0.14595,0.057492,0.1372,-0.013625,0.037073,0.0026579,0,0,0.69527,-0.28637,0,0.024328,0,0,0,0.13767,-0.014094,0.037073,0.33581,0.053549,0.13424,0.00011286,0.62,0.8,0
0.16472,0.048663,0.1286,-0.00012642,0.038542,0.0019622,0,0,0.9833,-0.37838,0,0.026891,0,0,0,0.12893,-0.00045921,0.038542,0.70072,0.055672,0.11528,6.8975e-05,0.64,0.8,0
0.18608,0.040914,0.11762,0.0052133,0.036849,0.0027939,0,0,1.05,-0.41126,0,0.07264,0,0,0,0.11785,0.004976,0.036849,1.4963,0.053226,0.1008,3.5772e-05,0.66,0.8,0
0.20671,0.035734,0.11283,0.0018961,0.034418,0.0044266,0,0,1.0194,-0.42279,0,0.11509,0,0,0,0.11308,0.001652,0.034418,2.3268,0.049715,0.09919,3.2466e-05,0.68,0.8,0
0.22685,0.031789,0.10949,-0.00045583,0.032709,0.00451,0,0,0.9981,-0.43114,0,0.11726,0,0,0,0.10971,-0.00067772,0.032709,2.376,0.047246,0.098054,3.0273e-05,0.7,0.8,0
0.24664,0.028556,0.10699,-0.0021109,0.031465,0.0040478,0,0,0.98188,-0.43649,0,0.10524,0,0,0,0.10717,-0.0022865,0.031465,2.1441,0.045449,0.097086,2.8639e-05,0.72,0.8,0
0.26613,0.025757,0.10497,-0.0032216,0.030526,0.0033727,0,0,0.96782,-0.43871,0,0.087691,0,0,0,0.1051,-0.0033462,0.030526,1.8003,0.044092,0.096095,2.7277e-05,0.74,0.8,0
0.28535,0.023239,0.10324,-0.0038925,0.029805,0.0026492,0,0,0.95468,-0.43807,0,0.06888,0,0,0,0.10332,-0.0039735,0.029805,1.4281,0.043051,0.095022,2.6073e-05,0.76,0.8,0
0.30432,0.020922,0.10171,-0.004214,0.02925,0.0019624,0,0,0.94203,-0.43503,0,0.051021,0,0,0,0.10176,-0.0042627,0.02925,1.0705,0.04225,0.093869,2.4983e-05,0.78,0.8,0
0.32303,0.018767,0.10035,-0.0042659,0.028825,0.0013546,0,0,0.92981,-0.43018,0,0.035219,0,0,0,0.10038,-0.0042932,0.028825,0.7491,0.041636,0.092661,2.399e-05,0.8,0.8,0
0.34151,0.01676,0.099128,-0.0041182,0.028503,0.00084438,0,0,0.91813,-0.42407,0,0.021954,0,0,0,0.099142,-0.0041327,0.028503,0.47436,0.041171,0.091435,2.3089e-05,0.82,0.8,0
0.35976,0.014903,0.098041,-0.0038322,0.028263,0.00043703,0,0,0.90712,-0.41723,0,0.011363,0,0,0,0.098049,-0.0038399,0.028263,0.25045,0.040824,0.090228,2.2277e-05,0.84,0.8,0
0.37779,0.013207,0.097085,-0.0034607,0.028087,0.00013046,0,0,0.89697,-0.41012,0,0.003392,0,0,0,0.097089,-0.0034652,0.028087,0.078128,0.04057,0.089073,2.1555e-05,0.86,0.8,0
0.39564,0.011688,0.096255,-0.0030494,0.027962,-8.1662e-05,0,0,0.88782,-0.40315,0,-0.0021232,0,0,0,0.096259,-0.0030525,0.027962,-0.044021,0.040389,0.088003,2.0924e-05,0.88,0.8,0
0.41331,0.010362,0.095553,-0.0026369,0.027875,-0.00020839,0,0,0.87982,-0.39665,0,-0.0054182,0,0,0,0.095556,-0.0026394,0.027875,-0.11908,0.040264,0.087046,2.0385e-05,0.9,0.8,0
0.43083,0.009249,0.094978,-0.0022556,0.027817,-0.00026079,0,0,0.87309,-0.39094,0,-0.0067804,0,0,0,0.09498,-0.0022577,0.027817,-0.15167,0.040179,0.086228,1.9942e-05,0.92,0.8,0
0.44823,0.0083639,0.094529,-0.0019319,0.027779,-0.00025154,0,0,0.86775,-0.38624,0,-0.0065401,0,0,0,0.09453,-0.0019334,0.027779,-0.1479,0.040125,0.085568,1.9594e-05,0.94,0.8,0
0.46554,0.007721,0.094208,-0.0016862,0.027757,-0.00019474,0,0,0.86387,-0.38276,0,-0.0050632,0,0,0,0.094209,-0.001687,0.027757,-0.11534,0.040093,0.085085,1.9344e-05,0.96,0.8,0
0.48279,0.0073309,0.094015,-0.0015329,0.027745,-0.00016871,0,0,0.86152,-0.38061,0,-0.0043865,0,0,0,0.094016,-0.0015334,0.027745,-0.10071,0.040076,0.08479,1.9194e-05,0.98,0.8,0
0.4914,0.0072001,0.093951,-0.0014809,0.027741,-0.00018114,0,0,0.86073,-0.37989,0,-0.0047095,0,0,0,0.093952,-0.0014813,0.027741,-0.10852,0.04007,0.084691,1.9144e-05,1,0.8,0
0.0048196,-0.0059151,0.065868,0.032076,0.029383,-0.022257,0,0,0.47431,0.035003,0,-0.5787,0,0,0,0.076954,0.02099,0.029383,-26.575,0.042442,0.052313,7.0099e-06,0,0.82,0
0.0094861,-0.010461,0.065588,0.033551,0.029742,-0.020629,0,0,0.466,0.049523,0,-0.53636,0,0,0,0.075761,0.023379,0.029742,-26.179,0.042961,0.049556,6.236e-06,0.02,0.82,0
0.01864,-0.017034,0.064125,0.032692,0.029045,-0.017028,0,0,0.45604,0.04741,0,-0.44272,0,0,0,0.071761,0.025056,0.029045,-23.744,0.041954,0.044861,4.9061e-06,0.04,0.82,0
0.027728,-0.019204,0.064035,0.027833,0.027561,-0.014437,0,0,0.44212,0.0092806,0,-0.36418,0,0,0,0.069313,0.022555,0.027561,-20.02,0.03981,0.044504,5.5587e-06,0.06,0.82,0
0.03657,-0.0185,0.065232,0.022069,0.02619,-0.013288,0,0,0.36926,-0.018957,0,-0.29368,0,0,0,0.069419,0.017882,0.02619,-17.417,0.037831,0.04799,8.0716e-06,0.08,0.82,0
0.043353,-0.016334,0.063464,0.016523,0.023996,-0.011361,0,0,0.23998,-0.021415,0,-0.20414,0,0,0,0.067012,0.012975,0.023996,-16.327,0.034661,0.049513,9.3214e-06,0.1,0.82,0
0.047145,-0.013514,0.061081,0.013483,0.022369,-0.0081799,0,0,0.14539,-0.014421,0,-0.12853,0,0,0,0.063812,0.010752,0.022369,-15.469,0.032311,0.048353,9.4323e-06,0.12,0.82,0
0.049534,-0.010435,0.060607,0.01138,0.021596,-0.0046451,0,0,0.11574,-0.013167,0,-0.070757,0,0,0,0.062051,0.0099356,0.021596,-11.693,0.031194,0.047435,1.0242e-05,0.14,0.82,0
0.051774,-0.0071045,0.060498,0.0090146,0.020854,-0.0013613,0,0,0.11073,-0.016679,0,-0.016107,0,0,0,0.060956,0.0085569,0.020854,-3.4209,0.030122,0.047549,1.1206e-05,0.16,0.82,0
0.053963,-0.0034192,0.059422,0.007174,0.019979,0.0014151,0,0,0.10881,-0.020982,0,0.03463,0,0,0,0.060009,0.0065869,0.019979,6.0398,0.028858,0.048213,1.1189e-05,0.18,0.82,0
0.056127,0.00060849,0.056743,0.0056993,0.018733,0.0036124,0,0,0.10889,-0.026357,0,0.083016,0,0,0,0.058325,0.0041174,0.018733,11.977,0.027059,0.048617,9.8341e-06,0.2,0.82,0
0.058319,0.0048787,0.052512,0.0039298,0.016933,0.005173,0,0,0.12627,-0.036793,0,0.12558,0,0,0,0.054939,0.0015033,0.016933,13.484,0.024458,0.047679,7.575e-06,0.22,0.82,0
0.061457,0.0092236,0.048205,0.0027437,0.015285,0.0058522,0,0,0.19037,-0.060398,0,0.16656,0,0,0,0.050927,2.164e-05,0.015285,12.668,0.022078,0.045283,5.586e-06,0.24,0.82,0
0.066636,0.013491,0.04439,0.0038563,0.014474,0.0064446,0,0,0.27791,-0.088478,0,0.20328,0,0,0,0.047113,0.0011335,0.014474,12.227,0.020907,0.040993,3.9033e-06,0.26,0.82,0
0.073139,0.017809,0.040444,0.0050086,0.013636,0.0077618,0,0,0.32437,-0.10242,0,0.22013,0,0,0,0.042832,0.0026206,0.013636,13.028,0.019696,0.036003,2.1894e-06,0.28,0.82,0
0.079754,0.022489,0.038057,0.0046791,0.012821,0.0087138,0,0,0.32807,-0.10584,0,0.22656,0,0,0,0.040237,0.002499,0.012821,13.828,0.018519,0.033787,1.383e-06,0.3,0.82,0
0.086262,0.027473,0.037875,0.0045944,0.012741,0.009108,0,0,0.32675,-0.1059,0,0.23681,0,0,0,0.040219,0.0022507,0.012741,14.32,0.018404,0.033962,1.4054e-06,0.32,0.82,0
0.092824,0.032891,0.041529,0.0052553,0.014035,0.012403,0,0,0.3232,-0.1093,0,0.23933,0,0,0,0.046056,0.00072869,0.014035,14.668,0.020273,0.040372,1.0459e-05,0.34,0.82,0
0.099311,0.038639,0.052513,0.0096522,0.01865,0.021484,0,0,0.286,-0.10396,0,0.21785,0,0,0,0.063305,-0.0011399,0.01865,16.176,0.026938,0.057201,3.2086e-05,0.36,0.82,0
0.10474,0.043426,0.068557,0.018353,0.026073,0.032915,0,0,0.20655,-0.067831,0,0.18597,0,0,0,0.086592,0.00031915,0.026073,20.549,0.037661,0.076726,5.0255e-05,0.38,0.82,0
0.10826,0.046466,0.086965,0.022122,0.032726,0.042227,0,0,0.13402,-0.032675,0,0.16126,0,0,0,0.10863,0.00045848,0.032726,24.349,0.047271,0.0962,5.9947e-05,0.4,0.82,0
0.11054,0.048496,0.1066,0.015905,0.036752,0.047558,0,0,0.10729,-0.029751,0,0.14194,0,0,0,0.12748,-0.0049717,0.036752,23.531,0.053087,0.11732,6.7277e-05,0.42,0.82,0
0.11266,0.050436,0.12145,0.0062327,0.038306,0.04773,0,0,0.11024,-0.041754,0,0.12704,0,0,0,0.13895,-0.011266,0.038306,20.116,0.055331,0.13259,7.185e-05,0.44,0.82,0
0.11495,0.052533,0.12882,0.00029133,0.038732,0.044168,0,0,0.11711,-0.049973,0,0.11484,0,0,0,0.14267,-0.013562,0.038732,17.269,0.055947,0.13775,7.3322e-05,0.46,0.82,0
0.11734,0.054628,0.13201,-0.0022968,0.038915,0.03899,0,0,0.12103,-0.053575,0,0.10137,0,0,0,0.14265,-0.012932,0.038915,15.056,0.05621,0.13722,7.2064e-05,0.48,0.82,0
0.11979,0.056527,0.13282,-0.0048577,0.038389,0.032724,0,0,0.12276,-0.05622,0,0.085082,0,0,0,0.14037,-0.012413,0.038389,12.696,0.05545,0.13478,6.8286e-05,0.5,0.82,0
0.12225,0.05808,0.13159,-0.0096081,0.036595,0.025795,0,0,0.12349,-0.060064,0,0.067067,0,0,0,0.13641,-0.01443,0.036595,10.073,0.052859,0.1329,6.3509e-05,0.52,0.82,0
0.12473,0.059254,0.12565,-0.019864,0.031737,0.019003,0,0,0.12724,-0.070842,0,0.054767,0,0,0,0.12841,-0.022622,0.031737,7.6579,0.045842,0.13256,5.7693e-05,0.54,0.82,0
0.12731,0.06023,0.11628,-0.028036,0.026473,0.013498,0,0,0.1606,-0.095016,0,0.059899,0,0,0,0.1178,-0.029555,0.026473,5.9029,0.038239,0.12888,5.5642e-05,0.56,0.82,0
0.1314,0.060506,0.11591,-0.023844,0.02762,0.0099247,0,0,0.29875,-0.15946,0,0.091508,0,0,0,0.11692,-0.024857,0.02762,4.3687,0.039896,0.12421,6.8005e-05,0.58,0.82,0
0.1406,0.05768,0.12423,-0.01615,0.032423,0.0082492,0,0,0.57269,-0.28647,0,0.14137,0,0,0,0.12503,-0.016955,0.032423,3.3607,0.046833,0.12488,8.7436e-05,0.6,0.82,0
0.15652,0.050054,0.12398,-0.0088414,0.034541,0.0072748,0,0,0.84349,-0.39022,0,0.16199,0,0,0,0.12456,-0.0094208,0.034541,3.2205,0.049893,0.11834,8.0432e-05,0.62,0.82,0
0.17589,0.040447,0.11428,0.00014225,0.034327,0.0062861,0,0,0.96227,-0.40144,0,0.15508,0,0,0,0.11473,-0.0003069,0.034327,3.3053,0.049583,0.10226,4.7151e-05,0.64,0.82,0
0.1954,0.032791,0.10761,0.0032699,0.033263,0.0065224,0,0,0.96647,-0.38991,0,0.16958,0,0,0,0.10809,0.0027913,0.033263,3.655,0.048046,0.093848,2.837e-05,0.66,0.82,0
0.21454,0.02747,0.10535,0.0015329,0.032065,0.0069952,0,0,0.9527,-0.39691,0,0.18187,0,0,0,0.10584,0.0010371,0.032065,3.8837,0.046315,0.093251,2.6885e-05,0.68,0.82,0
0.23351,0.023381,0.10378,-8.3188e-05,0.03111,0.0065179,0,0,0.94475,-0.40551,0,0.16947,0,0,0,0.10421,-0.00051052,0.03111,3.6081,0.044937,0.093033,2.5971e-05,0.7,0.82,0
0.25233,0.020038,0.10239,-0.001479,0.030273,0.0057198,0,0,0.9375,-0.41277,0,0.14872,0,0,0,0.10272,-0.001809,0.030273,3.1645,0.043727,0.092746,2.5155e-05,0.72,0.82,0
0.27101,0.01718,0.10111,-0.0025677,0.029562,0.0048304,0,0,0.93009,-0.41769,0,0.12559,0,0,0,0.10135,-0.002805,0.029562,2.6773,0.042701,0.092325,2.438e-05,0.74,0.82,0
0.28954,0.014656,0.099943,-0.0032753,0.029,0.003969,0,0,0.92225,-0.41958,0,0.10319,0,0,0,0.10011,-0.0034382,0.029,2.2103,0.041889,0.091732,2.3633e-05,0.76,0.82,0
0.3079,0.012379,0.098868,-0.0036465,0.028566,0.00317,0,0,0.91392,-0.41877,0,0.082419,0,0,0,0.098975,-0.0037532,0.028566,1.7782,0.041263,0.090981,2.2909e-05,0.78,0.82,0
0.3261,0.0103,0.09786,-0.0037749,0.028226,0.0024575,0,0,0.90525,-0.416,0,0.063895,0,0,0,0.097926,-0.0038413,0.028226,1.3911,0.04077,0.09012,2.2209e-05,0.8,0.82,0
0.34411,0.0083966,0.096926,-0.0037131,0.027964,0.0018459,0,0,0.89651,-0.4118,0,0.047993,0,0,0,0.096965,-0.0037526,0.027964,1.0558,0.040392,0.089194,2.1545e-05,0.82,0.82,0
0.36196,0.0066595,0.096068,-0.0035159,0.027766,0.0013352,0,0,0.88793,-0.40666,0,0.034716,0,0,0,0.09609,-0.0035382,0.027766,0.7723,0.040106,0.088244,2.0926e-05,0.84,0.82,0
0.37963,0.0050906,0.095297,-0.0032296,0.02762,0.0009237,0,0,0.8798,-0.40105,0,0.024016,0,0,0,0.095309,-0.0032416,0.02762,0.54054,0.039896,0.087311,2.0361e-05,0.86,0.82,0
0.39715,0.0036976,0.094615,-0.0028979,0.027515,0.00060381,0,0,0.8723,-0.39537,0,0.015699,0,0,0,0.094622,-0.0029041,0.027515,0.35755,0.039744,0.086429,1.9857e-05,0.88,0.82,0
0.41452,0.0024909,0.094032,-0.0025563,0.027443,0.0003671,0,0,0.86566,-0.38999,0,0.0095445,0,0,0,0.094035,-0.0025593,0.027443,0.22001,0.039639,0.08563,1.9422e-05,0.9,0.82,0
0.43177,0.0014825,0.093548,-0.0022361,0.027394,0.00020246,0,0,0.86001,-0.38518,0,0.0052641,0,0,0,0.093549,-0.0022375,0.027394,0.12287,0.039568,0.08494,1.9059e-05,0.92,0.82,0
0.44892,0.00068405,0.093169,-0.0019614,0.027362,9.7589e-05,0,0,0.85549,-0.38121,0,0.0025373,0,0,0,0.09317,-0.0019621,0.027362,0.060093,0.039523,0.084382,1.8773e-05,0.94,0.82,0
0.46599,0.0001057,0.092896,-0.0017518,0.027343,3.8914e-05,0,0,0.85219,-0.37824,0,0.0010118,0,0,0,0.092896,-0.0017521,0.027343,0.024437,0.039496,0.08397,1.8566e-05,0.96,0.82,0
0.48301,-0.00024464,0.092724,-0.0016391,0.027325,-4.9416e-05,0,0,0.85018,-0.37654,0,-0.0012848,0,0,0,0.092724,-0.0016393,0.027325,-0.029631,0.03947,0.083727,1.8441e-05,0.98,0.82,0
0.49151,-0.00036199,0.092664,-0.0016117,0.027316,-0.00011794,0,0,0.84953,-0.37606,0,-0.0030663,0,0,0,0.092664,-0.001612,0.027316,-0.071508,0.039456,0.083652,1.84e-05,1,0.82,0
0.0039187,-0.0052504,0.053543,0.026399,0.023983,-0.019815,0,0,0.38428,0.031415,0,-0.5152,0,0,0,0.064022,0.01592,0.023983,-27.936,0.034641,0.044651,4.19e-06,0,0.84,0
0.0076731,-0.0094569,0.053314,0.028175,0.024447,-0.018359,0,0,0.37528,0.048463,0,-0.47734,0,0,0,0.063032,0.018457,0.024447,-27.853,0.035312,0.041959,3.6837e-06,0.02,0.84,0
0.01499,-0.015907,0.051819,0.028634,0.024136,-0.014932,0,0,0.35988,0.05848,0,-0.38824,0,0,0,0.059235,0.021218,0.024136,-26.004,0.034863,0.03667,2.6582e-06,0.04,0.84,0
0.02206,-0.018744,0.049235,0.02472,0.022187,-0.011907,0,0,0.35162,0.032942,0,-0.30957,0,0,0,0.054181,0.019774,0.022187,-22.195,0.032047,0.033291,2.0403e-06,0.06,0.84,0
0.029049,-0.018705,0.047427,0.0196,0.020108,-0.01064,0,0,0.32996,0.00094543,0,-0.26362,0,0,0,0.051164,0.015863,0.020108,-19.046,0.029045,0.033452,2.5318e-06,0.08,0.84,0
0.035439,-0.016697,0.045049,0.01514,0.018057,-0.00966,0,0,0.27609,-0.017041,0,-0.21794,0,0,0,0.048289,0.0119,0.018057,-17.475,0.026082,0.033795,3.3815e-06,0.1,0.84,0
0.040472,-0.013761,0.039906,0.011711,0.015485,-0.0071829,0,0,0.21953,-0.022549,0,-0.15499,0,0,0,0.042303,0.0093131,0.015485,-15.644,0.022367,0.030417,3.2307e-06,0.12,0.84,0
0.044415,-0.010639,0.034888,0.0091108,0.0132,-0.0038369,0,0,0.18569,-0.024187,0,-0.082389,0,0,0,0.036055,0.0079445,0.0132,-10.818,0.019066,0.025935,2.7001e-06,0.14,0.84,0
0.047903,-0.0073664,0.032275,0.0072508,0.011858,-0.0005955,0,0,0.16952,-0.026944,0,-0.0088264,0,0,0,0.032686,0.0068402,0.011858,-1.919,0.017128,0.023806,2.5528e-06,0.16,0.84,0
0.051196,-0.0037873,0.031045,0.0059331,0.011093,0.0025135,0,0,0.16487,-0.032597,0,0.063292,0,0,0,0.031735,0.0052425,0.011093,8.197,0.016024,0.024164,2.45e-06,0.18,0.84,0
0.054497,7.379e-05,0.030886,0.0049591,0.010754,0.0053323,0,0,0.17134,-0.042252,0,0.13067,0,0,0,0.032635,0.0032099,0.010754,15.022,0.015533,0.026506,2.2606e-06,0.2,0.84,0
0.05805,0.0040125,0.032422,0.0040686,0.010947,0.0076416,0,0,0.1937,-0.057261,0,0.18724,0,0,0,0.035152,0.0013384,0.010947,17.324,0.015812,0.030205,2.1329e-06,0.22,0.84,0
0.062387,0.0077924,0.034227,0.0034702,0.011309,0.0090503,0,0,0.23581,-0.076284,0,0.22529,0,0,0,0.037248,0.00044967,0.011309,17.012,0.016336,0.032763,1.8914e-06,0.24,0.84,0
0.067767,0.011582,0.034422,0.0037706,0.011458,0.009396,0,0,0.27805,-0.090719,0,0.24066,0,0,0,0.03724,0.00095173,0.011458,16.273,0.01655,0.032348,1.3913e-06,0.26,0.84,0
0.073652,0.015765,0.034437,0.0042423,0.011604,0.0092287,0,0,0.29683,-0.095699,0,0.23995,0,0,0,0.037043,0.0016365,0.011604,15.756,0.016761,0.031625,1.1211e-06,0.28,0.84,0
0.07964,0.020414,0.034824,0.0041469,0.011691,0.0090397,0,0,0.30072,-0.098076,0,0.23503,0,0,0,0.037298,0.001673,0.011691,15.292,0.016887,0.031821,1.1269e-06,0.3,0.84,0
0.085681,0.02539,0.034878,0.004009,0.011666,0.0088839,0,0,0.30176,-0.099543,0,0.23098,0,0,0,0.03726,0.0016274,0.011666,14.992,0.016851,0.031824,1.1225e-06,0.32,0.84,0
0.09171,0.030671,0.034672,0.0032668,0.011382,0.008639,0,0,0.30277,-0.10549,0,0.22461,0,0,0,0.036913,0.0010255,0.011382,14.474,0.01644,0.031996,1.1118e-06,0.34,0.84,0
0.097792,0.03621,0.036859,0.0031941,0.012016,0.010059,0,0,0.29632,-0.11488,0,0.20548,0,0,0,0.040202,-0.00014919,0.012016,13.697,0.017356,0.035858,4.7579e-06,0.36,0.84,0
0.10368,0.041462,0.044539,0.0076624,0.01566,0.015852,0,0,0.25348,-0.1002,0,0.17388,0,0,0,0.051955,0.00024626,0.01566,15.096,0.022621,0.045994,1.3815e-05,0.38,0.84,0
0.10838,0.045461,0.055164,0.013637,0.02064,0.024226,0,0,0.17363,-0.059173,0,0.14502,0,0,0,0.067581,0.0012202,0.02064,19.816,0.029814,0.059111,2.2442e-05,0.4,0.84,0
0.11125,0.047926,0.069232,0.012706,0.024581,0.031313,0,0,0.10853,-0.03123,0,0.12817,0,0,0,0.083845,-0.0019075,0.024581,23.254,0.035506,0.076086,2.9506e-05,0.42,0.84,0
0.11314,0.049715,0.0911,0.006435,0.02926,0.035554,0,0,0.091977,-0.032461,0,0.11634,0,0,0,0.1046,-0.0070699,0.02926,21.421,0.042265,0.098687,3.949e-05,0.44,0.84,0
0.11508,0.05162,0.11456,0.0029875,0.035264,0.036338,0,0,0.10419,-0.042385,0,0.10133,0,0,0,0.12567,-0.0081232,0.035264,17.126,0.050937,0.11825,5.2531e-05,0.46,0.84,0
0.11733,0.053623,0.13048,0.0022785,0.039828,0.034329,0,0,0.11785,-0.048815,0,0.089256,0,0,0,0.1393,-0.0065399,0.039828,14.091,0.05753,0.12908,6.5079e-05,0.48,0.84,0
0.11979,0.055457,0.13866,0.00087052,0.041858,0.031338,0,0,0.12584,-0.053283,0,0.081479,0,0,0,0.14558,-0.006057,0.041858,12.266,0.060461,0.13428,7.4152e-05,0.5,0.84,0
0.12236,0.056941,0.13582,-0.0028245,0.039899,0.028012,0,0,0.13016,-0.061441,0,0.09627,0,0,0,0.14169,-0.0086924,0.039899,11.43,0.057631,0.13302,7.3954e-05,0.52,0.84,0
0.12498,0.057876,0.11911,-0.013947,0.031549,0.023724,0,0,0.15617,-0.087279,0,0.13744,0,0,0,0.12416,-0.018995,0.031549,11.123,0.045571,0.12599,6.2637e-05,0.54,0.84,0
0.12885,0.05795,0.10633,-0.024524,0.024541,0.019516,0,0,0.27708,-0.15344,0,0.18602,0,0,0,0.10995,-0.028144,0.024541,9.7638,0.035448,0.12088,5.6089e-05,0.56,0.84,0
0.13733,0.05586,0.10838,-0.021402,0.026093,0.016372,0,0,0.52706,-0.27538,0,0.24619,0,0,0,0.11075,-0.023772,0.026093,7.786,0.03769,0.11786,5.7737e-05,0.58,0.84,0
0.15207,0.049958,0.10848,-0.013351,0.028538,0.012737,0,0,0.78225,-0.39679,0,0.2701,0,0,0,0.10998,-0.014852,0.028538,6.1396,0.041222,0.10979,4.796e-05,0.6,0.84,0
0.17015,0.041199,0.10171,-0.0065022,0.028562,0.009234,0,0,0.89441,-0.42432,0,0.23323,0,0,0,0.10255,-0.0073378,0.028562,4.9421,0.041256,0.097073,3.039e-05,0.62,0.84,0
0.18825,0.03244,0.098035,-3.6075e-06,0.029409,0.0078091,0,0,0.89213,-0.38237,0,0.20304,0,0,0,0.098661,-0.00062967,0.029409,4.5516,0.04248,0.088209,2.222e-05,0.64,0.84,0
0.20584,0.025318,0.09756,0.0023313,0.029967,0.0078255,0,0,0.87871,-0.35927,0,0.20346,0,0,0,0.098204,0.001688,0.029967,4.6829,0.043286,0.08594,2.1298e-05,0.66,0.84,0
0.2234,0.019857,0.097494,0.0016816,0.029753,0.0078253,0,0,0.88064,-0.36493,0,0.20346,0,0,0,0.098133,0.0010428,0.029753,4.6537,0.042976,0.086391,2.1382e-05,0.68,0.84,0
0.24106,0.015569,0.09748,0.0004977,0.029393,0.0073307,0,0,0.88512,-0.37564,0,0.1906,0,0,0,0.098037,-5.961e-05,0.029393,4.3143,0.042457,0.087185,2.1538e-05,0.7,0.84,0
0.2588,0.012055,0.097228,-0.00071355,0.028954,0.0065249,0,0,0.88755,-0.38568,0,0.16965,0,0,0,0.097668,-0.0011543,0.028954,3.8093,0.041823,0.087734,2.1511e-05,0.72,0.84,0
0.27657,0.0090798,0.096782,-0.0017562,0.028508,0.0056354,0,0,0.88757,-0.39343,0,0.14652,0,0,0,0.097111,-0.0020847,0.028508,3.2752,0.041178,0.087984,2.1328e-05,0.74,0.84,0
0.29431,0.0064939,0.096267,-0.0024795,0.028136,0.0047942,0,0,0.8857,-0.398,0,0.12465,0,0,0,0.096506,-0.0027186,0.028136,2.7838,0.040641,0.087955,2.1054e-05,0.76,0.84,0
0.312,0.0042053,0.095694,-0.0029069,0.027836,0.0039899,0,0,0.88216,-0.39966,0,0.10374,0,0,0,0.095862,-0.0030745,0.027836,2.3222,0.040208,0.087669,2.0703e-05,0.78,0.84,0
0.3296,0.0021568,0.09508,-0.0031154,0.027589,0.0032514,0,0,0.87737,-0.39916,0,0.084537,0,0,0,0.095193,-0.0032284,0.027589,1.9016,0.039851,0.087197,2.03e-05,0.8,0.84,0
0.34709,0.00031445,0.094467,-0.0031408,0.027398,0.0026001,0,0,0.8719,-0.397,0,0.067603,0,0,0,0.094541,-0.0032147,0.027398,1.5307,0.039575,0.086607,1.9882e-05,0.82,0.84,0
0.36447,-0.00134,0.093867,-0.0030348,0.02725,0.0020338,0,0,0.86602,-0.3937,0,0.05288,0,0,0,0.093913,-0.0030812,0.02725,1.2066,0.03936,0.085942,1.9462e-05,0.84,0.84,0
0.38173,-0.0028142,0.093308,-0.0028354,0.027142,0.0015562,0,0,0.86016,-0.3897,0,0.040461,0,0,0,0.093336,-0.0028635,0.027142,0.93093,0.039205,0.085254,1.9063e-05,0.86,0.84,0
0.39888,-0.0041092,0.092796,-0.0025862,0.027063,0.0011601,0,0,0.85453,-0.38544,0,0.030162,0,0,0,0.092813,-0.0026024,0.027063,0.6998,0.039091,0.084579,1.8693e-05,0.88,0.84,0
0.41592,-0.0052212,0.092351,-0.0023175,0.02701,0.00084036,0,0,0.84943,-0.38126,0,0.021849,0,0,0,0.09236,-0.0023265,0.02701,0.511,0.039015,0.083955,1.8367e-05,0.9,0.84,0
0.43286,-0.0061442,0.091974,-0.0020608,0.026974,0.00058695,0,0,0.845,-0.37745,0,0.015261,0,0,0,0.091979,-0.0020655,0.026974,0.35949,0.038962,0.083407,1.809e-05,0.92,0.84,0
0.44972,-0.0068716,0.091677,-0.0018369,0.026952,0.00038924,0,0,0.84143,-0.37426,0,0.01012,0,0,0,0.09168,-0.0018391,0.026952,0.23986,0.038931,0.082959,1.787e-05,0.94,0.84,0
0.46651,-0.0073966,0.091461,-0.0016651,0.026939,0.00023495,0,0,0.83879,-0.37185,0,0.0061088,0,0,0,0.091462,-0.001666,0.026939,0.14546,0.038912,0.082627,1.7709e-05,0.96,0.84,0
0.48327,-0.0077139,0.091324,-0.0015723,0.026926,4.6261e-05,0,0,0.83718,-0.37047,0,0.0012028,0,0,0,0.091325,-0.0015727,0.026926,0.028921,0.038892,0.08243,1.7611e-05,0.98,0.84,0
0.49164,-0.00782,0.091282,-0.0015474,0.02692,-7.3906e-05,0,0,0.8367,-0.37008,0,-0.0019215,0,0,0,0.091282,-0.0015477,0.02692,-0.045424,0.038885,0.082372,1.7582e-05,1,0.84,0
0.0032717,-0.0046671,0.04485,0.02214,0.020097,-0.01784,0,0,0.32179,0.026564,0,-0.46383,0,0,0,0.054668,0.012322,0.020097,-28.844,0.029029,0.039065,2.7117e-06,0,0.86,0
0.0064012,-0.0085364,0.044588,0.023767,0.020506,-0.016425,0,0,0.31306,0.042384,0,-0.42705,0,0,0,0.05365,0.014705,0.020506,-28.762,0.02962,0.036451,2.3604e-06,0.02,0.86,0
0.012465,-0.014709,0.043231,0.024673,0.020371,-0.013107,0,0,0.29717,0.055927,0,-0.34079,0,0,0,0.05007,0.017834,0.020371,-27.039,0.029425,0.031081,1.6116e-06,0.04,0.86,0
0.01827,-0.017897,0.041022,0.022081,0.018931,-0.0097266,0,0,0.28719,0.040951,0,-0.25289,0,0,0,0.04529,0.017814,0.018931,-22.453,0.027345,0.026942,1.0563e-06,0.06,0.86,0
0.023944,-0.018473,0.038506,0.017813,0.016896,-0.0071144,0,0,0.28094,0.011924,0,-0.18497,0,0,0,0.040969,0.01535,0.016896,-16.672,0.024405,0.024914,8.1724e-07,0.08,0.86,0
0.029485,-0.017025,0.035572,0.013065,0.014591,-0.0052183,0,0,0.27275,-0.019839,0,-0.13568,0,0,0,0.037061,0.011577,0.014591,-11.942,0.021076,0.024162,6.9854e-07,0.1,0.86,0
0.034848,-0.014421,0.032461,0.0091169,0.012474,-0.0034018,0,0,0.25984,-0.043636,0,-0.088447,0,0,0,0.033345,0.0082338,0.012474,-8.0497,0.018017,0.023301,5.8867e-07,0.12,0.86,0
0.039888,-0.011404,0.02956,0.0066971,0.010877,-0.001306,0,0,0.24288,-0.054342,0,-0.033956,0,0,0,0.029929,0.006328,0.010877,-3.6908,0.015712,0.021708,4.6222e-07,0.14,0.86,0
0.044569,-0.0081823,0.027442,0.0052715,0.0098139,0.00084746,0,0,0.22916,-0.059051,0,0.022034,0,0,0,0.027661,0.0050523,0.0098139,1.7519,0.014176,0.020674,3.9109e-07,0.16,0.86,0
0.049054,-0.0047231,0.026482,0.0041991,0.0092043,0.0030395,0,0,0.22461,-0.065068,0,0.079027,0,0,0,0.027011,0.0036701,0.0092043,7.5496,0.013295,0.021152,3.9358e-07,0.18,0.86,0
0.053554,-0.0010816,0.026721,0.003296,0.0090052,0.0050046,0,0,0.23031,-0.07422,0,0.13012,0,0,0,0.027856,0.0021615,0.0090052,11.739,0.013008,0.023062,4.6166e-07,0.2,0.86,0
0.058267,0.0025673,0.027812,0.0027146,0.0091578,0.0065341,0,0,0.2425,-0.083762,0,0.16989,0,0,0,0.029536,0.00098982,0.0091578,13.831,0.013228,0.02547,5.7134e-07,0.22,0.86,0
0.063254,0.0061302,0.029261,0.0028878,0.0096445,0.0075135,0,0,0.25501,-0.087837,0,0.19535,0,0,0,0.031359,0.00078961,0.0096445,14.754,0.013931,0.027247,6.8361e-07,0.24,0.86,0
0.068467,0.0098409,0.030808,0.0036005,0.010323,0.0080486,0,0,0.26631,-0.087388,0,0.20926,0,0,0,0.033059,0.0013498,0.010323,15.226,0.01491,0.028313,7.8593e-07,0.26,0.86,0
0.073906,0.013981,0.032144,0.0040881,0.01087,0.0084581,0,0,0.27657,-0.088161,0,0.21991,0,0,0,0.034506,0.0017265,0.01087,15.516,0.015701,0.029299,8.8482e-07,0.28,0.86,0
0.07953,0.018566,0.032914,0.0041186,0.01111,0.0087817,0,0,0.28346,-0.090887,0,0.22832,0,0,0,0.035384,0.0016494,0.01111,15.685,0.016048,0.030139,9.561e-07,0.3,0.86,0
0.085244,0.023491,0.033162,0.0039299,0.011128,0.0089648,0,0,0.28645,-0.09357,0,0.23308,0,0,0,0.035695,0.0013973,0.011128,15.766,0.016073,0.030615,9.8866e-07,0.32,0.86,0
0.090988,0.028672,0.032935,0.0033288,0.010879,0.0090051,0,0,0.28673,-0.098156,0,0.23413,0,0,0,0.035466,0.00079809,0.010879,15.665,0.015714,0.030888,9.8792e-07,0.34,0.86,0
0.096714,0.033978,0.032137,0.0020067,0.010243,0.0086623,0,0,0.28462,-0.10707,0,0.22522,0,0,0,0.034487,-0.00034302,0.010243,14.969,0.014796,0.03093,9.4221e-07,0.36,0.86,0
0.10237,0.039178,0.032767,0.0018367,0.010381,0.0092499,0,0,0.26954,-0.11038,0,0.20142,0,0,0,0.03567,-0.0010666,0.010381,14.263,0.014995,0.032566,2.3137e-06,0.38,0.86,0
0.1076,0.043764,0.035785,0.0047485,0.01216,0.012779,0,0,0.21973,-0.089981,0,0.17077,0,0,0,0.041272,-0.00073878,0.01216,16.396,0.017564,0.03729,5.3791e-06,0.4,0.86,0
0.11155,0.047032,0.040671,0.0061304,0.01404,0.017588,0,0,0.1514,-0.056981,0,0.15785,0,0,0,0.048864,-0.0020622,0.01404,21.178,0.020281,0.045118,8.3668e-06,0.42,0.86,0
0.11415,0.049103,0.056432,0.003696,0.018038,0.021796,0,0,0.11734,-0.043943,0,0.16117,0,0,0,0.065024,-0.0048962,0.018038,22.335,0.026055,0.061773,1.5488e-05,0.44,0.86,0
0.1165,0.050879,0.083751,0.0026986,0.025935,0.025147,0,0,0.12624,-0.052001,0,0.16038,0,0,0,0.091526,-0.0050764,0.025935,18.766,0.037461,0.085467,3.0585e-05,0.46,0.86,0
0.11924,0.052677,0.10623,0.0034198,0.032895,0.026577,0,0,0.14786,-0.064351,0,0.16796,0,0,0,0.11334,-0.0036912,0.032895,15.866,0.047516,0.10375,4.8993e-05,0.48,0.86,0
0.12241,0.054267,0.11962,0.0030973,0.036815,0.027054,0,0,0.1699,-0.078631,0,0.18671,0,0,0,0.12635,-0.0036311,0.036815,14.682,0.053177,0.1153,6.65e-05,0.5,0.86,0
0.12604,0.055435,0.11934,0.0010347,0.036112,0.027248,0,0,0.20116,-0.10515,0,0.24598,0,0,0,0.12653,-0.006153,0.036112,14.817,0.052162,0.11763,7.2917e-05,0.52,0.86,0
0.13034,0.055611,0.10565,-0.0082947,0.029206,0.026565,0,0,0.27786,-0.15756,0,0.3405,0,0,0,0.1132,-0.015849,0.029206,15.336,0.042186,0.11384,6.4867e-05,0.54,0.86,0
0.13758,0.053619,0.098206,-0.018659,0.023864,0.024406,0,0,0.46049,-0.2517,0,0.39448,0,0,0,0.10417,-0.02462,0.023864,13.388,0.034471,0.1129,5.4028e-05,0.56,0.86,0
0.15035,0.048574,0.096504,-0.016468,0.024011,0.019382,0,0,0.6936,-0.36299,0,0.38966,0,0,0,0.10002,-0.019979,0.024011,10.039,0.034682,0.10521,3.9551e-05,0.58,0.86,0
0.16675,0.041111,0.091713,-0.0093127,0.02472,0.013292,0,0,0.81945,-0.4126,0,0.32504,0,0,0,0.093531,-0.011131,0.02472,7.3584,0.035707,0.092139,2.423e-05,0.6,0.86,0
0.18351,0.032898,0.089211,-0.0042604,0.025485,0.0092942,0,0,0.82844,-0.38669,0,0.24165,0,0,0,0.090156,-0.0052053,0.025485,5.6101,0.036812,0.084331,1.7899e-05,0.62,0.86,0
0.19989,0.025152,0.08967,0.00014576,0.026945,0.0077243,0,0,0.81542,-0.34838,0,0.20083,0,0,0,0.090335,-0.00052007,0.026945,4.8975,0.03892,0.080715,1.6995e-05,0.64,0.86,0
0.21613,0.01842,0.090299,0.0020822,0.027714,0.0074508,0,0,0.8136,-0.33322,0,0.19372,0,0,0,0.090925,0.0014563,0.027714,4.7881,0.040032,0.079655,1.6903e-05,0.66,0.86,0
0.23243,0.012873,0.090983,0.0019565,0.027882,0.0074061,0,0,0.82032,-0.33703,0,0.19256,0,0,0,0.091596,0.0013431,0.027882,4.7172,0.040274,0.080342,1.7284e-05,0.68,0.86,0
0.24894,0.0083557,0.091702,0.001056,0.027827,0.0071186,0,0,0.83037,-0.34803,0,0.18508,0,0,0,0.09226,0.00049798,0.027827,4.4626,0.040195,0.081606,1.7824e-05,0.7,0.86,0
0.26565,0.0046224,0.092227,5.7854e-05,0.027685,0.0065521,0,0,0.83904,-0.35916,0,0.17035,0,0,0,0.092694,-0.00040936,0.027685,4.0501,0.03999,0.082716,1.8246e-05,0.72,0.86,0
0.2825,0.0014753,0.092502,-0.00079699,0.027512,0.005865,0,0,0.84488,-0.36801,0,0.15249,0,0,0,0.092873,-0.001168,0.027512,3.5894,0.039739,0.083482,1.849e-05,0.74,0.86,0
0.29945,-0.0012246,0.092573,-0.0014684,0.027331,0.0051667,0,0,0.84814,-0.3744,0,0.13433,0,0,0,0.09286,-0.0017556,0.027331,3.1422,0.039479,0.083941,1.8588e-05,0.76,0.86,0
0.31643,-0.0035734,0.09245,-0.0019582,0.027148,0.0044475,0,0,0.84893,-0.37838,0,0.11564,0,0,0,0.092664,-0.0021715,0.027148,2.6975,0.039213,0.084101,1.8544e-05,0.78,0.86,0
0.33341,-0.0056367,0.092207,-0.0022491,0.026987,0.0037546,0,0,0.84785,-0.38007,0,0.09762,0,0,0,0.09236,-0.0024019,0.026987,2.2783,0.038982,0.084015,1.8402e-05,0.8,0.86,0
0.35034,-0.0074582,0.091904,-0.0023666,0.026861,0.0031168,0,0,0.84555,-0.37996,0,0.081037,0,0,0,0.09201,-0.0024729,0.026861,1.8963,0.038799,0.083761,1.8204e-05,0.82,0.86,0
0.36723,-0.0090664,0.091559,-0.0023558,0.026761,0.0025387,0,0,0.84238,-0.37852,0,0.066006,0,0,0,0.091631,-0.0024272,0.026761,1.5512,0.038655,0.083388,1.7969e-05,0.84,0.86,0
0.38404,-0.010479,0.091215,-0.0022498,0.026689,0.0020297,0,0,0.83883,-0.37621,0,0.052773,0,0,0,0.091261,-0.0022961,0.026689,1.2467,0.038551,0.082954,1.7725e-05,0.86,0.86,0
0.40078,-0.011704,0.090879,-0.0020887,0.026637,0.0015872,0,0,0.83515,-0.37344,0,0.041268,0,0,0,0.090908,-0.0021175,0.026637,0.98039,0.038476,0.082497,1.7485e-05,0.88,0.86,0
0.41745,-0.012745,0.090578,-0.0018998,0.026603,0.0012101,0,0,0.83167,-0.37054,0,0.031463,0,0,0,0.090595,-0.001917,0.026603,0.75161,0.038427,0.082057,1.7266e-05,0.9,0.86,0
0.43405,-0.013603,0.090315,-0.0017121,0.026581,0.00089104,0,0,0.82854,-0.36781,0,0.023167,0,0,0,0.090324,-0.0017217,0.026581,0.55624,0.038394,0.08166,1.7075e-05,0.92,0.86,0
0.45059,-0.014275,0.090105,-0.0015442,0.026568,0.00062191,0,0,0.82597,-0.36546,0,0.01617,0,0,0,0.090109,-0.0015491,0.026568,0.3899,0.038376,0.081331,1.692e-05,0.94,0.86,0
0.46709,-0.014758,0.089949,-0.0014137,0.026561,0.00039209,0,0,0.82405,-0.36367,0,0.010194,0,0,0,0.089951,-0.0014158,0.026561,0.24663,0.038365,0.081083,1.6805e-05,0.96,0.86,0
0.48355,-0.015049,0.089866,-0.0013063,0.026568,0.00013014,0,0,0.82287,-0.36236,0,0.0033837,0,0,0,0.089866,-0.001307,0.026568,0.082145,0.038376,0.080921,1.6736e-05,0.98,0.86,0
0.49178,-0.015147,0.089852,-0.0012503,0.02658,-2.4823e-05,0,0,0.82253,-0.3618,0,-0.0006454,0,0,0,0.089852,-0.0012507,0.02658,-0.015327,0.038394,0.080863,1.6717e-05,1,0.86,0
0.0028199,-0.0041944,0.038585,0.018761,0.017204,-0.015988,0,0,0.27795,0.020248,0,-0.41569,0,0,0,0.047499,0.009847,0.017204,-29.136,0.02485,0.034579,1.8385e-06,0,0.88,0
0.0055277,-0.0077707,0.038388,0.020029,0.017525,-0.014687,0,0,0.27122,0.032553,0,-0.38186,0,0,0,0.046548,0.011869,0.017525,-28.873,0.025314,0.032273,1.6001e-06,0.02,0.88,0
0.010797,-0.013671,0.037402,0.020771,0.017452,-0.011538,0,0,0.25935,0.043148,0,-0.29999,0,0,0,0.04338,0.014792,0.017452,-26.653,0.025208,0.027394,1.0785e-06,0.04,0.88,0
0.015891,-0.017096,0.036108,0.018842,0.016485,-0.0080066,0,0,0.2551,0.03064,0,-0.20817,0,0,0,0.039496,0.015453,0.016485,-20.82,0.023812,0.023551,6.8771e-07,0.06,0.88,0
0.021002,-0.018228,0.035024,0.015408,0.01513,-0.0047827,0,0,0.25863,0.0036204,0,-0.12435,0,0,0,0.036448,0.013985,0.01513,-12.76,0.021854,0.021932,5.4274e-07,0.08,0.88,0
0.026224,-0.017499,0.033723,0.011126,0.013455,-0.002277,0,0,0.26349,-0.030271,0,-0.059202,0,0,0,0.034142,0.010707,0.013455,-5.889,0.019435,0.022232,5.2836e-07,0.1,0.88,0
0.031544,-0.015511,0.032325,0.0072532,0.011874,-0.00054275,0,0,0.26587,-0.060064,0,-0.014111,0,0,0,0.032482,0.0070962,0.011874,-1.4094,0.017151,0.023391,5.6071e-07,0.12,0.88,0
0.036867,-0.012814,0.031036,0.0047476,0.010735,0.0008289,0,0,0.26391,-0.077838,0,0.021551,0,0,0,0.031147,0.004637,0.010735,1.6582,0.015506,0.024058,5.6261e-07,0.14,0.88,0
0.042103,-0.0097285,0.029954,0.0032966,0.0099752,0.0020933,0,0,0.25972,-0.086822,0,0.054427,0,0,0,0.030167,0.0030832,0.0099752,4.3411,0.014409,0.024389,5.517e-07,0.16,0.88,0
0.047256,-0.00639,0.02932,0.002331,0.0094952,0.0033719,0,0,0.25772,-0.093134,0,0.087669,0,0,0,0.029765,0.0018857,0.0094952,6.9713,0.013715,0.024967,5.5965e-07,0.18,0.88,0
0.052412,-0.002895,0.029232,0.0016891,0.0092763,0.004468,0,0,0.25942,-0.098633,0,0.11617,0,0,0,0.029962,0.00095862,0.0092763,9.0061,0.013399,0.025871,5.9224e-07,0.2,0.88,0
0.057633,0.00066204,0.029577,0.0016004,0.0093532,0.0052903,0,0,0.26291,-0.10079,0,0.13755,0,0,0,0.030568,0.00060903,0.0093532,10.387,0.01351,0.026685,6.3606e-07,0.22,0.88,0
0.062928,0.0042789,0.03024,0.0022726,0.0097538,0.0059983,0,0,0.26632,-0.097256,0,0.15596,0,0,0,0.0315,0.0010127,0.0097538,11.623,0.014089,0.027193,6.8515e-07,0.24,0.88,0
0.068286,0.0080868,0.031015,0.0031658,0.010254,0.0067894,0,0,0.26989,-0.092149,0,0.17653,0,0,0,0.032609,0.0015714,0.010254,12.989,0.014812,0.027736,7.4561e-07,0.26,0.88,0
0.073723,0.012238,0.031725,0.0036549,0.010614,0.0076041,0,0,0.27444,-0.090467,0,0.19771,0,0,0,0.03367,0.0017095,0.010614,14.206,0.015331,0.028569,8.1835e-07,0.28,0.88,0
0.079264,0.016778,0.032312,0.0037642,0.010823,0.0083087,0,0,0.27936,-0.091763,0,0.21603,0,0,0,0.034563,0.0015134,0.010823,15.089,0.015633,0.029517,8.9248e-07,0.3,0.88,0
0.084898,0.021647,0.032668,0.0036288,0.010889,0.0088719,0,0,0.28313,-0.094384,0,0.23067,0,0,0,0.035168,0.0011289,0.010889,15.708,0.015729,0.03036,9.528e-07,0.32,0.88,0
0.090589,0.026744,0.032671,0.0031816,0.010756,0.009274,0,0,0.2849,-0.098463,0,0.24112,0,0,0,0.035347,0.00050543,0.010756,16.083,0.015536,0.031015,9.8734e-07,0.34,0.88,0
0.096294,0.031928,0.032191,0.00235,0.010362,0.0094487,0,0,0.28377,-0.10416,0,0.24567,0,0,0,0.034935,-0.00039432,0.010362,16.163,0.014968,0.031368,9.8201e-07,0.36,0.88,0
0.10194,0.036995,0.031089,0.0011909,0.0096839,0.0092951,0,0,0.27826,-0.11041,0,0.24167,0,0,0,0.033765,-0.0014852,0.0096839,15.876,0.013988,0.031204,9.2345e-07,0.38,0.88,0
0.10742,0.041673,0.030196,0.00082005,0.0093048,0.0097356,0,0,0.2605,-0.10971,0,0.22889,0,0,0,0.033336,-0.0023201,0.0093048,16.177,0.01344,0.031498,1.0797e-06,0.4,0.88,0
0.11245,0.045463,0.030172,0.0014041,0.0094728,0.011346,0,0,0.22984,-0.095683,0,0.22811,0,0,0,0.034511,-0.0029355,0.0094728,18.536,0.013683,0.033048,1.5596e-06,0.42,0.88,0
0.11679,0.048071,0.03445,0.0014271,0.010763,0.013602,0,0,0.20798,-0.083003,0,0.25255,0,0,0,0.039733,-0.0038562,0.010763,20.964,0.015547,0.038445,3.8099e-06,0.44,0.88,0
0.12085,0.049917,0.045064,0.001129,0.013858,0.01641,0,0,0.20978,-0.087284,0,0.28844,0,0,0,0.051056,-0.0048624,0.013858,21.174,0.020017,0.049338,9.7123e-06,0.46,0.88,0
0.12518,0.051397,0.055786,0.00073776,0.016957,0.019008,0,0,0.23138,-0.10526,0,0.3341,0,0,0,0.062581,-0.0060577,0.016957,20.624,0.024494,0.060584,1.777e-05,0.48,0.88,0
0.1301,0.05243,0.064238,-0.00065933,0.019074,0.021093,0,0,0.26966,-0.13559,0,0.38317,0,0,0,0.071567,-0.0079884,0.019074,19.856,0.027551,0.070187,2.632e-05,0.5,0.88,0
0.13596,0.052714,0.069272,-0.0029445,0.019898,0.022387,0,0,0.33502,-0.18386,0,0.43534,0,0,0,0.076773,-0.010445,0.019898,18.541,0.028742,0.076883,3.1049e-05,0.52,0.88,0
0.14333,0.051404,0.071161,-0.0080574,0.018931,0.022716,0,0,0.4353,-0.24802,0,0.48324,0,0,0,0.078301,-0.015198,0.018931,16.759,0.027345,0.082165,3.0236e-05,0.54,0.88,0
0.15338,0.047347,0.074073,-0.012904,0.018351,0.021016,0,0,0.56469,-0.31517,0,0.47273,0,0,0,0.079624,-0.018455,0.018351,13.758,0.026506,0.085932,2.557e-05,0.56,0.88,0
0.16644,0.040795,0.076193,-0.010796,0.019619,0.016008,0,0,0.6808,-0.35778,0,0.38811,0,0,0,0.07935,-0.013954,0.019619,10.088,0.028339,0.0819,1.7471e-05,0.58,0.88,0
0.18096,0.033284,0.078113,-0.0058152,0.021689,0.010951,0,0,0.7335,-0.35756,0,0.28472,0,0,0,0.079611,-0.0073134,0.021689,7.2129,0.031329,0.076671,1.2918e-05,0.6,0.88,0
0.19578,0.025731,0.080926,-0.0022388,0.023606,0.0081298,0,0,0.74516,-0.33598,0,0.21138,0,0,0,0.081745,-0.0030573,0.023606,5.4817,0.034098,0.075117,1.3048e-05,0.62,0.88,0
0.21076,0.018505,0.082888,0.0005311,0.025026,0.0067691,0,0,0.75221,-0.31843,0,0.176,0,0,0,0.083449,-3.053e-05,0.025026,4.6397,0.036148,0.074199,1.3315e-05,0.64,0.88,0
0.22587,0.011989,0.084346,0.0019077,0.025876,0.0063798,0,0,0.76011,-0.31159,0,0.16587,0,0,0,0.084842,0.0014114,0.025876,4.3786,0.037377,0.074285,1.3703e-05,0.66,0.88,0
0.24117,0.0063763,0.08562,0.0020106,0.026289,0.0063566,0,0,0.7713,-0.31562,0,0.16527,0,0,0,0.086105,0.0015252,0.026289,4.3056,0.037973,0.075316,1.4292e-05,0.68,0.88,0
0.25672,0.0016474,0.086753,0.0013854,0.026442,0.0062787,0,0,0.78405,-0.32573,0,0.16325,0,0,0,0.087216,0.00092237,0.026442,4.1726,0.038193,0.076784,1.496e-05,0.7,0.88,0
0.27253,-0.0023199,0.087698,0.00056546,0.026479,0.0060103,0,0,0.79584,-0.33688,0,0.15627,0,0,0,0.088113,0.00014999,0.026479,3.9219,0.038247,0.078197,1.5565e-05,0.72,0.88,0
0.28855,-0.0056673,0.088409,-0.00018562,0.026467,0.0055897,0,0,0.80524,-0.34648,0,0.14533,0,0,0,0.088762,-0.00053912,0.026467,3.5942,0.03823,0.079325,1.6032e-05,0.74,0.88,0
0.30474,-0.0085164,0.088875,-0.00082138,0.026416,0.0050767,0,0,0.81197,-0.35409,0,0.13199,0,0,0,0.089164,-0.00111,0.026416,3.2293,0.038157,0.080139,1.635e-05,0.76,0.88,0
0.32103,-0.010962,0.089118,-0.0013141,0.026341,0.0045006,0,0,0.8161,-0.35952,0,0.11702,0,0,0,0.089344,-0.0015398,0.026341,2.8433,0.038048,0.080643,1.6522e-05,0.78,0.88,0
0.33739,-0.013076,0.089205,-0.0016311,0.026272,0.0039087,0,0,0.81813,-0.36274,0,0.10163,0,0,0,0.089375,-0.0018011,0.026272,2.461,0.037949,0.08088,1.6581e-05,0.8,0.88,0
0.35376,-0.014912,0.089188,-0.0017936,0.026218,0.0033315,0,0,0.8186,-0.36415,0,0.086619,0,0,0,0.089312,-0.0019174,0.026218,2.0959,0.037871,0.080917,1.6563e-05,0.82,0.88,0
0.37013,-0.016506,0.089097,-0.0018361,0.026178,0.0027855,0,0,0.81794,-0.36419,0,0.072423,0,0,0,0.089184,-0.0019231,0.026178,1.7544,0.037813,0.080808,1.6489e-05,0.84,0.88,0
0.38648,-0.017886,0.088967,-0.0017899,0.026153,0.0022839,0,0,0.81658,-0.36326,0,0.059381,0,0,0,0.089026,-0.0018488,0.026153,1.442,0.037777,0.080608,1.6385e-05,0.86,0.88,0
0.40279,-0.019068,0.088816,-0.0016879,0.026139,0.0018315,0,0,0.81481,-0.36174,0,0.047619,0,0,0,0.088855,-0.0017261,0.026139,1.16,0.037756,0.080357,1.6266e-05,0.88,0.88,0
0.41907,-0.020062,0.088667,-0.0015561,0.026133,0.0014304,0,0,0.81294,-0.35996,0,0.037192,0,0,0,0.08869,-0.0015797,0.026133,0.90901,0.037748,0.080094,1.6147e-05,0.9,0.88,0
0.43531,-0.020874,0.088528,-0.0014186,0.026133,0.0010776,0,0,0.81114,-0.35817,0,0.028019,0,0,0,0.088542,-0.0014323,0.026133,0.68704,0.037747,0.079844,1.6038e-05,0.92,0.88,0
0.45152,-0.021506,0.088412,-0.001293,0.026136,0.00076752,0,0,0.8096,-0.35657,0,0.019956,0,0,0,0.08842,-0.0013001,0.026136,0.49071,0.037752,0.079629,1.5946e-05,0.94,0.88,0
0.46769,-0.021959,0.088325,-0.0011938,0.026139,0.00049166,0,0,0.80841,-0.35533,0,0.012783,0,0,0,0.088328,-0.0011969,0.026139,0.31503,0.037757,0.079465,1.5877e-05,0.96,0.88,0
0.48385,-0.02223,0.08828,-0.0011089,0.026151,0.00019212,0,0,0.80767,-0.35438,0,0.0049951,0,0,0,0.088281,-0.00111,0.026151,0.12332,0.037774,0.079354,1.5835e-05,0.98,0.88,0
0.49193,-0.022321,0.088273,-0.0010647,0.026162,2.3249e-05,0,0,0.80744,-0.35395,0,0.00060448,0,0,0,0.088273,-0.0010652,0.026162,0.015085,0.03779,0.079311,1.5823e-05,1,0.88,0
0.0025103,-0.0038444,0.034177,0.016181,0.015107,-0.014446,0,0,0.2479,0.013955,0,-0.3756,0,0,0,0.042203,0.008154,0.015107,-29.059,0.021821,0.03117,1.3115e-06,0,0.9,0
0.0049487,-0.0072121,0.034093,0.016986,0.015324,-0.013371,0,0,0.244,0.021609,0,-0.34764,0,0,0,0.041428,0.0096507,0.015324,-28.584,0.022134,0.029384,1.1605e-06,0.02,0.9,0
0.0097447,-0.012942,0.033596,0.017257,0.015256,-0.01059,0,0,0.23842,0.026011,0,-0.27534,0,0,0,0.0389,0.011952,0.015256,-25.728,0.022036,0.025488,8.2501e-07,0.04,0.9,0
0.014484,-0.01662,0.032954,0.015449,0.014521,-0.0071539,0,0,0.23963,0.012062,0,-0.186,0,0,0,0.035763,0.012639,0.014521,-19.17,0.020974,0.022261,5.5815e-07,0.06,0.9,0
0.019333,-0.018286,0.032502,0.012468,0.013491,-0.00388,0,0,0.24715,-0.013302,0,-0.10088,0,0,0,0.033499,0.011471,0.013491,-10.646,0.019487,0.021116,4.6495e-07,0.08,0.9,0
0.024369,-0.01821,0.032027,0.0090073,0.01231,-0.0012254,0,0,0.25632,-0.042939,0,-0.031859,0,0,0,0.03222,0.0088145,0.01231,-3.3524,0.017781,0.021903,4.8704e-07,0.1,0.9,0
0.02959,-0.016808,0.031518,0.0058531,0.011211,0.00065114,0,0,0.26399,-0.069658,0,0.01693,0,0,0,0.031586,0.0057855,0.011211,1.2805,0.016194,0.023582,5.5047e-07,0.12,0.9,0
0.034932,-0.014513,0.031002,0.0035337,0.010361,0.0019111,0,0,0.26833,-0.08875,0,0.049688,0,0,0,0.031155,0.0033808,0.010361,3.893,0.014965,0.025034,5.9695e-07,0.14,0.9,0
0.040323,-0.011655,0.030546,0.0020694,0.0097846,0.0028291,0,0,0.2699,-0.1003,0,0.073557,0,0,0,0.030838,0.001777,0.0097846,5.5789,0.014133,0.026004,6.2162e-07,0.16,0.9,0
0.045728,-0.0084485,0.030265,0.0012229,0.0094463,0.0035966,0,0,0.27064,-0.1069,0,0.093511,0,0,0,0.030711,0.00077638,0.0094463,6.9387,0.013645,0.02668,6.3927e-07,0.18,0.9,0
0.051148,-0.0050269,0.030224,0.00086185,0.0093258,0.0042146,0,0,0.27168,-0.11003,0,0.10958,0,0,0,0.030823,0.00026271,0.0093258,8.0082,0.013471,0.027187,6.5901e-07,0.2,0.9,0
0.056595,-0.0014642,0.030431,0.0010142,0.0094336,0.0047452,0,0,0.27297,-0.10945,0,0.12338,0,0,0,0.031186,0.00025896,0.0094336,8.9474,0.013626,0.027513,6.8269e-07,0.22,0.9,0
0.062067,0.0022399,0.03084,0.0016145,0.0097364,0.0053206,0,0,0.27435,-0.10558,0,0.13834,0,0,0,0.031793,0.00066178,0.0097364,10.012,0.014064,0.027731,7.1311e-07,0.24,0.9,0
0.067569,0.0061549,0.031382,0.0023513,0.01012,0.0060393,0,0,0.2764,-0.10099,0,0.15702,0,0,0,0.032608,0.0011253,0.01012,11.298,0.014618,0.028087,7.5749e-07,0.26,0.9,0
0.073123,0.010363,0.031988,0.0028868,0.010463,0.0068741,0,0,0.27983,-0.098484,0,0.17873,0,0,0,0.033551,0.0013238,0.010463,12.638,0.015113,0.028768,8.2076e-07,0.28,0.9,0
0.078762,0.014895,0.032602,0.0031118,0.010714,0.0077209,0,0,0.28455,-0.098832,0,0.20074,0,0,0,0.03452,0.0011948,0.010714,13.814,0.015476,0.029731,8.9932e-07,0.3,0.9,0
0.084505,0.019715,0.033157,0.0030686,0.010868,0.0085012,0,0,0.28976,-0.10139,0,0.22103,0,0,0,0.035407,0.00081867,0.010868,14.737,0.015698,0.030818,9.837e-07,0.32,0.9,0
0.090352,0.024733,0.033563,0.0027695,0.0109,0.0091757,0,0,0.29462,-0.10569,0,0.23857,0,0,0,0.036101,0.00023161,0.0109,15.409,0.015744,0.031903,1.0631e-06,0.34,0.9,0
0.09629,0.029811,0.033755,0.0022123,0.01079,0.0097078,0,0,0.29854,-0.11151,0,0.2524,0,0,0,0.036512,-0.00054499,0.01079,15.831,0.015586,0.032889,1.1275e-06,0.36,0.9,0
0.10229,0.034762,0.033691,0.0014336,0.010537,0.010071,0,0,0.301,-0.11835,0,0.26185,0,0,0,0.036586,-0.0014614,0.010537,16.03,0.015221,0.033692,1.1697e-06,0.38,0.9,0
0.10833,0.039337,0.033385,0.00053791,0.010177,0.010239,0,0,0.3017,-0.12531,0,0.26622,0,0,0,0.036326,-0.0024032,0.010177,16.025,0.0147,0.034221,1.1877e-06,0.4,0.9,0
0.11436,0.043203,0.033155,0.00017827,0.0099999,0.010491,0,0,0.30101,-0.12768,0,0.27277,0,0,0,0.036247,-0.0029143,0.0099999,16.363,0.014444,0.034565,1.2111e-06,0.42,0.9,0
0.12035,0.046087,0.033256,0.00050966,0.01013,0.011329,0,0,0.30065,-0.12506,0,0.29456,0,0,0,0.036906,-0.0031398,0.01013,17.608,0.014632,0.035335,1.2932e-06,0.44,0.9,0
0.12636,0.048017,0.033961,0.00042452,0.010316,0.012816,0,0,0.30739,-0.12858,0,0.33323,0,0,0,0.038493,-0.0041077,0.010316,19.013,0.0149,0.037539,1.4957e-06,0.46,0.9,0
0.13263,0.049158,0.036041,-0.0006971,0.010603,0.014595,0,0,0.33069,-0.1469,0,0.37946,0,0,0,0.041407,-0.0060634,0.010603,19.522,0.015316,0.041732,1.9014e-06,0.48,0.9,0
0.13958,0.049466,0.039954,-0.002914,0.011112,0.016086,0,0,0.37495,-0.18234,0,0.41822,0,0,0,0.04568,-0.0086399,0.011112,18.702,0.016051,0.047645,2.5828e-06,0.5,0.9,0
0.14763,0.048599,0.046002,-0.0059123,0.012027,0.016487,0,0,0.44167,-0.23321,0,0.42867,0,0,0,0.051236,-0.011147,0.012027,16.413,0.017372,0.054638,3.67e-06,0.52,0.9,0
0.15717,0.045888,0.053286,-0.0084044,0.013465,0.015462,0,0,0.51768,-0.2843,0,0.402,0,0,0,0.057408,-0.012526,0.013465,13.27,0.019449,0.061245,5.0921e-06,0.54,0.9,0
0.16819,0.040875,0.060059,-0.0084662,0.015478,0.013098,0,0,0.57955,-0.31127,0,0.34055,0,0,0,0.062919,-0.011326,0.015478,10.193,0.022357,0.06515,6.4916e-06,0.56,0.9,0
0.18028,0.034151,0.066196,-0.0059099,0.018086,0.0099843,0,0,0.62543,-0.31194,0,0.25959,0,0,0,0.067837,-0.0075514,0.018086,7.5235,0.026124,0.066422,7.8239e-06,0.58,0.9,0
0.1932,0.026808,0.071433,-0.002959,0.020542,0.0074151,0,0,0.66158,-0.30552,0,0.19279,0,0,0,0.072269,-0.0037948,0.020542,5.5309,0.029672,0.067293,9.0946e-06,0.6,0.9,0
0.20674,0.019458,0.075151,-0.00071855,0.02233,0.0058527,0,0,0.68668,-0.29963,0,0.15217,0,0,0,0.075645,-0.0012127,0.02233,4.3199,0.032254,0.06821,1.0069e-05,0.62,0.9,0
0.22067,0.012415,0.077726,0.00093351,0.023598,0.0050659,0,0,0.70367,-0.29464,0,0.13171,0,0,0,0.078079,0.00058103,0.023598,3.7196,0.034086,0.068935,1.0782e-05,0.64,0.9,0
0.23489,0.0059567,0.079658,0.0017984,0.024437,0.0048933,0,0,0.71787,-0.2943,0,0.12723,0,0,0,0.079977,0.0014796,0.024437,3.5545,0.035298,0.069906,1.1435e-05,0.66,0.9,0
0.24939,0.00024822,0.081233,0.0018821,0.024935,0.0050056,0,0,0.73188,-0.29968,0,0.13015,0,0,0,0.081557,0.0015584,0.024935,3.5732,0.036017,0.071247,1.211e-05,0.68,0.9,0
0.26416,-0.0046735,0.082581,0.0014452,0.025208,0.0051266,0,0,0.74585,-0.30892,0,0.13329,0,0,0,0.08291,0.0011162,0.025208,3.5843,0.036412,0.072802,1.2799e-05,0.7,0.9,0
0.27922,-0.0088624,0.083721,0.00078306,0.025351,0.0051134,0,0,0.75881,-0.31939,0,0.13295,0,0,0,0.084039,0.00046489,0.025351,3.5032,0.036618,0.074325,1.3441e-05,0.72,0.9,0
0.29452,-0.012413,0.084642,0.00010783,0.025425,0.0049373,0,0,0.76982,-0.32912,0,0.12837,0,0,0,0.084932,-0.00018228,0.025425,3.3243,0.036725,0.075635,1.3983e-05,0.74,0.9,0
0.31001,-0.015424,0.085347,-0.00046972,0.025463,0.0046248,0,0,0.77849,-0.33713,0,0.12025,0,0,0,0.085597,-0.00072026,0.025463,3.072,0.03678,0.076657,1.4403e-05,0.76,0.9,0
0.32566,-0.017987,0.08586,-0.00090685,0.025486,0.0042177,0,0,0.78486,-0.34311,0,0.10966,0,0,0,0.086066,-0.0011131,0.025486,2.7744,0.036813,0.077388,1.4704e-05,0.78,0.9,0
0.34141,-0.020176,0.086215,-0.0011995,0.025505,0.0037555,0,0,0.78923,-0.34715,0,0.097644,0,0,0,0.086378,-0.0013621,0.025505,2.4547,0.03684,0.077864,1.4902e-05,0.8,0.9,0
0.35723,-0.022051,0.086447,-0.0013638,0.025525,0.003271,0,0,0.79199,-0.34956,0,0.085046,0,0,0,0.086571,-0.0014869,0.025525,2.1301,0.03687,0.078136,1.5019e-05,0.82,0.9,0
0.37309,-0.023658,0.086588,-0.0014245,0.025549,0.0027889,0,0,0.79351,-0.35066,0,0.072512,0,0,0,0.086678,-0.0015141,0.025549,1.8132,0.036904,0.078253,1.5076e-05,0.84,0.9,0
0.38897,-0.025031,0.086664,-0.0014091,0.025577,0.0023269,0,0,0.79414,-0.35081,0,0.0605,0,0,0,0.086727,-0.0014717,0.025577,1.5126,0.036944,0.078262,1.5091e-05,0.86,0.9,0
0.40485,-0.026193,0.086696,-0.0013433,0.025606,0.0018962,0,0,0.79417,-0.35034,0,0.049301,0,0,0,0.086738,-0.0013851,0.025606,1.2335,0.036986,0.078203,1.5078e-05,0.88,0.9,0
0.42073,-0.027161,0.086699,-0.0012503,0.025635,0.0015024,0,0,0.79384,-0.34951,0,0.039061,0,0,0,0.086726,-0.0012768,0.025635,0.97858,0.037028,0.078105,1.5051e-05,0.9,0.9,0
0.43661,-0.027946,0.086687,-0.0011492,0.025662,0.0011464,0,0,0.79334,-0.34854,0,0.029805,0,0,0,0.086703,-0.0011648,0.025662,0.74781,0.037067,0.077995,1.5018e-05,0.92,0.9,0
0.45247,-0.028553,0.086669,-0.0010553,0.025684,0.00082525,0,0,0.79281,-0.34761,0,0.021456,0,0,0,0.086678,-0.0010636,0.025684,0.5391,0.037099,0.077892,1.4985e-05,0.94,0.9,0
0.46832,-0.028985,0.086652,-0.00098026,0.025702,0.00053297,0,0,0.79236,-0.34686,0,0.013857,0,0,0,0.086656,-0.00098395,0.025702,0.34856,0.037124,0.077808,1.4959e-05,0.96,0.9,0
0.48416,-0.029244,0.08664,-0.00093206,0.025712,0.00021968,0,0,0.79206,-0.34638,0,0.0057116,0,0,0,0.086641,-0.00093332,0.025712,0.14378,0.03714,0.077755,1.4942e-05,0.98,0.9,0
0.49208,-0.02933,0.086636,-0.00091548,0.025716,4.6247e-05,0,0,0.79195,-0.34621,0,0.0012024,0,0,0,0.086636,-0.00091602,0.025716,0.03031,0.037145,0.077736,1.4936e-05,1,0.9,0
0.0023096,-0.0036255,0.031323,0.014253,0.013673,-0.013535,0,0,0.22946,0.0075415,0,-0.35191,0,0,0,0.038791,0.0067852,0.013673,-28.886,0.01975,0.029185,1.0435e-06,0,0.92,0
0.0045891,-0.0068885,0.031307,0.014492,0.01374,-0.012616,0,0,0.22837,0.009778,0,-0.32801,0,0,0,0.038084,0.0077147,0.01374,-28.051,0.019846,0.027865,9.4459e-07,0.02,0.92,0
0.009135,-0.012603,0.031087,0.01398,0.01352,-0.01012,0,0,0.22837,0.0059814,0,-0.26313,0,0,0,0.035914,0.0091531,0.01352,-24.513,0.019529,0.024888,7.1969e-07,0.04,0.92,0
0.013724,-0.016583,0.030767,0.012048,0.012844,-0.0068486,0,0,0.23299,-0.010358,0,-0.17806,0,0,0,0.033255,0.0095595,0.012844,-17.758,0.018553,0.022257,5.26e-07,0.06,0.92,0
0.018455,-0.018732,0.030556,0.0095096,0.01202,-0.003638,0,0,0.24097,-0.032631,0,-0.094588,0,0,0,0.031408,0.0086574,0.01202,-9.6158,0.017362,0.021294,4.4992e-07,0.08,0.92,0
0.023363,-0.019197,0.030365,0.0068288,0.011158,-0.00096063,0,0,0.24969,-0.056282,0,-0.024976,0,0,0,0.030533,0.0066609,0.011158,-2.5842,0.016117,0.021996,4.6584e-07,0.1,0.92,0
0.028442,-0.018286,0.030182,0.0044058,0.010376,0.00099123,0,0,0.25748,-0.077618,0,0.025772,0,0,0,0.030267,0.004321,0.010376,2.0512,0.014988,0.023526,5.1976e-07,0.12,0.92,0
0.033662,-0.01636,0.030039,0.002536,0.0097724,0.0022796,0,0,0.26346,-0.094074,0,0.059269,0,0,0,0.030242,0.0023332,0.0097724,4.6498,0.014116,0.025039,5.7189e-07,0.14,0.92,0
0.038981,-0.01374,0.029971,0.0012988,0.009381,0.0030908,0,0,0.26767,-0.10507,0,0.08036,0,0,0,0.030306,0.00096426,0.009381,6.063,0.01355,0.026171,6.0988e-07,0.16,0.92,0
0.044369,-0.010666,0.030017,0.00061887,0.0091909,0.0036098,0,0,0.27074,-0.11144,0,0.093855,0,0,0,0.030457,0.0001797,0.0091909,6.8895,0.013276,0.026928,6.3768e-07,0.18,0.92,0
0.049811,-0.0072963,0.030208,0.00040314,0.0091834,0.0039799,0,0,0.27332,-0.11414,0,0.10348,0,0,0,0.030733,-0.00012199,0.0091834,7.4704,0.013265,0.027414,6.6216e-07,0.2,0.92,0
0.055301,-0.0037161,0.030557,0.00058412,0.0093425,0.0043257,0,0,0.27579,-0.11386,0,0.11247,0,0,0,0.031175,-3.3269e-05,0.0093425,8.0465,0.013495,0.027736,6.8885e-07,0.22,0.92,0
0.060842,5.5523e-05,0.031063,0.0010517,0.0096343,0.0047626,0,0,0.27857,-0.11157,0,0.12383,0,0,0,0.031811,0.0003033,0.0096343,8.8032,0.013916,0.028033,7.2352e-07,0.24,0.92,0
0.066444,0.0040471,0.031707,0.0016115,0.0099957,0.0053589,0,0,0.28225,-0.10899,0,0.13933,0,0,0,0.032651,0.00066825,0.0099957,9.7999,0.014438,0.028488,7.7316e-07,0.26,0.92,0
0.072132,0.0082989,0.03247,0.0020671,0.010361,0.006104,0,0,0.28742,-0.10782,0,0.1587,0,0,0,0.033673,0.0008641,0.010361,10.937,0.014966,0.029241,8.4368e-07,0.28,0.92,0
0.077941,0.012825,0.033324,0.0023166,0.010692,0.0069308,0,0,0.29422,-0.10888,0,0.1802,0,0,0,0.034829,0.00081135,0.010692,12.045,0.015444,0.030311,9.3684e-07,0.3,0.92,0
0.083901,0.017592,0.034232,0.0023429,0.010972,0.0077639,0,0,0.30237,-0.11218,0,0.20186,0,0,0,0.03605,0.00052522,0.010972,12.992,0.015849,0.031623,1.0499e-06,0.32,0.92,0
0.090036,0.022517,0.035154,0.0021547,0.011193,0.0085419,0,0,0.3115,-0.11749,0,0.22209,0,0,0,0.037263,4.5894e-05,0.011193,13.711,0.016167,0.033084,1.1776e-06,0.34,0.92,0
0.096361,0.027467,0.036064,0.0017588,0.011347,0.0092154,0,0,0.32132,-0.12464,0,0.2396,0,0,0,0.038413,-0.00059076,0.011347,14.17,0.01639,0.034616,1.3149e-06,0.36,0.92,0
0.10289,0.032261,0.036967,0.0011823,0.011445,0.009736,0,0,0.33179,-0.13341,0,0.25314,0,0,0,0.039479,-0.0013297,0.011445,14.346,0.016531,0.036156,1.4574e-06,0.38,0.92,0
0.10963,0.036661,0.037874,0.00050317,0.011513,0.010074,0,0,0.34269,-0.14313,0,0.26192,0,0,0,0.040458,-0.0020804,0.011513,14.261,0.01663,0.037631,1.6009e-06,0.4,0.92,0
0.1166,0.040394,0.038866,5.8488e-06,0.011661,0.010287,0,0,0.35366,-0.15152,0,0.26745,0,0,0,0.041474,-0.0026027,0.011661,14.078,0.016844,0.038956,1.7513e-06,0.42,0.92,0
0.12378,0.043231,0.040167,-6.1217e-05,0.012032,0.010585,0,0,0.36576,-0.15721,0,0.2752,0,0,0,0.042868,-0.0027621,0.012032,14.058,0.017379,0.040323,1.9463e-06,0.44,0.92,0
0.13123,0.045068,0.042025,-0.00012205,0.012571,0.011137,0,0,0.3829,-0.16501,0,0.28955,0,0,0,0.044931,-0.0030287,0.012571,14.154,0.018158,0.042373,2.2511e-06,0.46,0.92,0
0.13909,0.045866,0.044692,-0.00087669,0.013145,0.011756,0,0,0.41011,-0.18228,0,0.30567,0,0,0,0.04776,-0.0039449,0.013145,13.882,0.018987,0.04563,2.7315e-06,0.48,0.92,0
0.14763,0.045512,0.048351,-0.0025267,0.013747,0.011954,0,0,0.44985,-0.21156,0,0.31082,0,0,0,0.051292,-0.0054681,0.013747,12.784,0.019857,0.050008,3.4271e-06,0.5,0.92,0
0.15709,0.043738,0.052725,-0.004713,0.014404,0.011208,0,0,0.49818,-0.24851,0,0.2914,0,0,0,0.055134,-0.0071226,0.014404,10.778,0.020805,0.054773,4.2888e-06,0.52,0.92,0
0.16756,0.040228,0.057313,-0.0061035,0.015363,0.0093405,0,0,0.54535,-0.27906,0,0.24285,0,0,0,0.058928,-0.0077184,0.015363,8.2219,0.022191,0.05863,5.2105e-06,0.54,0.92,0
0.1789,0.034939,0.061825,-0.0052933,0.01696,0.00699,0,0,0.58325,-0.28929,0,0.18174,0,0,0,0.062729,-0.006197,0.01696,5.8386,0.024497,0.060766,6.1301e-06,0.56,0.92,0
0.19089,0.028317,0.065867,-0.0030858,0.018834,0.0050947,0,0,0.61143,-0.28496,0,0.13246,0,0,0,0.066355,-0.0035735,0.018834,4.1563,0.027205,0.061855,6.9987e-06,0.58,0.92,0
0.20336,0.021063,0.069198,-0.0011682,0.020409,0.0039194,0,0,0.63426,-0.2805,0,0.1019,0,0,0,0.069486,-0.0014561,0.020409,3.1375,0.02948,0.062929,7.801e-06,0.6,0.92,0
0.21626,0.013746,0.071979,0.00017906,0.021647,0.0032973,0,0,0.65431,-0.27909,0,0.08573,0,0,0,0.072169,-1.1362e-05,0.021647,2.5882,0.031268,0.064156,8.5596e-06,0.62,0.92,0
0.22953,0.0067193,0.074284,0.0011266,0.022623,0.0031156,0,0,0.67159,-0.27945,0,0.081006,0,0,0,0.074439,0.00097105,0.022623,2.4053,0.032678,0.065389,9.2602e-06,0.64,0.92,0
0.24312,0.00021731,0.076152,0.0015982,0.023325,0.0032617,0,0,0.68675,-0.28245,0,0.084805,0,0,0,0.07631,0.0014403,0.023325,2.476,0.033692,0.066678,9.9108e-06,0.66,0.92,0
0.257,-0.005611,0.077721,0.0016121,0.0238,0.0035714,0,0,0.70097,-0.28844,0,0.092855,0,0,0,0.077899,0.0014334,0.0238,2.6595,0.034377,0.068096,1.0548e-05,0.68,0.92,0
0.27116,-0.010709,0.079078,0.0012909,0.024111,0.0038736,0,0,0.71458,-0.29666,0,0.10071,0,0,0,0.079279,0.0010903,0.024111,2.8259,0.034827,0.069595,1.1177e-05,0.7,0.92,0
0.28559,-0.015095,0.080262,0.00080199,0.024319,0.004058,0,0,0.72725,-0.30572,0,0.10551,0,0,0,0.080474,0.00058975,0.024319,2.9019,0.035128,0.071056,1.1772e-05,0.72,0.92,0
0.30025,-0.018832,0.081277,0.00028563,0.024469,0.0040834,0,0,0.7385,-0.31438,0,0.10617,0,0,0,0.081486,7.6564e-05,0.024469,2.8686,0.035344,0.072365,1.2304e-05,0.74,0.92,0
0.31513,-0.022001,0.082127,-0.00017054,0.024587,0.0039574,0,0,0.74802,-0.32185,0,0.10289,0,0,0,0.082319,-0.00036303,0.024587,2.7393,0.035514,0.073457,1.2755e-05,0.76,0.92,0
0.33017,-0.024686,0.082822,-0.00052638,0.024689,0.0037105,0,0,0.75573,-0.3278,0,0.096472,0,0,0,0.082989,-0.00069328,0.024689,2.5388,0.035661,0.074316,1.3119e-05,0.78,0.92,0
0.34535,-0.026962,0.083379,-0.00077341,0.024782,0.0033794,0,0,0.76177,-0.33222,0,0.087863,0,0,0,0.083516,-0.00091062,0.024782,2.2923,0.035796,0.074959,1.3402e-05,0.8,0.92,0
0.36064,-0.028894,0.083819,-0.00092104,0.024869,0.0029984,0,0,0.76635,-0.33528,0,0.077959,0,0,0,0.083927,-0.0010285,0.024869,2.0214,0.035922,0.075418,1.3616e-05,0.82,0.92,0
0.37601,-0.030532,0.084162,-0.00098719,0.024952,0.0025962,0,0,0.76972,-0.33722,0,0.067501,0,0,0,0.084242,-0.0010676,0.024952,1.7429,0.036042,0.07573,1.3773e-05,0.84,0.92,0
0.39143,-0.031918,0.084426,-0.00099241,0.02503,0.0021943,0,0,0.77215,-0.33829,0,0.057053,0,0,0,0.084483,-0.0010499,0.02503,1.4692,0.036155,0.07593,1.3885e-05,0.86,0.92,0
0.40689,-0.033081,0.084626,-0.00095665,0.025101,0.0018079,0,0,0.77383,-0.33875,0,0.047006,0,0,0,0.084665,-0.00099577,0.025101,1.2087,0.036257,0.076049,1.3963e-05,0.88,0.92,0
0.42238,-0.034042,0.084776,-0.00089766,0.025164,0.0014459,0,0,0.77496,-0.3388,0,0.037593,0,0,0,0.084801,-0.00092282,0.025164,0.96589,0.036347,0.076111,1.4015e-05,0.9,0.92,0
0.43789,-0.034816,0.084885,-0.00083023,0.025216,0.001112,0,0,0.77569,-0.33861,0,0.028911,0,0,0,0.0849,-0.00084529,0.025216,0.74262,0.036424,0.076137,1.4049e-05,0.92,0.92,0
0.45341,-0.035411,0.084962,-0.00076617,0.025259,0.00080555,0,0,0.77614,-0.33832,0,0.020944,0,0,0,0.08497,-0.00077425,0.025259,0.53798,0.036485,0.076142,1.4071e-05,0.94,0.92,0
0.46894,-0.035833,0.085013,-0.00071432,0.025289,0.00052268,0,0,0.7764,-0.33805,0,0.01359,0,0,0,0.085016,-0.00071794,0.025289,0.34911,0.036529,0.076138,1.4083e-05,0.96,0.92,0
0.48447,-0.036085,0.085041,-0.00068081,0.025308,0.00021653,0,0,0.77653,-0.33786,0,0.0056299,0,0,0,0.085043,-0.00068205,0.025308,0.14463,0.036556,0.076133,1.4089e-05,0.98,0.92,0
0.49223,-0.036169,0.085051,-0.00066925,0.025314,4.6618e-05,0,0,0.77657,-0.33779,0,0.0012121,0,0,0,0.085051,-0.00066978,0.025314,0.031111,0.036565,0.076131,1.4091e-05,1,0.92,0
0.0022109,-0.0035427,0.029812,0.01275,0.012768,-0.013166,0,0,0.22156,-0.00024043,0,-0.34232,0,0,0,0.036975,0.0055862,0.012768,-28.523,0.018443,0.028489,9.3792e-07,0,0.94,0
0.0044312,-0.006821,0.029723,0.012216,0.012582,-0.012227,0,0,0.22284,-0.0047534,0,-0.31791,0,0,0,0.036064,0.005876,0.012582,-27.084,0.018174,0.027464,8.5724e-07,0.02,0.94,0
0.0089136,-0.012703,0.029449,0.010638,0.012026,-0.0097115,0,0,0.2265,-0.018045,0,-0.2525,0,0,0,0.033737,0.0063506,0.012026,-22.643,0.017371,0.025051,6.7515e-07,0.04,0.94,0
0.013491,-0.017034,0.029086,0.0085732,0.011298,-0.0064493,0,0,0.23125,-0.035421,0,-0.16768,0,0,0,0.031189,0.0064703,0.011298,-15.802,0.016319,0.022711,5.1183e-07,0.06,0.94,0
0.018164,-0.019592,0.028724,0.0065562,0.010584,-0.0033008,0,0,0.23582,-0.052361,0,-0.085822,0,0,0,0.029411,0.0058686,0.010584,-8.2853,0.015288,0.021591,4.3246e-07,0.08,0.94,0
0.022924,-0.020461,0.02842,0.0046404,0.0099181,-0.00073515,0,0,0.24052,-0.06861,0,-0.019114,0,0,0,0.028553,0.0045071,0.0099181,-1.9108,0.014326,0.021863,4.261e-07,0.1,0.94,0
0.027785,-0.019913,0.028284,0.0029608,0.0093735,0.0011033,0,0,0.24584,-0.083364,0,0.028686,0,0,0,0.028373,0.0028718,0.0093735,2.3831,0.013539,0.02296,4.5828e-07,0.12,0.94,0
0.032757,-0.018276,0.028341,0.0016511,0.0089976,0.0022798,0,0,0.25146,-0.095505,0,0.059274,0,0,0,0.028546,0.001446,0.0089976,4.7963,0.012997,0.024228,5.0057e-07,0.14,0.94,0
0.037843,-0.015858,0.028572,0.00076651,0.0088014,0.0029571,0,0,0.25701,-0.10445,0,0.076884,0,0,0,0.028886,0.0004521,0.0088014,5.9783,0.012713,0.025315,5.407e-07,0.16,0.94,0
0.043038,-0.012906,0.028953,0.00028524,0.0087714,0.0033189,0,0,0.26236,-0.11032,0,0.086292,0,0,0,0.029334,-9.6595e-05,0.0087714,6.4987,0.01267,0.02615,5.7753e-07,0.18,0.94,0
0.048337,-0.0095926,0.029471,0.00015046,0.0088865,0.0035317,0,0,0.2676,-0.11357,0,0.091825,0,0,0,0.029895,-0.00027337,0.0088865,6.7529,0.012836,0.02679,6.1424e-07,0.2,0.94,0
0.053742,-0.0060185,0.030124,0.00029237,0.0091249,0.003735,0,0,0.27299,-0.11482,0,0.097111,0,0,0,0.030592,-0.00017597,0.0091249,7.0107,0.01318,0.027332,6.5524e-07,0.22,0.94,0
0.059257,-0.002223,0.030915,0.00061694,0.0094596,0.0040348,0,0,0.27892,-0.11495,0,0.10491,0,0,0,0.031456,7.5657e-05,0.0094596,7.4418,0.013664,0.027899,7.0583e-07,0.24,0.94,0
0.064899,0.0017951,0.03185,0.0010033,0.0098559,0.0044884,0,0,0.28592,-0.11508,0,0.1167,0,0,0,0.03251,0.00034285,0.0098559,8.1017,0.014236,0.028622,7.724e-07,0.26,0.94,0
0.070694,0.0060498,0.032932,0.0013355,0.01028,0.0050956,0,0,0.29447,-0.11628,0,0.13249,0,0,0,0.033762,0.0005051,0.01028,8.9321,0.014849,0.029606,8.6146e-07,0.28,0.94,0
0.076677,0.01054,0.03416,0.0015397,0.01071,0.0058113,0,0,0.30485,-0.11921,0,0.15109,0,0,0,0.035201,0.00049851,0.01071,9.807,0.01547,0.03089,9.7811e-07,0.3,0.94,0
0.082888,0.015228,0.035524,0.0015874,0.011134,0.0065701,0,0,0.31708,-0.1241,0,0.17082,0,0,0,0.036796,0.00031617,0.011134,10.597,0.016082,0.032453,1.1251e-06,0.32,0.94,0
0.089361,0.020033,0.037011,0.0014735,0.011545,0.0073042,0,0,0.33105,-0.13093,0,0.18991,0,0,0,0.038503,-1.916e-05,0.011545,11.204,0.016677,0.034238,1.3033e-06,0.34,0.94,0
0.09613,0.024825,0.038606,0.001202,0.011942,0.0079476,0,0,0.34662,-0.13962,0,0.20664,0,0,0,0.040281,-0.00047302,0.011942,11.564,0.01725,0.036181,1.5118e-06,0.36,0.94,0
0.10323,0.029425,0.040295,0.00079077,0.012326,0.0084388,0,0,0.3636,-0.14996,0,0.21941,0,0,0,0.042086,-0.0009994,0.012326,11.642,0.017804,0.038207,1.7479e-06,0.38,0.94,0
0.11067,0.033611,0.042069,0.00031051,0.012714,0.0087344,0,0,0.38162,-0.16124,0,0.2271,0,0,0,0.043892,-0.0015126,0.012714,11.447,0.018365,0.040226,2.0074e-06,0.4,0.94,0
0.11849,0.037142,0.043956,-9.2513e-05,0.013159,0.0088522,0,0,0.40036,-0.17227,0,0.23016,0,0,0,0.045746,-0.0018827,0.013159,11.065,0.019008,0.042171,2.2928e-06,0.42,0.94,0
0.12669,0.039798,0.046039,-0.00034863,0.013707,0.0088784,0,0,0.42032,-0.18273,0,0.23084,0,0,0,0.047772,-0.0020812,0.013707,10.612,0.019799,0.044131,2.6233e-06,0.44,0.94,0
0.1353,0.041417,0.048431,-0.00063973,0.014337,0.0088636,0,0,0.44322,-0.1947,0,0.23045,0,0,0,0.050096,-0.0023051,0.014337,10.089,0.020709,0.046378,3.0355e-06,0.46,0.94,0
0.14442,0.041867,0.051222,-0.0012654,0.014987,0.0086978,0,0,0.47105,-0.21128,0,0.22614,0,0,0,0.052764,-0.0028082,0.014987,9.3283,0.021648,0.049155,3.5656e-06,0.48,0.94,0
0.15415,0.041004,0.05438,-0.0023174,0.015619,0.008122,0,0,0.5039,-0.23317,0,0.21117,0,0,0,0.055677,-0.0036145,0.015619,8.1311,0.022561,0.052396,4.2176e-06,0.5,0.94,0
0.16457,0.038658,0.057712,-0.0034264,0.016286,0.0069191,0,0,0.53855,-0.25626,0,0.1799,0,0,0,0.058639,-0.0043534,0.016286,6.4698,0.023524,0.055628,4.9447e-06,0.52,0.94,0
0.17569,0.034726,0.060964,-0.0038593,0.017132,0.00519,0,0,0.56983,-0.27288,0,0.13494,0,0,0,0.061502,-0.0043968,0.017132,4.5917,0.024746,0.058206,5.672e-06,0.54,0.94,0
0.18737,0.029303,0.063932,-0.0031814,0.018225,0.0034062,0,0,0.59419,-0.27828,0,0.088562,0,0,0,0.064186,-0.0034361,0.018225,2.9085,0.026325,0.059814,6.3347e-06,0.56,0.94,0
0.19945,0.022752,0.066497,-0.0017903,0.019412,0.0020779,0,0,0.61211,-0.27563,0,0.054026,0,0,0,0.066609,-0.0019018,0.019412,1.7405,0.02804,0.06073,6.9112e-06,0.58,0.94,0
0.21185,0.015588,0.068655,-0.00045354,0.02046,0.0013927,0,0,0.62653,-0.27188,0,0.03621,0,0,0,0.068713,-0.00051189,0.02046,1.1482,0.029554,0.061484,7.4281e-06,0.6,0.94,0
0.22452,0.0082949,0.070501,0.00046955,0.021291,0.0012287,0,0,0.63973,-0.27068,0,0.031945,0,0,0,0.070544,0.00042671,0.021291,0.99387,0.030754,0.06236,7.9252e-06,0.62,0.94,0
0.23744,0.0012366,0.07213,0.0010183,0.021944,0.0014064,0,0,0.65241,-0.27204,0,0.036566,0,0,0,0.072174,0.00097463,0.021944,1.118,0.031698,0.063372,8.4212e-06,0.64,0.94,0
0.25061,-0.0053413,0.073579,0.0012569,0.022451,0.0017885,0,0,0.66466,-0.27552,0,0.0465,0,0,0,0.073635,0.0012,0.022451,1.3993,0.032429,0.064492,8.9191e-06,0.66,0.94,0
0.26403,-0.011289,0.074881,0.0012248,0.022832,0.0022477,0,0,0.67664,-0.28089,0,0.058441,0,0,0,0.07496,0.0011459,0.022832,1.7293,0.032979,0.065712,9.4231e-06,0.68,0.94,0
0.27768,-0.01654,0.076077,0.00099523,0.023122,0.0026708,0,0,0.68842,-0.28764,0,0.069441,0,0,0,0.07618,0.00089217,0.023122,2.0184,0.033398,0.066998,9.9329e-06,0.7,0.94,0
0.29156,-0.021091,0.077185,0.00066011,0.023353,0.0029783,0,0,0.69981,-0.29501,0,0.077435,0,0,0,0.077307,0.00053812,0.023353,2.2108,0.033733,0.068282,1.0436e-05,0.72,0.94,0
0.30567,-0.024988,0.078205,0.00030306,0.023552,0.0031346,0,0,0.71048,-0.30224,0,0.0815,0,0,0,0.078336,0.00017235,0.023552,2.2881,0.03402,0.069489,1.0914e-05,0.74,0.94,0
0.31998,-0.028298,0.079131,-1.822e-05,0.023734,0.0031408,0,0,0.72016,-0.30878,0,0.081661,0,0,0,0.079259,-0.00014641,0.023734,2.2587,0.034282,0.070564,1.1352e-05,0.76,0.94,0
0.33448,-0.031099,0.079956,-0.00027386,0.023905,0.0030197,0,0,0.72866,-0.31432,0,0.078512,0,0,0,0.080072,-0.00039041,0.023905,2.1443,0.034529,0.071482,1.174e-05,0.78,0.94,0
0.34913,-0.033465,0.080678,-0.00045552,0.024067,0.0028032,0,0,0.73595,-0.31879,0,0.072883,0,0,0,0.080777,-0.0005548,0.024067,1.97,0.034763,0.07224,1.2075e-05,0.8,0.94,0
0.36391,-0.035462,0.0813,-0.00056816,0.02422,0.0025238,0,0,0.74205,-0.32224,0,0.065619,0,0,0,0.08138,-0.00064802,0.02422,1.759,0.034984,0.072851,1.2358e-05,0.82,0.94,0
0.37881,-0.037147,0.081829,-0.00062347,0.024362,0.0022101,0,0,0.74707,-0.32481,0,0.057462,0,0,0,0.08189,-0.00068442,0.024362,1.5304,0.035189,0.073332,1.2594e-05,0.84,0.94,0
0.3938,-0.038562,0.08227,-0.00063546,0.02449,0.0018846,0,0,0.75113,-0.32664,0,0.048999,0,0,0,0.082314,-0.0006797,0.02449,1.2985,0.035375,0.073706,1.2787e-05,0.86,0.94,0
0.40886,-0.039743,0.082632,-0.00061797,0.024604,0.0015635,0,0,0.75436,-0.32789,0,0.040652,0,0,0,0.082662,-0.00064844,0.024604,1.0733,0.035539,0.07399,1.2942e-05,0.88,0.94,0
0.42397,-0.040713,0.082922,-0.00058331,0.024702,0.0012573,0,0,0.75686,-0.3287,0,0.032691,0,0,0,0.082942,-0.0006031,0.024702,0.86076,0.03568,0.074202,1.3064e-05,0.9,0.94,0
0.43913,-0.04149,0.083148,-0.00054176,0.024782,0.00097115,0,0,0.75876,-0.32921,0,0.02525,0,0,0,0.08316,-0.00055368,0.024782,0.66353,0.035796,0.074357,1.3157e-05,0.92,0.94,0
0.45432,-0.042086,0.083317,-0.00050146,0.024845,0.00070586,0,0,0.76014,-0.3295,0,0.018352,0,0,0,0.083323,-0.0005079,0.024845,0.48163,0.035887,0.074465,1.3226e-05,0.94,0.94,0
0.46954,-0.042507,0.083433,-0.00046851,0.024889,0.00045907,0,0,0.76107,-0.32965,0,0.011936,0,0,0,0.083436,-0.00047141,0.024889,0.31296,0.035951,0.074536,1.3273e-05,0.96,0.94,0
0.48476,-0.042758,0.083501,-0.00044711,0.024916,0.00018583,0,0,0.7616,-0.32972,0,0.0048316,0,0,0,0.083502,-0.00044812,0.024916,0.12658,0.03599,0.074576,1.33e-05,0.98,0.94,0
0.49238,-0.042842,0.083523,-0.0004397,0.024925,3.1842e-05,0,0,0.76178,-0.32974,0,0.00082789,0,0,0,0.083524,-0.00044016,0.024925,0.021591,0.036003,0.074589,1.3309e-05,1,0.94,0
0.0022589,-0.0036351,0.029949,0.011222,0.012351,-0.012951,0,0,0.22877,-0.014686,0,-0.33673,0,0,0,0.036675,0.0044963,0.012351,-27.059,0.017841,0.029064,9.6124e-07,0,0.96,0
0.0045755,-0.0070786,0.029571,0.0097144,0.011786,-0.011642,0,0,0.23121,-0.026926,0,-0.3027,0,0,0,0.035149,0.0041362,0.011786,-24.631,0.017024,0.027991,8.563e-07,0.02,0.96,0
0.0092484,-0.013325,0.028713,0.0071902,0.010771,-0.008678,0,0,0.23324,-0.046549,0,-0.22563,0,0,0,0.032039,0.0038633,0.010771,-19.121,0.015558,0.025445,6.4906e-07,0.04,0.96,0
0.013905,-0.017999,0.027592,0.0054089,0.0099004,-0.0054425,0,0,0.23,-0.05839,0,-0.14151,0,0,0,0.029088,0.0039132,0.0099004,-12.714,0.014301,0.022787,4.762e-07,0.06,0.96,0
0.018448,-0.020827,0.026473,0.0039885,0.0091385,-0.0026077,0,0,0.22535,-0.066951,0,-0.067799,0,0,0,0.026928,0.0035336,0.0091385,-6.3784,0.0132,0.021164,3.7786e-07,0.08,0.96,0
0.022919,-0.021941,0.02579,0.0027647,0.0085663,-0.00045338,0,0,0.22391,-0.075422,0,-0.011788,0,0,0,0.025876,0.0026785,0.0085663,-1.1549,0.012374,0.020892,3.4988e-07,0.1,0.96,0
0.027405,-0.02162,0.02563,0.0017358,0.0082096,0.0010269,0,0,0.22646,-0.084159,0,0.026701,0,0,0,0.025702,0.0016633,0.0082096,2.3792,0.011858,0.021529,3.6294e-07,0.12,0.96,0
0.031978,-0.02018,0.025902,0.00093968,0.0080524,0.001937,0,0,0.23204,-0.092465,0,0.050362,0,0,0,0.026061,0.00078008,0.0080524,4.3366,0.011631,0.022544,3.9519e-07,0.14,0.96,0
0.036686,-0.017919,0.026483,0.00039945,0.0080647,0.0024225,0,0,0.23944,-0.099648,0,0.062985,0,0,0,0.026713,0.0001689,0.0080647,5.1955,0.011649,0.023609,4.36e-07,0.16,0.96,0
0.041555,-0.015079,0.027271,0.00010672,0.0082133,0.0026397,0,0,0.24775,-0.10539,0,0.068631,0,0,0,0.027535,-0.00015724,0.0082133,5.4398,0.011864,0.024599,4.8188e-07,0.18,0.96,0
0.046596,-0.011839,0.028203,2.9124e-05,0.0084695,0.002733,0,0,0.25653,-0.10973,0,0.071059,0,0,0,0.028479,-0.00024674,0.0084695,5.4376,0.012234,0.02551,5.3299e-07,0.2,0.96,0
0.051816,-0.008309,0.029251,0.00011925,0.0088111,0.0028228,0,0,0.26572,-0.11299,0,0.073392,0,0,0,0.029539,-0.00016881,0.0088111,5.4397,0.012727,0.02639,5.9156e-07,0.22,0.96,0
0.057225,-0.0045427,0.030419,0.00031644,0.0092205,0.0029957,0,0,0.27557,-0.11575,0,0.077888,0,0,0,0.030736,-1.2531e-06,0.0092205,5.593,0.013318,0.02732,6.6161e-07,0.24,0.96,0
0.062839,-0.00055621,0.031726,0.00055111,0.0096833,0.0032979,0,0,0.28656,-0.11872,0,0.085746,0,0,0,0.032102,0.00017585,0.0096833,5.9465,0.013987,0.028392,7.4904e-07,0.26,0.96,0
0.068687,0.0036477,0.033202,0.00075865,0.010188,0.0037332,0,0,0.29918,-0.12258,0,0.097063,0,0,0,0.033666,0.00029446,0.010188,6.4632,0.014716,0.029688,8.6122e-07,0.28,0.96,0
0.074806,0.0080563,0.034869,0.00089383,0.010729,0.0042707,0,0,0.31382,-0.12786,0,0.11104,0,0,0,0.035449,0.00031371,0.010729,7.051,0.015497,0.031258,1.0061e-06,0.3,0.96,0
0.08124,0.012628,0.036742,0.00093355,0.011303,0.0048585,0,0,0.33071,-0.1348,0,0.12632,0,0,0,0.037452,0.00022265,0.011303,7.6028,0.016326,0.033111,1.1915e-06,0.32,0.96,0
0.088035,0.017279,0.038818,0.00086974,0.011906,0.005436,0,0,0.34985,-0.14348,0,0.14134,0,0,0,0.039657,3.1419e-05,0.011906,8.0257,0.017198,0.035223,1.4239e-06,0.34,0.96,0
0.095234,0.021882,0.041083,0.00070354,0.012536,0.0059408,0,0,0.37111,-0.15382,0,0.15446,0,0,0,0.042025,-0.00023785,0.012536,8.2544,0.018108,0.037543,1.7081e-06,0.36,0.96,0
0.10288,0.026262,0.043505,0.00045172,0.013187,0.0063157,0,0,0.39414,-0.16556,0,0.16421,0,0,0,0.044507,-0.00054951,0.013187,8.2561,0.019048,0.039998,2.0457e-06,0.38,0.96,0
0.111,0.030211,0.046048,0.00016005,0.013862,0.0065233,0,0,0.41841,-0.17813,0,0.16961,0,0,0,0.047056,-0.00084851,0.013862,8.0383,0.020023,0.042504,2.4353e-06,0.4,0.96,0
0.11962,0.033503,0.048681,-0.00010928,0.014572,0.0065612,0,0,0.44343,-0.19085,0,0.17059,0,0,0,0.04965,-0.0010781,0.014572,7.6476,0.021048,0.044994,2.8757e-06,0.42,0.96,0
0.12874,0.035922,0.051395,-0.00033923,0.015317,0.0064535,0,0,0.46901,-0.20353,0,0.16779,0,0,0,0.052291,-0.0012354,0.015317,7.1381,0.022124,0.047467,3.3705e-06,0.44,0.96,0
0.13838,0.03728,0.054181,-0.00060794,0.016072,0.0062033,0,0,0.49542,-0.21684,0,0.16128,0,0,0,0.054979,-0.0014055,0.016072,6.5182,0.023215,0.049993,3.9269e-06,0.46,0.96,0
0.14855,0.037415,0.057008,-0.0010262,0.016794,0.005746,0,0,0.52277,-0.23167,0,0.1494,0,0,0,0.057673,-0.0016916,0.016794,5.732,0.024259,0.052617,4.5449e-06,0.48,0.96,0
0.15929,0.036185,0.059783,-0.0015859,0.017459,0.0049754,0,0,0.55021,-0.24759,0,0.12936,0,0,0,0.060277,-0.0020803,0.017459,4.7149,0.025219,0.055245,5.2019e-06,0.5,0.96,0
0.17056,0.033488,0.062364,-0.0020736,0.018087,0.0038522,0,0,0.5756,-0.26209,0,0.10016,0,0,0,0.062671,-0.00238,0.018087,3.4865,0.026126,0.057614,5.8472e-06,0.52,0.96,0
0.18231,0.029312,0.064608,-0.0021734,0.018731,0.0025122,0,0,0.59641,-0.27175,0,0.065317,0,0,0,0.064757,-0.0023216,0.018731,2.1954,0.027055,0.05942,6.419e-06,0.54,0.96,0
0.19442,0.023808,0.066436,-0.0017372,0.01941,0.001251,0,0,0.61134,-0.27491,0,0.032526,0,0,0,0.066489,-0.0017907,0.01941,1.0709,0.028036,0.060533,6.874e-06,0.56,0.96,0
0.20676,0.017292,0.067853,-0.00095277,0.02007,0.00035863,0,0,0.62118,-0.2733,0,0.0093244,0,0,0,0.067869,-0.00096922,0.02007,0.30642,0.02899,0.0611,7.2099e-06,0.58,0.96,0
0.21927,0.010188,0.068949,-0.00016676,0.020635,-4.7414e-05,0,0,0.62809,-0.27042,0,-0.0012328,0,0,0,0.068957,-0.00017429,0.020635,-0.037034,0.029806,0.06143,7.4658e-06,0.6,0.96,0
0.23189,0.002919,0.069857,0.00040319,0.021078,-3.0497e-05,0,0,0.63413,-0.26877,0,-0.00079293,0,0,0,0.069863,0.00039729,0.021078,-0.02692,0.030446,0.061779,7.6955e-06,0.62,0.96,0
0.24463,-0.0041623,0.070695,0.00072365,0.021426,0.0002679,0,0,0.6405,-0.26912,0,0.0069655,0,0,0,0.070702,0.00071649,0.021426,0.21366,0.030948,0.06227,7.9399e-06,0.64,0.96,0
0.25751,-0.010803,0.071534,0.00083943,0.021712,0.00071089,0,0,0.64768,-0.27134,0,0.018483,0,0,0,0.071548,0.00082571,0.021712,0.5667,0.031362,0.062934,8.2199e-06,0.66,0.96,0
0.27054,-0.016847,0.07241,0.00079996,0.021963,0.0011886,0,0,0.65581,-0.27512,0,0.030905,0,0,0,0.072436,0.0007735,0.021963,0.93835,0.031724,0.063766,8.5433e-06,0.68,0.96,0
0.28374,-0.022215,0.073336,0.00065278,0.022197,0.0016175,0,0,0.66481,-0.28007,0,0.042055,0,0,0,0.073378,0.00061021,0.022197,1.26,0.032062,0.064733,8.9083e-06,0.7,0.96,0
0.29713,-0.026896,0.074306,0.00044811,0.022426,0.0019428,0,0,0.67443,-0.28571,0,0.050512,0,0,0,0.074363,0.00039076,0.022426,1.491,0.032393,0.065783,9.3053e-06,0.72,0.96,0
0.31072,-0.030922,0.075298,0.00023102,0.022659,0.0021397,0,0,0.68431,-0.29156,0,0.055632,0,0,0,0.075364,0.00016419,0.022659,1.6172,0.032729,0.066854,9.7191e-06,0.74,0.96,0
0.3245,-0.034352,0.076282,3.4205e-05,0.022895,0.0022089,0,0,0.69403,-0.29719,0,0.057431,0,0,0,0.076351,-3.5143e-05,0.022895,1.6451,0.03307,0.06789,1.0133e-05,0.76,0.96,0
0.33848,-0.037259,0.077228,-0.00012421,0.023131,0.0021677,0,0,0.70326,-0.30232,0,0.056359,0,0,0,0.077294,-0.00018976,0.023131,1.5928,0.033412,0.068852,1.0533e-05,0.78,0.96,0
0.35263,-0.039714,0.078112,-0.00023842,0.023362,0.0020413,0,0,0.71175,-0.30681,0,0.053074,0,0,0,0.078169,-0.00029578,0.023362,1.4821,0.033745,0.069715,1.0907e-05,0.8,0.96,0
0.36695,-0.041783,0.078915,-0.00031082,0.023581,0.0018565,0,0,0.71934,-0.3106,0,0.04827,0,0,0,0.078962,-0.00035782,0.023581,1.3341,0.034062,0.070469,1.1248e-05,0.82,0.96,0
0.38141,-0.043525,0.079627,-0.00034817,0.023784,0.0016374,0,0,0.72596,-0.31371,0,0.042572,0,0,0,0.079663,-0.0003845,0.023784,1.1665,0.034354,0.071113,1.1551e-05,0.84,0.96,0
0.39599,-0.044984,0.080242,-0.00035888,0.023965,0.0014032,0,0,0.73161,-0.31621,0,0.036484,0,0,0,0.080269,-0.00038546,0.023965,0.9925,0.034616,0.071653,1.1813e-05,0.86,0.96,0
0.41067,-0.046197,0.080762,-0.00035131,0.024123,0.0011683,0,0,0.7363,-0.31817,0,0.030375,0,0,0,0.08078,-0.00036973,0.024123,0.82153,0.034845,0.072095,1.2035e-05,0.88,0.96,0
0.42544,-0.04719,0.081188,-0.00033294,0.024257,0.00094175,0,0,0.74011,-0.31966,0,0.024486,0,0,0,0.0812,-0.00034494,0.024257,0.65921,0.035037,0.072448,1.2218e-05,0.9,0.96,0
0.44028,-0.047984,0.081526,-0.00030998,0.024365,0.00072858,0,0,0.74309,-0.32077,0,0.018943,0,0,0,0.081533,-0.00031723,0.024365,0.5082,0.035194,0.072722,1.2363e-05,0.92,0.96,0
0.45516,-0.048591,0.081781,-0.00028735,0.024448,0.00053013,0,0,0.74533,-0.32156,0,0.013783,0,0,0,0.081785,-0.00029127,0.024448,0.36882,0.035314,0.072925,1.2472e-05,0.94,0.96,0
0.47009,-0.049019,0.081959,-0.0002687,0.024507,0.00034502,0,0,0.74687,-0.32208,0,0.0089704,0,0,0,0.081961,-0.00027046,0.024507,0.23961,0.035399,0.073064,1.2549e-05,0.96,0.96,0
0.48504,-0.049274,0.082063,-0.00025653,0.024542,0.00012919,0,0,0.74778,-0.32238,0,0.0033589,0,0,0,0.082064,-0.00025718,0.024542,0.089541,0.03545,0.073146,1.2594e-05,0.98,0.96,0
0.49252,-0.049359,0.082098,-0.00025232,0.024554,2.9065e-06,0,0,0.74808,-0.32248,0,7.5576e-05,0,0,0,0.082098,-0.00025267,0.024554,0.0018142,0.035466,0.073173,1.2609e-05,1,0.96,0
0.0028989,-0.0041302,0.035826,0.011185,0.014103,-0.013054,0,0,0.2824,-0.037941,0,-0.33941,0,0,0,0.04184,0.0051707,0.014103,-23.464,0.020371,0.033149,1.6374e-06,0,0.98,0
0.0056479,-0.0078981,0.033115,0.0079791,0.012328,-0.010664,0,0,0.27023,-0.05654,0,-0.27728,0,0,0,0.037481,0.0036132,0.012328,-19.887,0.017808,0.030481,1.2239e-06,0.02,0.98,0
0.010809,-0.014565,0.028308,0.0039682,0.0096827,-0.0065909,0,0,0.24212,-0.074288,0,-0.17136,0,0,0,0.030248,0.0020279,0.0096827,-13.693,0.013986,0.025282,6.3028e-07,0.04,0.98,0
0.015333,-0.01937,0.024691,0.0025862,0.0081831,-0.0036899,0,0,0.2146,-0.07276,0,-0.095938,0,0,0,0.025453,0.0018239,0.0081831,-8.6531,0.01182,0.021186,3.7067e-07,0.06,0.98,0
0.019393,-0.02227,0.022444,0.001646,0.0072271,-0.0016113,0,0,0.19783,-0.072555,0,-0.041894,0,0,0,0.022655,0.0014354,0.0072271,-4.1036,0.010439,0.019007,2.6322e-07,0.08,0.98,0
0.023246,-0.023478,0.021582,0.0010063,0.0067765,-0.0001683,0,0,0.19247,-0.075012,0,-0.0043759,0,0,0,0.021621,0.00096697,0.0067765,-0.43278,0.0097882,0.018456,2.3271e-07,0.1,0.98,0
0.027092,-0.023279,0.02172,0.00052411,0.0066732,0.00077406,0,0,0.19561,-0.079938,0,0.020125,0,0,0,0.021762,0.00048165,0.0066732,2.0008,0.009639,0.018963,2.414e-07,0.12,0.98,0
0.03107,-0.021974,0.022518,0.00017826,0.006809,0.001327,0,0,0.20422,-0.0862,0,0.034502,0,0,0,0.022606,9.0805e-05,0.006809,3.2728,0.0098353,0.020022,2.725e-07,0.14,0.98,0
0.035261,-0.019844,0.023702,-3.8488e-05,0.0070989,0.0015979,0,0,0.21584,-0.092787,0,0.041546,0,0,0,0.02382,-0.00015677,0.0070989,3.7299,0.010254,0.021298,3.1822e-07,0.16,0.98,0
0.039703,-0.017121,0.025076,-0.0001367,0.0074817,0.001693,0,0,0.22872,-0.099039,0,0.044017,0,0,0,0.025203,-0.00026427,0.0074817,3.7414,0.010807,0.022613,3.7458e-07,0.18,0.98,0
0.04441,-0.013982,0.026529,-0.00013494,0.0079182,0.0017093,0,0,0.24194,-0.10469,0,0.044441,0,0,0,0.026655,-0.00026065,0.0079182,3.5892,0.011437,0.0239,4.3975e-07,0.2,0.98,0
0.049381,-0.010538,0.028024,-5.7683e-05,0.00839,0.0017271,0,0,0.25525,-0.10982,0,0.044905,0,0,0,0.028149,-0.00018196,0.00839,3.4572,0.012119,0.025164,5.1405e-07,0.22,0.98,0
0.05462,-0.0068531,0.029581,6.6236e-05,0.008894,0.0018035,0,0,0.26892,-0.11476,0,0.046892,0,0,0,0.029712,-6.4856e-05,0.008894,3.4455,0.012847,0.02646,6.0058e-07,0.24,0.98,0
0.060138,-0.0029536,0.031253,0.00020628,0.0094379,0.0019688,0,0,0.2836,-0.12001,0,0.051189,0,0,0,0.031404,5.5878e-05,0.0094379,3.5839,0.013633,0.027868,7.0563e-07,0.26,0.98,0
0.065964,0.0011465,0.033113,0.00033519,0.010034,0.0022262,0,0,0.30002,-0.12609,0,0.057881,0,0,0,0.033296,0.00015167,0.010034,3.846,0.014494,0.029473,8.3865e-07,0.28,0.98,0
0.072139,0.0054254,0.035224,0.00043362,0.010697,0.0025565,0,0,0.31885,-0.13343,0,0.066469,0,0,0,0.035453,0.00020493,0.010697,4.1696,0.015452,0.031347,1.0117e-06,0.3,0.98,0
0.078718,0.0098362,0.03763,0.00049095,0.011436,0.0029254,0,0,0.34052,-0.14229,0,0.076061,0,0,0,0.037911,0.00021017,0.011436,4.4813,0.016519,0.033528,1.2388e-06,0.32,0.98,0
0.08576,0.014294,0.040346,0.00050267,0.012254,0.0032908,0,0,0.36518,-0.15277,0,0.085562,0,0,0,0.040677,0.00017096,0.012254,4.7153,0.017701,0.036018,1.5344e-06,0.34,0.98,0
0.093325,0.018673,0.043347,0.00046915,0.013145,0.0036087,0,0,0.39263,-0.16479,0,0.093826,0,0,0,0.043719,9.7169e-05,0.013145,4.8259,0.018987,0.038781,1.9118e-06,0.36,0.98,0
0.10146,0.022803,0.04658,0.00039868,0.014094,0.0038397,0,0,0.42232,-0.17803,0,0.099833,0,0,0,0.046973,5.2466e-06,0.014094,4.7922,0.020357,0.041747,2.3801e-06,0.38,0.98,0
0.11022,0.026486,0.049963,0.00030993,0.015082,0.0039578,0,0,0.45346,-0.19204,0,0.1029,0,0,0,0.050356,-8.2212e-05,0.015082,4.6199,0.021785,0.044823,2.9419e-06,0.4,0.98,0
0.1196,0.029508,0.053405,0.00022284,0.016088,0.003955,0,0,0.48512,-0.20625,0,0.10283,0,0,0,0.053775,-0.00014685,0.016088,4.3343,0.023239,0.047915,3.5919e-06,0.42,0.98,0
0.12962,0.031657,0.05681,0.00013544,0.017084,0.0038338,0,0,0.51645,-0.22033,0,0.09968,0,0,0,0.057141,-0.00019527,0.017084,3.9629,0.024677,0.050945,4.3169e-06,0.44,0.98,0
0.14026,0.032743,0.060073,1.2444e-05,0.018026,0.0035864,0,0,0.54662,-0.23417,0,0.093246,0,0,0,0.060352,-0.00026618,0.018026,3.5136,0.026037,0.053856,5.0925e-06,0.46,0.98,0
0.15149,0.0326,0.063069,-0.00018432,0.018865,0.0031814,0,0,0.57465,-0.24765,0,0.082716,0,0,0,0.063284,-0.0003991,0.018865,2.9694,0.02725,0.056569,5.8771e-06,0.48,0.98,0
0.16325,0.0311,0.065648,-0.00043931,0.019563,0.0025846,0,0,0.59911,-0.26003,0,0.067201,0,0,0,0.065792,-0.00058277,0.019563,2.3137,0.028257,0.058945,6.607e-06,0.5,0.98,0
0.17545,0.028175,0.067664,-0.00065777,0.020102,0.0018096,0,0,0.61831,-0.26988,0,0.04705,0,0,0,0.067741,-0.00073445,0.020102,1.5683,0.029036,0.060799,7.2051e-06,0.52,0.98,0
0.18798,0.023856,0.069021,-0.00071634,0.020491,0.00095699,0,0,0.63089,-0.2757,0,0.024882,0,0,0,0.06905,-0.00074573,0.020491,0.81353,0.029599,0.061971,7.6072e-06,0.54,0.98,0
0.20069,0.018307,0.069726,-0.00056396,0.020749,0.000194,0,0,0.63671,-0.27706,0,0.005044,0,0,0,0.069734,-0.0005716,0.020749,0.16813,0.02997,0.062439,7.7931e-06,0.56,0.98,0
0.21345,0.011821,0.069901,-0.00027276,0.020888,-0.00032509,0,0,0.63716,-0.2751,0,-0.0084524,0,0,0,0.069905,-0.00027639,0.020888,-0.26351,0.030172,0.062354,7.8001e-06,0.58,0.98,0
0.22617,0.0047714,0.069752,2.248e-05,0.020932,-0.00053409,0,0,0.63465,-0.27183,0,-0.013886,0,0,0,0.069756,1.7914e-05,0.020932,-0.43858,0.030235,0.061986,7.7073e-06,0.6,0.98,0
0.23883,-0.0024561,0.06951,0.00022556,0.020921,-0.00046648,0,0,0.63166,-0.26904,0,-0.012129,0,0,0,0.069514,0.00022184,0.020921,-0.38551,0.030219,0.061608,7.6009e-06,0.62,0.98,0
0.25144,-0.0095284,0.069371,0.00031495,0.020906,-0.00021127,0,0,0.63005,-0.26768,0,-0.005493,0,0,0,0.069373,0.00031306,0.020906,-0.17628,0.030197,0.06141,7.5468e-06,0.64,0.98,0
0.26404,-0.016195,0.069456,0.00031286,0.020931,0.00013576,0,0,0.63083,-0.26803,0,0.0035297,0,0,0,0.069458,0.00031062,0.020931,0.10868,0.030233,0.061488,7.5806e-06,0.66,0.98,0
0.27667,-0.022294,0.069815,0.00025005,0.021019,0.00049653,0,0,0.63434,-0.27,0,0.01291,0,0,0,0.069821,0.0002438,0.021019,0.40166,0.030361,0.061864,7.7141e-06,0.68,0.98,0
0.28941,-0.027743,0.07044,0.00015278,0.021178,0.0008161,0,0,0.64041,-0.27333,0,0.021219,0,0,0,0.070453,0.00013989,0.021178,0.65494,0.03059,0.062509,7.9429e-06,0.7,0.98,0
0.30229,-0.03252,0.071289,4.2707e-05,0.0214,0.0010613,0,0,0.64857,-0.27764,0,0.027594,0,0,0,0.071309,2.2873e-05,0.0214,0.84135,0.030911,0.063363,8.2529e-06,0.72,0.98,0
0.31535,-0.03665,0.072299,-6.2603e-05,0.021671,0.0012182,0,0,0.65816,-0.28253,0,0.031673,0,0,0,0.072324,-8.7533e-05,0.021671,0.95202,0.031302,0.064353,8.6239e-06,0.74,0.98,0
0.32862,-0.040186,0.073398,-0.00015113,0.021974,0.0012882,0,0,0.66851,-0.28763,0,0.033494,0,0,0,0.073425,-0.00017821,0.021974,0.99176,0.03174,0.065404,9.0334e-06,0.76,0.98,0
0.34209,-0.043192,0.074521,-0.00021695,0.022291,0.0012832,0,0,0.67899,-0.29261,0,0.033363,0,0,0,0.074547,-0.0002433,0.022291,0.97338,0.032198,0.066454,9.4589e-06,0.78,0.98,0
0.35578,-0.045737,0.075613,-0.00025937,0.022606,0.0012198,0,0,0.68909,-0.29725,0,0.031716,0,0,0,0.075636,-0.00028283,0.022606,0.91258,0.032653,0.067453,9.8805e-06,0.8,0.98,0
0.36966,-0.047886,0.076631,-0.00028108,0.022905,0.001116,0,0,0.69844,-0.30142,0,0.029015,0,0,0,0.076651,-0.00030051,0.022905,0.8245,0.033085,0.068369,1.0282e-05,0.82,0.98,0
0.38371,-0.049695,0.07755,-0.00028647,0.023179,0.00098773,0,0,0.70682,-0.30505,0,0.025681,0,0,0,0.077565,-0.00030158,0.023179,0.72178,0.033481,0.069182,1.065e-05,0.84,0.98,0
0.39793,-0.051211,0.078352,-0.0002803,0.023422,0.00084812,0,0,0.7141,-0.30813,0,0.022051,0,0,0,0.078364,-0.00029139,0.023422,0.61398,0.033831,0.069884,1.0978e-05,0.86,0.98,0
0.41228,-0.052469,0.079033,-0.00026698,0.02363,0.00070672,0,0,0.72025,-0.31066,0,0.018375,0,0,0,0.079041,-0.00027467,0.02363,0.50764,0.034132,0.070473,1.126e-05,0.88,0.98,0
0.42674,-0.053499,0.079594,-0.00025025,0.023803,0.00056979,0,0,0.72528,-0.31269,0,0.014815,0,0,0,0.079599,-0.00025526,0.023803,0.40671,0.034382,0.070953,1.1495e-05,0.9,0.98,0
0.44129,-0.054321,0.080038,-0.00023306,0.023941,0.00044071,0,0,0.72925,-0.31427,0,0.011458,0,0,0,0.080041,-0.00023608,0.023941,0.31302,0.034582,0.071331,1.1683e-05,0.92,0.98,0
0.45591,-0.054948,0.080373,-0.00021764,0.024047,0.00032053,0,0,0.73224,-0.31544,0,0.0083339,0,0,0,0.080375,-0.00021927,0.024047,0.22683,0.034734,0.071614,1.1827e-05,0.94,0.98,0
0.47058,-0.05539,0.080606,-0.00020558,0.02412,0.00020852,0,0,0.73432,-0.31624,0,0.0054215,0,0,0,0.080607,-0.00020631,0.02412,0.14718,0.03484,0.07181,1.1927e-05,0.96,0.98,0
0.48528,-0.055654,0.080744,-0.00019794,0.024164,6.0711e-05,0,0,0.73554,-0.3167,0,0.0015785,0,0,0,0.080744,-0.00019826,0.024164,0.042673,0.034903,0.071925,1.1986e-05,0.98,0.98,0
0.49264,-0.055741,0.080789,-0.00019533,0.024178,-3.2938e-05,0,0,0.73594,-0.31685,0,-0.00085638,0,0,0,0.080789,-0.00019558,0.024178,-0.023473,0.034924,0.071963,1.2006e-05,1,0.98,0
0.0034687,-0.0045266,0.041137,0.012012,0.015945,-0.013295,0,0,0.3275,-0.051129,0,-0.34568,0,0,0,0.046764,0.0063844,0.015945,-21.072,0.023031,0.036599,2.2684e-06,0,1,0
0.00655,-0.0084932,0.036306,0.0076359,0.013183,-0.010141,0,0,0.30061,-0.072108,0,-0.26366,0,0,0,0.040012,0.0039305,0.013183,-16.978,0.019042,0.032494,1.5725e-06,0.02,1,0
0.012024,-0.015349,0.028021,0.0024959,0.0091552,-0.0053102,0,0,0.24526,-0.086571,0,-0.13807,0,0,0,0.029232,0.0012852,0.0091552,-10.648,0.013224,0.024964,6.2531e-07,0.04,1,0
0.01636,-0.020129,0.022546,0.0012021,0.0071244,-0.002676,0,0,0.20048,-0.076989,0,-0.069577,0,0,0,0.022955,0.0007928,0.0071244,-6.5282,0.010291,0.01978,2.9363e-07,0.06,1,0
0.020043,-0.023012,0.01974,0.00044311,0.006055,-0.0010867,0,0,0.17791,-0.072955,0,-0.028254,0,0,0,0.019844,0.00033958,0.006055,-2.9793,0.0087461,0.017375,1.8954e-07,0.08,1,0
0.023477,-0.024234,0.018932,7.1864e-05,0.0057011,-4.7121e-05,0,0,0.172,-0.07318,0,-0.0012251,0,0,0,0.018951,5.2472e-05,0.0057011,-0.12817,0.0082349,0.016809,1.6491e-07,0.1,1,0
0.026923,-0.024077,0.019365,-0.00015396,0.0057632,0.00060758,0,0,0.17682,-0.076923,0,0.015797,0,0,0,0.019391,-0.00017989,0.0057632,1.7123,0.0083247,0.017383,1.7612e-07,0.12,1,0
0.03055,-0.02283,0.02055,-0.00028041,0.006081,0.00097881,0,0,0.1881,-0.082698,0,0.025449,0,0,0,0.0206,-0.00033042,0.006081,2.613,0.0087837,0.018577,2.0948e-07,0.14,1,0
0.034447,-0.020763,0.022128,-0.00033104,0.006539,0.0011485,0,0,0.20265,-0.089311,0,0.029861,0,0,0,0.022191,-0.00039461,0.006539,2.8683,0.0094453,0.020041,2.5909e-07,0.16,1,0
0.038656,-0.018103,0.023856,-0.00032064,0.0070606,0.001194,0,0,0.21834,-0.095956,0,0.031044,0,0,0,0.023921,-0.00038547,0.0070606,2.7868,0.010199,0.02157,3.2115e-07,0.18,1,0
0.043181,-0.015022,0.025603,-0.0002637,0.0076017,0.0011853,0,0,0.23401,-0.10225,0,0.030818,0,0,0,0.025663,-0.00032425,0.0076017,2.5957,0.01098,0.02307,3.9304e-07,0.2,1,0
0.048016,-0.011632,0.027331,-0.00017449,0.0081468,0.0011802,0,0,0.24939,-0.10818,0,0.030685,0,0,0,0.027388,-0.00023147,0.0081468,2.4355,0.011768,0.024528,4.7422e-07,0.22,1,0
0.053157,-0.008,0.029075,-6.6913e-05,0.0087023,0.0012195,0,0,0.26484,-0.114,0,0.031706,0,0,0,0.029132,-0.00012473,0.0087023,2.3771,0.01257,0.025993,5.675e-07,0.24,1,0
0.05861,-0.0041567,0.030916,4.6176e-05,0.0092887,0.0013246,0,0,0.28116,-0.12015,0,0.03444,0,0,0,0.030981,-1.8606e-05,0.0092887,2.4383,0.013417,0.027551,6.7968e-07,0.26,1,0
0.064403,-0.00012094,0.032955,0.0001545,0.0099328,0.001498,0,0,0.29929,-0.12712,0,0.038947,0,0,0,0.033033,7.6209e-05,0.0099328,2.5963,0.014347,0.0293,8.2168e-07,0.28,1,0
0.070581,0.0040814,0.035282,0.00025164,0.01066,0.0017259,0,0,0.32009,-0.13531,0,0.044873,0,0,0,0.03538,0.00015417,0.01066,2.8038,0.015398,0.031323,1.0082e-06,0.3,1,0
0.077206,0.0084007,0.037961,0.00033452,0.011489,0.0019834,0,0,0.34414,-0.14501,0,0.051569,0,0,0,0.038081,0.00021463,0.011489,3.0057,0.016595,0.033676,1.2569e-06,0.32,1,0
0.084347,0.012752,0.041014,0.00040172,0.012425,0.0022396,0,0,0.37166,-0.1563,0,0.058228,0,0,0,0.041156,0.00025997,0.012425,3.1531,0.017947,0.036373,1.5872e-06,0.34,1,0
0.092073,0.017008,0.044415,0.00045288,0.01346,0.0024617,0,0,0.40241,-0.1691,0,0.064005,0,0,0,0.044573,0.00029426,0.01346,3.2131,0.019443,0.039383,2.0175e-06,0.36,1,0
0.10044,0.021004,0.048092,0.00049043,0.014575,0.0026212,0,0,0.43572,-0.18309,0,0.068152,0,0,0,0.048258,0.00032362,0.014575,3.1719,0.021052,0.042635,2.5617e-06,0.38,1,0
0.1095,0.024546,0.051939,0.00052045,0.015738,0.0026988,0,0,0.47061,-0.19782,0,0.070168,0,0,0,0.052103,0.00035581,0.015738,3.0348,0.022732,0.046027,3.2247e-06,0.4,1,0
0.11927,0.027423,0.055829,0.000547,0.016913,0.0026867,0,0,0.50591,-0.21275,0,0.069854,0,0,0,0.055982,0.00039417,0.016913,2.8199,0.02443,0.049444,3.9989e-06,0.42,1,0
0.12974,0.029431,0.059625,0.00056073,0.018056,0.0025834,0,0,0.5404,-0.22744,0,0.067169,0,0,0,0.059758,0.00042735,0.018056,2.5456,0.026081,0.052774,4.8621e-06,0.44,1,0
0.14088,0.030378,0.063177,0.00053555,0.019114,0.0023812,0,0,0.57282,-0.24152,0,0.061911,0,0,0,0.063285,0.0004274,0.019114,2.2181,0.027609,0.055909,5.7731e-06,0.46,1,0
0.15265,0.030104,0.066314,0.00044645,0.020028,0.0020612,0,0,0.60172,-0.25456,0,0.053591,0,0,0,0.066393,0.00036771,0.020028,1.8299,0.02893,0.058719,6.6668e-06,0.48,1,0
0.16495,0.028485,0.068851,0.00029961,0.020745,0.0016085,0,0,0.62537,-0.26579,0,0.041821,0,0,0,0.068899,0.00025132,0.020745,1.3742,0.029965,0.06104,7.4535e-06,0.5,1,0
0.17767,0.025469,0.070621,0.00014441,0.02123,0.0010431,0,0,0.64209,-0.27411,0,0.02712,0,0,0,0.070644,0.00012199,0.02123,0.86737,0.030665,0.062693,8.0351e-06,0.52,1,0
0.19064,0.021097,0.071536,4.5878e-05,0.021475,0.00043989,0,0,0.6508,-0.27857,0,0.011437,0,0,0,0.071543,3.919e-05,0.021475,0.3611,0.031019,0.063559,8.3407e-06,0.54,1,0
0.2037,0.015536,0.071639,3.4332e-05,0.021502,-8.7762e-05,0,0,0.65178,-0.27908,0,-0.0022818,0,0,0,0.071641,3.2419e-05,0.021502,-0.069214,0.031059,0.063651,8.3631e-06,0.56,1,0
0.21671,0.0090689,0.071117,8.0766e-05,0.021359,-0.00043806,0,0,0.64685,-0.27662,0,-0.01139,0,0,0,0.07112,7.7456e-05,0.021359,-0.35487,0.030852,0.063151,8.1672e-06,0.58,1,0
0.22957,0.0020515,0.070252,0.00012533,0.021113,-0.00056712,0,0,0.63881,-0.27284,0,-0.014745,0,0,0,0.070257,0.00012049,0.021113,-0.46399,0.030497,0.06235,7.8629e-06,0.6,1,0
0.24226,-0.0051475,0.06935,0.00012588,0.020843,-0.00049768,0,0,0.63059,-0.26932,0,-0.01294,0,0,0,0.069354,0.00012195,0.020843,-0.41119,0.030106,0.061545,7.5612e-06,0.62,1,0
0.2548,-0.012204,0.068656,7.7412e-05,0.02062,-0.00029301,0,0,0.62447,-0.26706,0,-0.0076182,0,0,0,0.068658,7.5628e-05,0.02062,-0.24402,0.029785,0.060964,7.3422e-06,0.64,1,0
0.26724,-0.018872,0.068324,-2.1164e-06,0.020497,-2.3669e-05,0,0,0.62176,-0.26648,0,-0.00061539,0,0,0,0.068325,-2.802e-06,0.020497,-0.02042,0.029606,0.060731,7.2474e-06,0.66,1,0
0.27967,-0.024988,0.068407,-9.2148e-05,0.020494,0.00025235,0,0,0.62286,-0.26762,0,0.0065611,0,0,0,0.068408,-9.3883e-05,0.020494,0.2086,0.029603,0.060878,7.2877e-06,0.68,1,0
0.29215,-0.030468,0.068884,-0.00017824,0.020612,0.00049516,0,0,0.62754,-0.27027,0,0.012874,0,0,0,0.068889,-0.00018275,0.020612,0.40673,0.029773,0.061376,7.455e-06,0.7,1,0
0.30477,-0.035286,0.069689,-0.00025173,0.020831,0.00068178,0,0,0.63516,-0.27408,0,0.017726,0,0,0,0.069697,-0.00025952,0.020831,0.55363,0.03009,0.062156,7.7305e-06,0.72,1,0
0.31756,-0.039463,0.070731,-0.00030775,0.021127,0.00080324,0,0,0.64485,-0.27865,0,0.020884,0,0,0,0.070742,-0.00031814,0.021127,0.64292,0.030517,0.063131,8.0897e-06,0.74,1,0
0.33056,-0.043048,0.071914,-0.00034441,0.021471,0.00086127,0,0,0.65576,-0.2836,0,0.022393,0,0,0,0.071925,-0.00035606,0.021471,0.6785,0.031013,0.064213,8.5053e-06,0.76,1,0
0.34379,-0.046104,0.073149,-0.00036252,0.021836,0.00086464,0,0,0.66707,-0.28858,0,0.022481,0,0,0,0.07316,-0.00037406,0.021836,0.67025,0.031541,0.065325,8.9503e-06,0.78,1,0
0.35724,-0.048696,0.074364,-0.00036494,0.0222,0.00082563,0,0,0.67813,-0.29334,0,0.021466,0,0,0,0.074374,-0.00037531,0.0222,0.63017,0.032066,0.066405,9.4002e-06,0.8,1,0
0.37091,-0.050887,0.075505,-0.00035558,0.022545,0.00075716,0,0,0.68848,-0.2977,0,0.019686,0,0,0,0.075514,-0.00036421,0.022545,0.56972,0.032565,0.067409,9.8342e-06,0.82,1,0
0.38478,-0.052733,0.076536,-0.00033851,0.022859,0.00067087,0,0,0.6978,-0.30157,0,0.017443,0,0,0,0.076543,-0.00034523,0.022859,0.49843,0.033019,0.068309,1.0236e-05,0.84,1,0
0.39883,-0.05428,0.077438,-0.00031734,0.023136,0.00057617,0,0,0.70592,-0.3049,0,0.01498,0,0,0,0.077443,-0.00032227,0.023136,0.42342,0.033419,0.06909,1.0596e-05,0.86,1,0
0.41302,-0.055565,0.078202,-0.00029497,0.023372,0.00047994,0,0,0.71279,-0.30767,0,0.012478,0,0,0,0.078206,-0.00029838,0.023372,0.34948,0.03376,0.069749,1.0907e-05,0.88,1,0
0.42734,-0.056616,0.07883,-0.00027356,0.023567,0.00038669,0,0,0.71842,-0.30993,0,0.010054,0,0,0,0.078832,-0.00027577,0.023567,0.27949,0.034041,0.070288,1.1166e-05,0.9,1,0
0.44176,-0.057454,0.079326,-0.00025461,0.023721,0.00029885,0,0,0.72286,-0.31169,0,0.00777,0,0,0,0.079327,-0.00025594,0.023721,0.21474,0.034264,0.070712,1.1374e-05,0.92,1,0
0.45625,-0.058093,0.0797,-0.00023912,0.023838,0.00021718,0,0,0.7262,-0.313,0,0.0056467,0,0,0,0.0797,-0.00023984,0.023838,0.15537,0.034433,0.071031,1.1532e-05,0.94,1,0
0.4708,-0.058544,0.079959,-0.00022771,0.023919,0.00014119,0,0,0.72851,-0.31391,0,0.0036709,0,0,0,0.079959,-0.00022803,0.023919,0.1007,0.03455,0.071252,1.1643e-05,0.96,1,0
0.48539,-0.058812,0.080111,-0.00022074,0.023967,2.6772e-05,0,0,0.72988,-0.31444,0,0.00069608,0,0,0,0.080112,-0.00022094,0.023967,0.019029,0.034619,0.071381,1.1708e-05,0.98,1,0
0.49269,-0.058901,0.080162,-0.0002184,0.023983,-5.0935e-05,0,0,0.73032,-0.31462,0,-0.0013243,0,0,0,0.080162,-0.00021862,0.023983,-0.036349,0.034642,0.071424,1.173e-05,1,1,0
