"Displacements:0","Displacements:1","Stress/Strain:0","Stress/Strain:1","Stress/Strain:2","Stress/Strain:3","Stress/Strain:4","Stress/Strain:5","Stress/Strain:6","Stress/Strain:7","Stress/Strain:8","Stress/Strain:9","Stress/Strain:10","Stress/Strain:11","Stress/Strain:12","Principal Stress:0","Principal Stress:1","Principal Stress:2","Principal Stress:3","Principal Stress:4","Principal Stress:5","Principal Stress:6","nodes:0","nodes:1","nodes:2"
0,0,0.037179,0.004131,0.004131,0.0051556,0,0,0.072706,2.6021e-18,0,0.022685,0,0,0,0.037965,0.0033454,0.004131,8.6641,0.015147,0.034233,2.0568e-06,0,0,0
0.0014541,0.00045369,0.03402,0.00072565,0.0034746,0.0018479,0,0,0.067201,-0.0060477,0,0.0081307,0,0,0,0.034123,0.0006234,0.0034746,3.167,0.01274,0.032169,1.6645e-06,0.02,0,0
0.002688,0.00081111,0.030167,0.00027577,0.0030443,0.00084526,0,0,0.05967,-0.0060907,0,0.0037192,0,0,0,0.030191,0.00025188,0.0030443,1.6185,0.011162,0.028645,1.1686e-06,0.04,0,0
0.0038409,0.0011194,0.028572,7.8282e-05,0.0028651,0.00052288,0,0,0.056556,-0.0061309,0,0.0023007,0,0,0,0.028582,6.869e-05,0.0028651,1.0509,0.010505,0.027223,9.994e-07,0.06,0,0
0.0049503,0.0013873,0.027652,2.9763e-05,0.0027682,0.0003553,0,0,0.054745,-0.0060246,0,0.0015633,0,0,0,0.027657,2.5194e-05,0.0027682,0.73681,0.01015,0.026367,9.0726e-07,0.08,0,0
0.0060307,0.0016239,0.027016,5.779e-06,0.0027021,0.00026562,0,0,0.053489,-0.005932,0,0.0011687,0,0,0,0.027018,3.1672e-06,0.0027021,0.56338,0.0099078,0.025772,8.467e-07,0.1,0,0
0.0070898,0.0018338,0.026531,-5.624e-06,0.0026526,0.00021053,0,0,0.052533,-0.005848,0,0.00092631,0,0,0,0.026533,-7.294e-06,0.0026526,0.45451,0.0097261,0.025315,8.0232e-07,0.12,0,0
0.0081321,0.0020203,0.026139,-1.2039e-05,0.0026127,0.00017499,0,0,0.051758,-0.0057745,0,0.00076996,0,0,0,0.02614,-1.3209e-05,0.0026127,0.38337,0.00958,0.024945,7.6746e-07,0.14,0,0
0.0091602,0.0021853,0.025806,-1.5791e-05,0.002579,0.00015103,0,0,0.0511,-0.0057086,0,0.00066454,0,0,0,0.025807,-1.6674e-05,0.002579,0.3351,0.0094565,0.024629,7.3861e-07,0.16,0,0
0.010176,0.0023304,0.025513,-1.8056e-05,0.0025495,0.00013425,0,0,0.050519,-0.0056485,0,0.00059068,0,0,0,0.025513,-1.8762e-05,0.0025495,0.30126,0.009348,0.02435,7.1376e-07,0.18,0,0
0.011181,0.0024565,0.025247,-1.9376e-05,0.0025228,0.00012183,0,0,0.049994,-0.0055927,0,0.00053606,0,0,0,0.025248,-1.9964e-05,0.0025228,0.27626,0.0092502,0.024097,6.9174e-07,0.2,0,0
0.012176,0.0025641,0.025003,-2.001e-05,0.0024983,0.00011185,0,0,0.04951,-0.0055402,0,0.00049212,0,0,0,0.025003,-2.051e-05,0.0024983,0.25609,0.0091603,0.023864,6.7187e-07,0.22,0,0
0.013161,0.0026535,0.024777,-2.0068e-05,0.0024757,0.00010282,0,0,0.049062,-0.0054906,0,0.00045242,0,0,0,0.024777,-2.0494e-05,0.0024757,0.23758,0.0090775,0.023649,6.5382e-07,0.24,0,0
0.014138,0.0027246,0.024569,-1.9579e-05,0.002455,9.3594e-05,0,0,0.048652,-0.005444,0,0.00041181,0,0,0,0.02457,-1.9935e-05,0.002455,0.21808,0.0090016,0.02345,6.3751e-07,0.26,0,0
0.015107,0.0027774,0.024383,-1.8536e-05,0.0024364,8.322e-05,0,0,0.048282,-0.0054009,0,0.00036617,0,0,0,0.024383,-1.882e-05,0.0024364,0.1954,0.0089336,0.023272,6.2307e-07,0.28,0,0
0.01607,0.0028117,0.024222,-1.6917e-05,0.0024205,7.0972e-05,0,0,0.047963,-0.0053623,0,0.00031228,0,0,0,0.024222,-1.7125e-05,0.0024205,0.16776,0.0088751,0.023117,6.1074e-07,0.3,0,0
0.017026,0.0028274,0.024092,-1.4711e-05,0.0024077,5.6368e-05,0,0,0.047705,-0.0053294,0,0.00024802,0,0,0,0.024092,-1.4843e-05,0.0024077,0.13397,0.0088283,0.022992,6.009e-07,0.32,0,0
0.017978,0.0028246,0.024,-1.1933e-05,0.0023988,3.9217e-05,0,0,0.047523,-0.0053037,0,0.00017256,0,0,0,0.024,-1.1997e-05,0.0023988,0.093576,0.0087957,0.022902,5.9398e-07,0.34,0,0
0.018927,0.0028039,0.023954,-8.6399e-06,0.0023945,1.969e-05,0,0,0.04743,-0.0052869,0,8.6634e-05,0,0,0,0.023954,-8.6561e-06,0.0023945,0.04708,0.0087798,0.022856,5.9041e-07,0.36,0,0
0.019875,0.0027664,0.023958,-4.9606e-06,0.0023953,-1.6129e-06,0,0,0.047438,-0.0052805,0,-7.0968e-06,0,0,0,0.023958,-4.9607e-06,0.0023953,-0.0038565,0.0087827,0.022857,5.9059e-07,0.38,0,0
0.020824,0.0027138,0.024016,-1.1192e-06,0.0024015,-2.3593e-05,0,0,0.047553,-0.0052858,0,-0.00010381,0,0,0,0.024016,-1.1424e-06,0.0024015,-0.056282,0.0088056,0.022911,5.9482e-07,0.4,0,0
0.021777,0.0026487,0.02413,2.5682e-06,0.0024132,-4.4633e-05,0,0,0.047776,-0.0053035,0,-0.00019639,0,0,0,0.02413,2.4857e-06,0.0024132,-0.10599,0.0088486,0.023017,6.0317e-07,0.42,0,0
0.022735,0.0025747,0.024293,5.7639e-06,0.0024299,-6.2702e-05,0,0,0.048099,-0.0053331,0,-0.00027589,0,0,0,0.024293,5.602e-06,0.0024299,-0.14792,0.0089096,0.023171,6.154e-07,0.44,0,0
0.023701,0.0024961,0.024496,8.2584e-06,0.0024504,-7.5641e-05,0,0,0.0485,-0.0053727,0,-0.00033282,0,0,0,0.024496,8.0247e-06,0.0024504,-0.17698,0.0089848,0.023363,6.3086e-07,0.46,0,0
0.024675,0.0024182,0.024722,1.0116e-05,0.0024732,-8.168e-05,0,0,0.048947,-0.0054188,0,-0.00035939,0,0,0,0.024722,9.8458e-06,0.0024732,-0.18938,0.0090684,0.023577,6.4843e-07,0.48,0,0
0.025659,0.0023463,0.024952,1.1679e-05,0.0024963,-7.9977e-05,0,0,0.049402,-0.0054662,0,-0.0003519,0,0,0,0.024952,1.1422e-05,0.0024963,-0.18373,0.0091532,0.023796,6.6662e-07,0.5,0,0
0.026652,0.0022861,0.025165,1.3349e-05,0.0025178,-7.0927e-05,0,0,0.049823,-0.0055098,0,-0.00031208,0,0,0,0.025165,1.3149e-05,0.0025178,-0.16157,0.0092319,0.023998,6.8377e-07,0.52,0,0
0.027652,0.0022423,0.025343,1.5268e-05,0.0025358,-5.599e-05,0,0,0.050175,-0.0055452,0,-0.00024636,0,0,0,0.025343,1.5144e-05,0.0025358,-0.12666,0.009298,0.024166,6.9834e-07,0.54,0,0
0.028658,0.0022192,0.025473,1.7137e-05,0.002549,-3.7101e-05,0,0,0.050433,-0.0055702,0,-0.00016324,0,0,0,0.025473,1.7083e-05,0.002549,-0.083505,0.0093465,0.024289,7.091e-07,0.56,0,0
0.029669,0.0022194,0.025547,1.8381e-05,0.0025566,-1.6017e-05,0,0,0.05058,-0.005584,0,-7.0476e-05,0,0,0,0.025547,1.8371e-05,0.0025566,-0.035948,0.0093741,0.024359,7.1525e-07,0.58,0,0
0.030682,0.0022446,0.025561,1.854e-05,0.002558,5.9538e-06,0,0,0.050607,-0.0055867,0,2.6197e-05,0,0,0,0.025561,1.8539e-05,0.002558,0.013355,0.0093792,0.024372,7.164e-07,0.6,0,0
0.031693,0.0022952,0.025514,1.7605e-05,0.0025531,2.774e-05,0,0,0.050513,-0.0055782,0,0.00012205,0,0,0,0.025514,1.7574e-05,0.0025531,0.062337,0.0093615,0.024328,7.1247e-07,0.62,0,0
0.032702,0.00237,0.025408,1.602e-05,0.0025424,4.8037e-05,0,0,0.050304,-0.005558,0,0.00021136,0,0,0,0.025408,1.593e-05,0.0025424,0.10839,0.0093221,0.024228,7.0369e-07,0.64,0,0
0.033706,0.0024667,0.02525,1.436e-05,0.0025264,6.5088e-05,0,0,0.049992,-0.0055265,0,0.00028639,0,0,0,0.02525,1.4192e-05,0.0025264,0.14778,0.0092636,0.024078,6.9072e-07,0.66,0,0
0.034702,0.0025819,0.025052,1.2924e-05,0.0025065,7.6937e-05,0,0,0.0496,-0.0054858,0,0.00033852,0,0,0,0.025052,1.2688e-05,0.0025065,0.17605,0.0091904,0.02389,6.7464e-07,0.68,0,0
0.03569,0.0027111,0.02483,1.1582e-05,0.0024842,8.208e-05,0,0,0.049161,-0.0054397,0,0.00036115,0,0,0,0.02483,1.1311e-05,0.0024842,0.18949,0.0091086,0.023679,6.5692e-07,0.7,0,0
0.036668,0.0028494,0.024603,9.9358e-06,0.0024613,8.0054e-05,0,0,0.048713,-0.0053931,0,0.00035224,0,0,0,0.024604,9.6752e-06,0.0024613,0.1865,0.0090249,0.023464,6.3916e-07,0.72,0,0
0.037638,0.0029915,0.024391,7.6394e-06,0.0024398,7.1627e-05,0,0,0.048292,-0.0053508,0,0.00031516,0,0,0,0.024391,7.429e-06,0.0024398,0.16831,0.0089461,0.023263,6.2279e-07,0.74,0,0
0.0386,0.0031327,0.024207,4.6189e-06,0.0024211,5.8508e-05,0,0,0.047929,-0.0053164,0,0.00025744,0,0,0,0.024207,4.4775e-06,0.0024211,0.13851,0.0088776,0.023089,6.0891e-07,0.76,0,0
0.039555,0.003269,0.024062,1.0691e-06,0.0024063,4.2816e-05,0,0,0.047642,-0.0052915,0,0.00018839,0,0,0,0.024062,9.9293e-07,0.0024063,0.10196,0.008823,0.022953,5.9812e-07,0.78,0,0
0.040506,0.003397,0.023959,-2.6879e-06,0.0023956,2.6583e-05,0,0,0.04744,-0.0052763,0,0.00011697,0,0,0,0.023959,-2.7174e-06,0.0023956,0.063563,0.008784,0.022857,5.9062e-07,0.8,0,0
0.041453,0.0035145,0.023898,-6.3512e-06,0.0023892,1.1467e-05,0,0,0.04732,-0.0052702,0,5.0453e-05,0,0,0,0.023898,-6.3567e-06,0.0023892,0.027484,0.0087604,0.022801,5.8625e-07,0.82,0,0
0.042398,0.0036198,0.023874,-9.7102e-06,0.0023865,-1.3517e-06,0,0,0.047274,-0.0052716,0,-5.9473e-06,0,0,0,0.023874,-9.7103e-06,0.0023865,-0.0032425,0.0087504,0.022781,5.8461e-07,0.84,0,0
0.043344,0.0037121,0.023881,-1.2648e-05,0.0023868,-1.1146e-05,0,0,0.047287,-0.0052788,0,-4.9043e-05,0,0,0,0.023881,-1.2653e-05,0.0023868,-0.026728,0.0087517,0.022789,5.8517e-07,0.86,0,0
0.04429,0.0037911,0.023909,-1.5116e-05,0.0023894,-1.7586e-05,0,0,0.047343,-0.0052899,0,-7.738e-05,0,0,0,0.023909,-1.5129e-05,0.0023894,-0.042118,0.0087611,0.022817,5.8731e-07,0.88,0,0
0.045237,0.0038569,0.02395,-1.7109e-05,0.0023933,-2.0667e-05,0,0,0.047425,-0.0053029,0,-9.0935e-05,0,0,0,0.02395,-1.7126e-05,0.0023933,-0.049406,0.0087755,0.022858,5.9043e-07,0.9,0,0
0.046187,0.0039099,0.023997,-1.865e-05,0.0023978,-2.064e-05,0,0,0.047517,-0.0053162,0,-9.0814e-05,0,0,0,0.023997,-1.8667e-05,0.0023978,-0.049242,0.0087919,0.022903,5.9391e-07,0.92,0,0
0.047138,0.0039503,0.024041,-1.9778e-05,0.0024021,-1.7946e-05,0,0,0.047605,-0.0053281,0,-7.8963e-05,0,0,0,0.024041,-1.9791e-05,0.0024021,-0.042736,0.0088076,0.022946,5.9722e-07,0.94,0,0
0.048091,0.0039789,0.024076,-2.0541e-05,0.0024056,-1.3161e-05,0,0,0.047676,-0.0053375,0,-5.791e-05,0,0,0,0.024077,-2.0548e-05,0.0024056,-0.031294,0.0088205,0.02298,5.9992e-07,0.96,0,0
0.049045,0.0039958,0.0241,-2.0979e-05,0.0024079,-6.944e-06,0,0,0.047722,-0.0053435,0,-3.0554e-05,0,0,0,0.0241,-2.0981e-05,0.0024079,-0.016495,0.0088289,0.023003,6.0168e-07,0.98,0,0
0.05,0.0040014,0.024108,-2.1121e-05,0.0024087,6.3832e-05,0,0,0.047738,-0.0053455,0,0.00028086,0,0,0,0.024108,-2.129e-05,0.0024087,0.15157,0.0088318,0.023011,6.023e-07,1,0,0
0,0,0.030968,0.0034408,0.0034408,0.0037811,0,0,0.060559,0,0,0.016637,0,0,0,0.031477,0.0029309,0.0034408,7.6807,0.012616,0.028295,1.1622e-06,0,0.02,0
0.0012112,0.00033274,0.03082,0.0012951,0.0032115,0.0021505,0,0,0.060739,-0.0042161,0,0.0094622,0,0,0,0.030976,0.0011393,0.0032115,4.1441,0.011776,0.028856,1.2127e-06,0.02,0.02,0
0.0024296,0.0006893,0.030214,0.00060463,0.0030819,0.0015333,0,0,0.059692,-0.00545,0,0.0067467,0,0,0,0.030294,0.00052544,0.0030819,2.9565,0.0113,0.028576,1.1662e-06,0.04,0.02,0
0.0035988,0.00099678,0.029071,0.00030563,0.0029377,0.0010084,0,0,0.057493,-0.0057905,0,0.0044368,0,0,0,0.029106,0.00027032,0.0029377,2.0052,0.010771,0.027599,1.0458e-06,0.06,0.02,0
0.0047293,0.0012668,0.028201,0.00017445,0.0028376,0.00072381,0,0,0.0558,-0.0058589,0,0.0031848,0,0,0,0.02822,0.00015577,0.0028376,1.4784,0.010404,0.026824,9.5795e-07,0.08,0.02,0
0.0058309,0.0015053,0.027549,0.00010753,0.0027656,0.00055057,0,0,0.054523,-0.0058478,0,0.0024225,0,0,0,0.02756,9.6489e-05,0.0027656,1.1489,0.010141,0.026231,8.9465e-07,0.1,0.02,0
0.0069102,0.0017169,0.027039,6.9837e-05,0.0027109,0.00044097,0,0,0.053522,-0.0058103,0,0.0019403,0,0,0,0.027046,6.2628e-05,0.0027109,0.93651,0.0099399,0.025762,8.4691e-07,0.12,0.02,0
0.0079717,0.0019048,0.026624,4.6997e-05,0.0026671,0.00036821,0,0,0.052705,-0.0057642,0,0.0016201,0,0,0,0.026629,4.1897e-05,0.0026671,0.7936,0.0097793,0.025377,8.0911e-07,0.14,0.02,0
0.0090184,0.0020711,0.026273,3.2621e-05,0.0026306,0.00031829,0,0,0.052014,-0.0057155,0,0.0014005,0,0,0,0.026277,2.8761e-05,0.0026306,0.69486,0.0096454,0.025049,7.7793e-07,0.16,0.02,0
0.010052,0.0022175,0.025968,2.3557e-05,0.0025991,0.00028284,0,0,0.05141,-0.0056662,0,0.0012445,0,0,0,0.025971,2.0474e-05,0.0025991,0.62454,0.00953,0.024762,7.5133e-07,0.18,0.02,0
0.011075,0.0023447,0.025695,1.8144e-05,0.0025713,0.00025642,0,0,0.050872,-0.0056169,0,0.0011282,0,0,0,0.025697,1.5584e-05,0.0025713,0.5721,0.0094281,0.024504,7.2804e-07,0.2,0.02,0
0.012087,0.0024533,0.025448,1.5453e-05,0.0025463,0.00023517,0,0,0.050383,-0.0055679,0,0.0010347,0,0,0,0.02545,1.3279e-05,0.0025463,0.52974,0.0093365,0.024269,7.0728e-07,0.22,0.02,0
0.01309,0.0025437,0.025222,1.4924e-05,0.0025237,0.00021618,0,0,0.049936,-0.0055192,0,0.00095117,0,0,0,0.025223,1.307e-05,0.0025237,0.49133,0.0092534,0.024054,6.8858e-07,0.24,0.02,0
0.014085,0.0026158,0.025015,1.6168e-05,0.0025031,0.00019712,0,0,0.049527,-0.0054713,0,0.00086733,0,0,0,0.025017,1.4614e-05,0.0025031,0.45175,0.0091782,0.023856,6.7174e-07,0.26,0.02,0
0.015071,0.0026694,0.024829,1.8847e-05,0.0024848,0.00017613,0,0,0.049157,-0.005425,0,0.00077499,0,0,0,0.02483,1.7597e-05,0.0024848,0.40673,0.0091108,0.023676,6.567e-07,0.28,0.02,0
0.016051,0.0027045,0.024664,2.2595e-05,0.0024687,0.00015177,0,0,0.04883,-0.0053814,0,0.00066781,0,0,0,0.024665,2.166e-05,0.0024687,0.35288,0.0090519,0.023516,6.4357e-07,0.3,0.02,0
0.017024,0.0027208,0.024525,2.6968e-05,0.0024552,0.00012309,0,0,0.048553,-0.005342,0,0.00054161,0,0,0,0.024525,2.635e-05,0.0024552,0.28788,0.0090023,0.023379,6.3251e-07,0.32,0.02,0
0.017993,0.0027185,0.024413,3.1418e-05,0.0024445,8.9706e-05,0,0,0.048332,-0.0053087,0,0.00039471,0,0,0,0.024414,3.1088e-05,0.0024445,0.2108,0.0089631,0.02327,6.2375e-07,0.34,0.02,0
0.018958,0.0026982,0.024334,3.528e-05,0.0024369,5.193e-05,0,0,0.048174,-0.0052836,0,0.00022849,0,0,0,0.024334,3.5169e-05,0.0024369,0.12245,0.0089354,0.023192,6.1754e-07,0.36,0.02,0
0.01992,0.0026607,0.02429,3.7765e-05,0.0024328,1.0886e-05,0,0,0.048085,-0.005269,0,4.79e-05,0,0,0,0.02429,3.776e-05,0.0024328,0.025719,0.0089201,0.023148,6.1407e-07,0.38,0.02,0
0.020881,0.002608,0.024282,3.7974e-05,0.002432,-3.1389e-05,0,0,0.04807,-0.0052668,0,-0.00013811,0,0,0,0.024282,3.7933e-05,0.002432,-0.074182,0.0089173,0.02314,6.1347e-07,0.4,0.02,0
0.021843,0.0025426,0.02431,3.4983e-05,0.0024345,-7.1908e-05,0,0,0.048126,-0.005279,0,-0.0003164,0,0,0,0.02431,3.477e-05,0.0024345,-0.16972,0.0089265,0.023169,6.1573e-07,0.42,0.02,0
0.022806,0.002468,0.024371,2.8128e-05,0.0024399,-0.00010688,0,0,0.048248,-0.0053059,0,-0.00047028,0,0,0,0.024372,2.7658e-05,0.0024399,-0.25156,0.0089464,0.023232,6.2063e-07,0.44,0.02,0
0.023773,0.0023887,0.024458,1.7446e-05,0.0024476,-0.00013226,0,0,0.048424,-0.0053463,0,-0.00058193,0,0,0,0.024459,1.6731e-05,0.0024476,-0.31003,0.0089744,0.023322,6.2771e-07,0.46,0.02,0
0.024743,0.0023098,0.024562,4.0976e-06,0.0024566,-0.00014465,0,0,0.048633,-0.0053956,0,-0.00063646,0,0,0,0.024563,3.2457e-06,0.0024566,-0.33746,0.0090077,0.02343,6.3623e-07,0.48,0.02,0
0.025718,0.002237,0.024672,-9.7204e-06,0.0024662,-0.00014247,0,0,0.048853,-0.0054471,0,-0.00062689,0,0,0,0.024673,-1.0543e-05,0.0024662,-0.33072,0.0090429,0.023543,6.4526e-07,0.5,0.02,0
0.026697,0.0021759,0.024776,-2.155e-05,0.0024754,-0.00012656,0,0,0.049061,-0.0054934,0,-0.00055687,0,0,0,0.024777,-2.2196e-05,0.0024754,-0.29242,0.0090766,0.023649,6.5383e-07,0.52,0.02,0
0.02768,0.0021314,0.024864,-2.9807e-05,0.0024834,-9.985e-05,0,0,0.049237,-0.0055291,0,-0.00043934,0,0,0,0.024864,-3.0207e-05,0.0024834,-0.22981,0.0091058,0.023738,6.6107e-07,0.54,0.02,0
0.028667,0.0021077,0.024929,-3.444e-05,0.0024894,-6.6125e-05,0,0,0.049366,-0.0055525,0,-0.00029095,0,0,0,0.024929,-3.4615e-05,0.0024894,-0.15177,0.0091278,0.023802,6.6638e-07,0.56,0.02,0
0.029655,0.0021077,0.024966,-3.6532e-05,0.0024929,-2.8664e-05,0,0,0.04944,-0.0055648,0,-0.00012612,0,0,0,0.024966,-3.6565e-05,0.0024929,-0.065687,0.0091407,0.023838,6.6941e-07,0.58,0.02,0
0.030644,0.0021329,0.024973,-3.7131e-05,0.0024936,1.0341e-05,0,0,0.049455,-0.0055676,0,4.5498e-05,0,0,0,0.024973,-3.7136e-05,0.0024936,0.023689,0.0091432,0.023846,6.7002e-07,0.6,0.02,0
0.031633,0.0021836,0.02495,-3.6247e-05,0.0024914,4.9226e-05,0,0,0.049409,-0.0055607,0,0.0002166,0,0,0,0.02495,-3.6344e-05,0.0024914,0.11288,0.009135,0.023823,6.6814e-07,0.62,0.02,0
0.032621,0.0022588,0.024897,-3.2837e-05,0.0024864,8.5812e-05,0,0,0.049303,-0.0055424,0,0.00037757,0,0,0,0.024897,-3.3133e-05,0.0024864,0.19722,0.0091169,0.023771,6.6381e-07,0.64,0.02,0
0.033605,0.0023562,0.024817,-2.5798e-05,0.0024792,0.00011682,0,0,0.049144,-0.0055109,0,0.00051402,0,0,0,0.024818,-2.6347e-05,0.0024792,0.26942,0.0090903,0.023691,6.5726e-07,0.66,0.02,0
0.034586,0.0024722,0.024717,-1.5133e-05,0.0024702,0.00013844,0,0,0.048944,-0.0054678,0,0.00060913,0,0,0,0.024718,-1.5908e-05,0.0024702,0.32069,0.0090575,0.023589,6.49e-07,0.68,0.02,0
0.035563,0.0026023,0.024605,-2.3768e-06,0.0024603,0.00014763,0,0,0.048719,-0.0054179,0,0.00064959,0,0,0,0.024606,-3.2625e-06,0.0024603,0.34373,0.009021,0.023475,6.3979e-07,0.7,0.02,0
0.036535,0.0027415,0.024491,1.0045e-05,0.0024501,0.00014345,0,0,0.048491,-0.0053682,0,0.00063117,0,0,0,0.024492,9.2045e-06,0.0024501,0.33571,0.0089838,0.023358,6.3052e-07,0.72,0.02,0
0.037503,0.0028845,0.024386,1.9931e-05,0.0024406,0.00012733,0,0,0.04828,-0.0053254,0,0.00056023,0,0,0,0.024387,1.9265e-05,0.0024406,0.29939,0.0089488,0.023251,6.2207e-07,0.74,0.02,0
0.038466,0.0030264,0.024297,2.6087e-05,0.0024323,0.00010253,0,0,0.048103,-0.0052938,0,0.00045114,0,0,0,0.024298,2.5654e-05,0.0024323,0.24203,0.0089186,0.023163,6.1509e-07,0.76,0.02,0
0.039427,0.0031631,0.024231,2.8414e-05,0.002426,7.3052e-05,0,0,0.047972,-0.0052746,0,0.00032143,0,0,0,0.024232,2.8194e-05,0.002426,0.17294,0.0088952,0.023098,6.0998e-07,0.78,0.02,0
0.040385,0.0032915,0.02419,2.7509e-05,0.0024217,4.2683e-05,0,0,0.04789,-0.0052673,0,0.00018781,0,0,0,0.02419,2.7433e-05,0.0024217,0.10121,0.0088797,0.023059,6.0687e-07,0.8,0.02,0
0.041342,0.0034091,0.024173,2.4216e-05,0.0024197,1.4503e-05,0,0,0.047857,-0.0052701,0,6.3813e-05,0,0,0,0.024173,2.4207e-05,0.0024197,0.03441,0.0088723,0.023044,6.0569e-07,0.82,0.02,0
0.042299,0.0035144,0.024177,1.9364e-05,0.0024197,-9.276e-06,0,0,0.047867,-0.0052807,0,-4.0814e-05,0,0,0,0.024177,1.936e-05,0.0024197,-0.022,0.0088721,0.023052,6.0618e-07,0.84,0.02,0
0.043257,0.0036065,0.024199,1.3676e-05,0.0024213,-2.7275e-05,0,0,0.047911,-0.0052967,0,-0.00012001,0,0,0,0.024199,1.3645e-05,0.0024213,-0.064615,0.008878,0.023076,6.0801e-07,0.86,0.02,0
0.044216,0.0036853,0.024233,7.7565e-06,0.0024241,-3.8848e-05,0,0,0.04798,-0.0053159,0,-0.00017093,0,0,0,0.024233,7.6943e-06,0.0024241,-0.09188,0.0088883,0.023112,6.1077e-07,0.88,0.02,0
0.045176,0.0037509,0.024273,2.0973e-06,0.0024276,-4.3967e-05,0,0,0.048061,-0.005336,0,-0.00019346,0,0,0,0.024274,2.0176e-06,0.0024276,-0.10379,0.0089011,0.023154,6.1402e-07,0.9,0.02,0
0.046138,0.0038035,0.024315,-2.9252e-06,0.0024312,-4.3101e-05,0,0,0.048144,-0.0053551,0,-0.00018965,0,0,0,0.024315,-3.0016e-06,0.0024312,-0.10155,0.0089145,0.023197,6.1735e-07,0.92,0.02,0
0.047102,0.0038438,0.024353,-7.0427e-06,0.0024346,-3.7092e-05,0,0,0.04822,-0.0053716,0,-0.00016321,0,0,0,0.024353,-7.0991e-06,0.0024346,-0.087242,0.0089268,0.023236,6.2038e-07,0.94,0.02,0
0.048067,0.0038721,0.024383,-1.0081e-05,0.0024373,-2.7043e-05,0,0,0.048281,-0.0053842,0,-0.00011899,0,0,0,0.024383,-1.0111e-05,0.0024373,-0.06352,0.0089368,0.023266,6.2278e-07,0.96,0.02,0
0.049033,0.0038889,0.024402,-1.1937e-05,0.002439,-1.4224e-05,0,0,0.048319,-0.0053922,0,-6.2587e-05,0,0,0,0.024402,-1.1945e-05,0.002439,-0.033382,0.0089432,0.023286,6.2432e-07,0.98,0.02,0
0.05,0.0038945,0.024409,-1.2561e-05,0.0024396,6.3364e-05,0,0,0.048333,-0.0053949,0,0.0002788,0,0,0,0.024409,-1.2725e-05,0.0024396,0.14866,0.0089454,0.023293,6.2487e-07,1,0.02,0
0,0,0.029232,0.003248,0.003248,0.0032392,0,0,0.057166,0,0,0.014252,0,0,0,0.02963,0.0028503,0.003248,6.9997,0.011909,0.026583,9.6408e-07,0,0.04,0
0.0011433,0.00028505,0.029217,0.0022911,0.0031509,0.0027847,0,0,0.057346,-0.0018914,0,0.012253,0,0,0,0.029502,0.0020062,0.0031509,5.8431,0.011553,0.026942,9.9831e-07,0.02,0.04,0
0.0022939,0.00059311,0.029146,0.0012261,0.0030372,0.0022628,0,0,0.057439,-0.0039844,0,0.0099563,0,0,0,0.029328,0.0010439,0.0030372,4.6036,0.011136,0.027342,1.031e-06,0.04,0.04,0
0.0034409,0.00088778,0.028808,0.00071134,0.0029519,0.0017399,0,0,0.056883,-0.0049293,0,0.0076556,0,0,0,0.028915,0.000604,0.0029519,3.5301,0.010824,0.027214,1.0091e-06,0.06,0.04,0
0.0045692,0.001153,0.02829,0.00043579,0.0028725,0.0013303,0,0,0.055918,-0.0053609,0,0.0058534,0,0,0,0.028353,0.00037239,0.0028725,2.7282,0.010533,0.026818,9.6164e-07,0.08,0.04,0
0.0056776,0.00139,0.027793,0.00028096,0.0028074,0.0010507,0,0,0.054969,-0.0055582,0,0.0046231,0,0,0,0.027833,0.0002409,0.0028074,2.1839,0.010294,0.026403,9.1527e-07,0.1,0.04,0
0.006768,0.0016014,0.027357,0.00018783,0.0027545,0.00085868,0,0,0.054126,-0.0056466,0,0.0037782,0,0,0,0.027384,0.00016072,0.0027545,1.8084,0.0101,0.026024,8.7492e-07,0.12,0.04,0
0.0078426,0.0017897,0.026979,0.00012912,0.0027108,0.00072517,0,0,0.05339,-0.0056797,0,0.0031908,0,0,0,0.026998,0.00010955,0.0027108,1.546,0.0099396,0.025687,8.4048e-07,0.14,0.04,0
0.0089035,0.0019567,0.026648,9.111e-05,0.0026739,0.00063051,0,0,0.052743,-0.0056822,0,0.0027742,0,0,0,0.026663,7.6149e-05,0.0026739,1.3593,0.0098043,0.025388,8.1083e-07,0.16,0.04,0
0.0099523,0.0021038,0.026354,6.6581e-05,0.0026421,0.00056168,0,0,0.052167,-0.0056661,0,0.0024714,0,0,0,0.026366,5.4586e-05,0.0026421,1.2235,0.0096876,0.025118,7.8487e-07,0.18,0.04,0
0.01099,0.0022318,0.026089,5.1529e-05,0.0026141,0.00050965,0,0,0.051646,-0.0056377,0,0.0022425,0,0,0,0.026099,4.1557e-05,0.0026141,1.1209,0.009585,0.024872,7.6176e-07,0.2,0.04,0
0.012018,0.0023414,0.025848,4.363e-05,0.0025891,0.00046775,0,0,0.051169,-0.0056001,0,0.0020581,0,0,0,0.025856,3.5153e-05,0.0025891,1.0382,0.0094934,0.024643,7.4088e-07,0.22,0.04,0
0.013037,0.0024327,0.025625,4.1438e-05,0.0025666,0.00043081,0,0,0.050728,-0.0055554,0,0.0018956,0,0,0,0.025632,3.4185e-05,0.0025666,0.96446,0.0094109,0.02443,7.2181e-07,0.24,0.04,0
0.014047,0.0025058,0.025419,4.3928e-05,0.0025463,0.00039465,0,0,0.050319,-0.0055051,0,0.0017365,0,0,0,0.025425,3.7791e-05,0.0025463,0.89083,0.0093363,0.02423,7.043e-07,0.26,0.04,0
0.01505,0.0025604,0.025228,5.0199e-05,0.0025279,0.00035591,0,0,0.049941,-0.0054509,0,0.001566,0,0,0,0.025233,4.5169e-05,0.0025279,0.80969,0.0092688,0.024043,6.8825e-07,0.28,0.04,0
0.016045,0.0025964,0.025054,5.9278e-05,0.0025114,0.00031199,0,0,0.049595,-0.0053946,0,0.0013728,0,0,0,0.025058,5.5384e-05,0.0025114,0.71503,0.0092084,0.02387,6.7364e-07,0.3,0.04,0
0.017034,0.0026137,0.024898,6.9996e-05,0.0024968,0.00026117,0,0,0.049282,-0.0053389,0,0.0011492,0,0,0,0.0249,6.7249e-05,0.0024968,0.60262,0.0091548,0.023712,6.6055e-07,0.32,0.04,0
0.018016,0.0026122,0.02476,8.0931e-05,0.002484,0.00020273,0,0,0.049006,-0.0052868,0,0.00089202,0,0,0,0.024761,7.9266e-05,0.002484,0.47064,0.0091082,0.023572,6.4911e-07,0.34,0.04,0
0.018994,0.0025925,0.024642,9.0399e-05,0.0024732,0.00013716,0,0,0.048771,-0.0052422,0,0.00060349,0,0,0,0.024643,8.9633e-05,0.0024732,0.32007,0.0090685,0.023452,6.3947e-07,0.36,0.04,0
0.019967,0.0025556,0.024546,9.6469e-05,0.0024643,6.6259e-05,0,0,0.04858,-0.0052092,0,0.00029154,0,0,0,0.024546,9.629e-05,0.0024643,0.15527,0.0090356,0.023356,6.3177e-07,0.38,0.04,0
0.020937,0.0025031,0.024473,9.698e-05,0.002457,-6.7129e-06,0,0,0.048436,-0.0051921,0,-2.9537e-05,0,0,0,0.024473,9.6978e-05,0.002457,-0.015779,0.0090092,0.023286,6.2612e-07,0.4,0.04,0
0.021905,0.0024375,0.024424,8.9696e-05,0.0024513,-7.6987e-05,0,0,0.048339,-0.0051956,0,-0.00033874,0,0,0,0.024424,8.9453e-05,0.0024513,-0.18127,0.0089882,0.023244,6.2257e-07,0.42,0.04,0
0.02287,0.0023624,0.024396,7.2846e-05,0.0024469,-0.00013842,0,0,0.048288,-0.0052229,0,-0.00060905,0,0,0,0.024397,7.2058e-05,0.0024469,-0.32605,0.0089719,0.023228,6.2107e-07,0.44,0.04,0
0.023836,0.0022823,0.024387,4.6307e-05,0.0024433,-0.00018415,0,0,0.048276,-0.0052735,0,-0.00081027,0,0,0,0.024389,4.4914e-05,0.0024433,-0.43344,0.008959,0.023238,6.2136e-07,0.46,0.04,0
0.024802,0.0022024,0.024393,1.2842e-05,0.0024406,-0.00020828,0,0,0.048295,-0.005341,0,-0.00091643,0,0,0,0.024395,1.1063e-05,0.0024406,-0.48943,0.0089487,0.023264,6.2295e-07,0.48,0.04,0
0.025768,0.0021285,0.024406,-2.1786e-05,0.0024384,-0.00020795,0,0,0.048329,-0.0054125,0,-0.000915,0,0,0,0.024408,-2.3557e-05,0.0024384,-0.48771,0.008941,0.023298,6.2514e-07,0.5,0.04,0
0.026735,0.0020663,0.024422,-5.0909e-05,0.0024371,-0.000185,0,0,0.048366,-0.0054735,0,-0.00081401,0,0,0,0.024423,-5.2308e-05,0.0024371,-0.4331,0.0089359,0.02333,6.2725e-07,0.52,0.04,0
0.027702,0.0020212,0.024434,-7.0312e-05,0.0024364,-0.00014523,0,0,0.048395,-0.0055148,0,-0.00063899,0,0,0,0.024435,-7.1172e-05,0.0024364,-0.33954,0.0089335,0.023354,6.2881e-07,0.54,0.04,0
0.028671,0.0019971,0.024443,-8.027e-05,0.0024363,-9.578e-05,0,0,0.048414,-0.0055364,0,-0.00042143,0,0,0,0.024443,-8.0644e-05,0.0024363,-0.22378,0.008933,0.023367,6.2975e-07,0.56,0.04,0
0.029639,0.0019968,0.024448,-8.4391e-05,0.0024363,-4.2009e-05,0,0,0.048425,-0.0055456,0,-0.00018484,0,0,0,0.024448,-8.4463e-05,0.0024363,-0.098114,0.0089333,0.023374,6.3024e-07,0.58,0.04,0
0.030608,0.0020219,0.02445,-8.6011e-05,0.0024364,1.362e-05,0,0,0.04843,-0.0055493,0,5.9928e-05,0,0,0,0.02445,-8.6018e-05,0.0024364,0.031805,0.0089335,0.023377,6.3047e-07,0.6,0.04,0
0.031576,0.0020727,0.024449,-8.5161e-05,0.0024364,7.0071e-05,0,0,0.048428,-0.0055474,0,0.00030831,0,0,0,0.024449,-8.5361e-05,0.0024364,0.16364,0.0089335,0.023376,6.3038e-07,0.62,0.04,0
0.032545,0.0021483,0.024443,-7.853e-05,0.0024364,0.00012491,0,0,0.048414,-0.0055329,0,0.00054962,0,0,0,0.024443,-7.9167e-05,0.0024364,0.29186,0.0089336,0.023366,6.2971e-07,0.64,0.04,0
0.033513,0.0022463,0.024429,-6.2456e-05,0.0024367,0.00017283,0,0,0.048384,-0.0054981,0,0.00076046,0,0,0,0.024431,-6.3675e-05,0.0024367,0.40429,0.0089345,0.023345,6.2821e-07,0.66,0.04,0
0.03448,0.0023632,0.024409,-3.653e-05,0.0024373,0.00020662,0,0,0.048338,-0.0054424,0,0.00090914,0,0,0,0.024411,-3.8277e-05,0.0024373,0.48424,0.0089366,0.02331,6.2585e-07,0.68,0.04,0
0.035446,0.0024944,0.024385,-4.8303e-06,0.0024381,0.00022033,0,0,0.048284,-0.0053744,0,0.00096947,0,0,0,0.024387,-6.8206e-06,0.0024381,0.51754,0.0089395,0.023268,6.23e-07,0.7,0.04,0
0.036411,0.0026346,0.024363,2.6057e-05,0.0024389,0.00021191,0,0,0.048233,-0.0053083,0,0.00093242,0,0,0,0.024365,2.4212e-05,0.0024389,0.49885,0.0089427,0.023228,6.2025e-07,0.72,0.04,0
0.037376,0.0027785,0.024348,5.0355e-05,0.0024398,0.00018395,0,0,0.048197,-0.0052568,0,0.00080936,0,0,0,0.024349,4.8963e-05,0.0024398,0.43373,0.0089459,0.023197,6.182e-07,0.74,0.04,0
0.038339,0.002921,0.024343,6.5201e-05,0.0024408,0.00014213,0,0,0.048184,-0.0052263,0,0.00062539,0,0,0,0.024344,6.4369e-05,0.0024408,0.33543,0.0089496,0.023182,6.1727e-07,0.76,0.04,0
0.039303,0.003058,0.02435,7.056e-05,0.0024421,9.3236e-05,0,0,0.048198,-0.0052173,0,0.00041024,0,0,0,0.024351,7.0202e-05,0.0024421,0.22002,0.0089543,0.023186,6.1761e-07,0.78,0.04,0
0.040267,0.0031863,0.02437,6.8012e-05,0.0024438,4.3429e-05,0,0,0.048238,-0.0052268,0,0.00019109,0,0,0,0.02437,6.7935e-05,0.0024438,0.10239,0.0089608,0.023206,6.1921e-07,0.8,0.04,0
0.041232,0.0033037,0.024402,5.9593e-05,0.0024462,-2.3264e-06,0,0,0.048303,-0.0052505,0,-1.0236e-05,0,0,0,0.024402,5.9593e-05,0.0024462,-0.0054757,0.0089693,0.023241,6.2191e-07,0.82,0.04,0
0.042199,0.0034086,0.024443,4.7269e-05,0.002449,-4.043e-05,0,0,0.048387,-0.0052839,0,-0.00017789,0,0,0,0.024443,4.7202e-05,0.002449,-0.094952,0.0089799,0.023288,6.2548e-07,0.84,0.04,0
0.043168,0.0035002,0.024491,3.2789e-05,0.0024524,-6.8568e-05,0,0,0.048485,-0.0053231,0,-0.0003017,0,0,0,0.024491,3.2596e-05,0.0024524,-0.16062,0.008992,0.023343,6.2965e-07,0.86,0.04,0
0.044139,0.0035785,0.024542,1.7673e-05,0.002456,-8.5612e-05,0,0,0.048589,-0.0053642,0,-0.00037669,0,0,0,0.024542,1.7374e-05,0.002456,-0.20001,0.0090051,0.023401,6.3411e-07,0.88,0.04,0
0.045112,0.0036435,0.024592,3.1832e-06,0.0024596,-9.1484e-05,0,0,0.048692,-0.005404,0,-0.00040253,0,0,0,0.024593,2.8428e-06,0.0024596,-0.21316,0.0090184,0.023458,6.3854e-07,0.9,0.04,0
0.046086,0.0036956,0.024639,-9.6996e-06,0.002463,-8.6969e-05,0,0,0.048788,-0.0054398,0,-0.00038267,0,0,0,0.02464,-1.0006e-05,0.002463,-0.20216,0.0090308,0.023511,6.4262e-07,0.92,0.04,0
0.047063,0.0037355,0.024679,-2.0274e-05,0.0024659,-7.3518e-05,0,0,0.048869,-0.0054696,0,-0.00032348,0,0,0,0.024679,-2.0493e-05,0.0024659,-0.17054,0.0090416,0.023555,6.461e-07,0.94,0.04,0
0.048041,0.0037635,0.02471,-2.8083e-05,0.0024682,-5.3041e-05,0,0,0.048931,-0.0054917,0,-0.00023338,0,0,0,0.02471,-2.8197e-05,0.0024682,-0.12285,0.0090499,0.023589,6.4875e-07,0.96,0.04,0
0.04902,0.0037801,0.024729,-3.2857e-05,0.0024696,-2.7743e-05,0,0,0.04897,-0.0055054,0,-0.00012207,0,0,0,0.024729,-3.2888e-05,0.0024696,-0.064196,0.0090551,0.02361,6.5041e-07,0.98,0.04,0
0.05,0.0037856,0.024735,-3.4462e-05,0.0024701,6.2606e-05,0,0,0.048983,-0.00551,0,0.00027547,0,0,0,0.024735,-3.462e-05,0.0024701,0.14482,0.0090569,0.023617,6.5099e-07,1,0.04,0
0,0,0.028334,0.0031482,0.0031482,0.0029214,0,0,0.055408,-2.7105e-19,0,0.012854,0,0,0,0.028668,0.0028138,0.0031482,6.5305,0.011543,0.025689,8.7019e-07,0,0.06,0
0.0011082,0.00025708,0.028377,0.0025434,0.003092,0.0027014,0,0,0.055627,-0.0012069,0,0.011886,0,0,0,0.028657,0.002264,0.003092,5.9062,0.011338,0.025988,8.984e-07,0.02,0.06,0
0.0022251,0.00052992,0.028443,0.0017779,0.0030221,0.0024674,0,0,0.055926,-0.0027373,0,0.010856,0,0,0,0.02867,0.0015515,0.0030221,5.2424,0.011081,0.026413,9.3657e-07,0.04,0.06,0
0.0033452,0.00079961,0.028363,0.001159,0.0029522,0.0021,0,0,0.055904,-0.0039449,0,0.00924,0,0,0,0.028524,0.00099789,0.0029522,4.3883,0.010825,0.026603,9.4939e-07,0.06,0.06,0
0.0044612,0.0010524,0.028142,0.00076823,0.002891,0.0017376,0,0,0.055552,-0.0046701,0,0.0076456,0,0,0,0.028252,0.00065837,0.002891,3.6177,0.0106,0.026548,9.3806e-07,0.08,0.06,0
0.0055673,0.0012829,0.027841,0.00052024,0.0028361,0.0014392,0,0,0.05501,-0.0050948,0,0.0063326,0,0,0,0.027916,0.00044463,0.0028361,3.0072,0.010399,0.026357,9.1437e-07,0.1,0.06,0
0.0066616,0.001491,0.027525,0.00035987,0.0027885,0.0012123,0,0,0.05442,-0.0053429,0,0.0053342,0,0,0,0.027579,0.00030587,0.0027885,2.5503,0.010224,0.02612,8.8745e-07,0.12,0.06,0
0.0077441,0.0016776,0.027221,0.0002536,0.0027475,0.0010433,0,0,0.053842,-0.0054865,0,0.0045907,0,0,0,0.027262,0.00021329,0.0027475,2.2123,0.010074,0.025874,8.6096e-07,0.14,0.06,0
0.0088153,0.0018439,0.026938,0.00018234,0.0027121,0.00091787,0,0,0.053298,-0.0055654,0,0.0040386,0,0,0,0.02697,0.00015089,0.0027121,1.9625,0.0099442,0.025634,8.361e-07,0.16,0.06,0
0.009876,0.0019908,0.026676,0.00013501,0.0026811,0.00082368,0,0,0.05279,-0.0056015,0,0.0036242,0,0,0,0.026702,0.00010948,0.0026811,1.7758,0.0098308,0.025404,8.1305e-07,0.18,0.06,0
0.010927,0.0021192,0.026433,0.00010509,0.0026538,0.00075112,0,0,0.052314,-0.0056072,0,0.0033049,0,0,0,0.026454,8.3675e-05,0.0026538,1.6328,0.0097307,0.025184,7.9164e-07,0.2,0.06,0
0.011969,0.0022293,0.026206,8.857e-05,0.0026294,0.00069243,0,0,0.051867,-0.0055899,0,0.0030467,0,0,0,0.026224,7.0224e-05,0.0026294,1.5176,0.0096412,0.024973,7.7161e-07,0.22,0.06,0
0.013002,0.0023215,0.025991,8.2891e-05,0.0026074,0.0006413,0,0,0.051444,-0.0055539,0,0.0028217,0,0,0,0.026007,6.7026e-05,0.0026074,1.4171,0.0095604,0.024768,7.5272e-07,0.24,0.06,0
0.014026,0.0023956,0.025788,8.6163e-05,0.0025874,0.00059245,0,0,0.051041,-0.0055027,0,0.0026068,0,0,0,0.025801,7.2513e-05,0.0025874,1.3198,0.009487,0.024568,7.3477e-07,0.26,0.06,0
0.015043,0.0024514,0.025594,9.6694e-05,0.002569,0.00054153,0,0,0.050654,-0.0054392,0,0.0023828,0,0,0,0.025605,8.5198e-05,0.002569,1.2162,0.0094198,0.024373,7.1766e-07,0.28,0.06,0
0.016053,0.0024887,0.025409,0.00011264,0.0025521,0.00048514,0,0,0.050285,-0.0053669,0,0.0021346,0,0,0,0.025418,0.00010334,0.0025521,1.0983,0.0093579,0.024184,7.0136e-07,0.3,0.06,0
0.017055,0.0025072,0.025233,0.00013176,0.0025364,0.00042094,0,0,0.049932,-0.0052903,0,0.0018521,0,0,0,0.02524,0.0001247,0.0025364,0.96048,0.0093003,0.024,6.859e-07,0.32,0.06,0
0.01805,0.002507,0.025066,0.00015135,0.0025217,0.00034792,0,0,0.049597,-0.0052148,0,0.0015309,0,0,0,0.025071,0.0001465,0.0025217,0.7999,0.0092463,0.023825,6.714e-07,0.34,0.06,0
0.019038,0.0024885,0.024909,0.0001683,0.0025077,0.00026657,0,0,0.049282,-0.0051467,0,0.0011729,0,0,0,0.024911,0.00016543,0.0025077,0.61726,0.0091949,0.023662,6.5799e-07,0.36,0.06,0
0.020021,0.0024524,0.024762,0.00017918,0.0024941,0.00017894,0,0,0.048988,-0.0050928,0,0.00078733,0,0,0,0.024763,0.00017787,0.0024941,0.41703,0.009145,0.023513,6.4582e-07,0.38,0.06,0
0.020998,0.0024003,0.024626,0.00018035,0.0024806,8.8602e-05,0,0,0.048719,-0.0050605,0,0.00038985,0,0,0,0.024626,0.00018003,0.0024806,0.20766,0.0090955,0.023381,6.3505e-07,0.4,0.06,0
0.02197,0.0023348,0.024501,0.00016795,0.0024669,6.5137e-07,0,0,0.048476,-0.0050578,0,2.866e-06,0,0,0,0.024501,0.00016795,0.0024669,0.0015337,0.0090454,0.023269,6.2586e-07,0.42,0.06,0
0.022937,0.0022591,0.02439,0.00013854,0.0024529,-7.8037e-05,0,0,0.048263,-0.0050916,0,-0.00034336,0,0,0,0.024391,0.00013829,0.0024529,-0.18436,0.008994,0.023182,6.1838e-07,0.44,0.06,0
0.0239,0.0021777,0.024293,9.0913e-05,0.0024384,-0.00013921,0,0,0.04808,-0.0051645,0,-0.00061253,0,0,0,0.024294,9.0112e-05,0.0024384,-0.32955,0.0089408,0.023119,6.1264e-07,0.46,0.06,0
0.02486,0.0020962,0.024208,2.9533e-05,0.0024238,-0.00017469,0,0,0.047926,-0.0052674,0,-0.00076863,0,0,0,0.02421,2.8271e-05,0.0024238,-0.41392,0.0088872,0.023077,6.0832e-07,0.48,0.06,0
0.025817,0.0020205,0.024133,-3.426e-05,0.0024099,-0.00018045,0,0,0.047792,-0.0053772,0,-0.000794,0,0,0,0.024135,-3.5608e-05,0.0024099,-0.42778,0.0088364,0.023045,6.0479e-07,0.5,0.06,0
0.026772,0.0019569,0.024066,-8.6185e-05,0.002398,-0.00015951,0,0,0.047669,-0.0054651,0,-0.00070184,0,0,0,0.024067,-8.7239e-05,0.002398,-0.37838,0.0087925,0.023012,6.0136e-07,0.52,0.06,0
0.027724,0.0019108,0.024006,-0.00011734,0.0023889,-0.00012184,0,0,0.047557,-0.0055136,0,-0.0005361,0,0,0,0.024006,-0.00011795,0.0023889,-0.28938,0.0087591,0.022974,5.9783e-07,0.54,0.06,0
0.028674,0.0018863,0.023959,-0.00012972,0.0023829,-7.8533e-05,0,0,0.047466,-0.0055277,0,-0.00034555,0,0,0,0.023959,-0.00012998,0.0023829,-0.18679,0.0087372,0.022936,5.9467e-07,0.56,0.06,0
0.029623,0.0018859,0.023931,-0.00013315,0.0023798,-3.5979e-05,0,0,0.047413,-0.0055285,0,-0.00015831,0,0,0,0.023931,-0.0001332,0.0023798,-0.085663,0.008726,0.022912,5.9274e-07,0.58,0.06,0
0.030571,0.0019109,0.02393,-0.00013634,0.0023793,6.5356e-06,0,0,0.047411,-0.0055345,0,2.8757e-05,0,0,0,0.02393,-0.00013635,0.0023793,0.01556,0.0087242,0.022912,5.9272e-07,0.6,0.06,0
0.031519,0.0019617,0.023953,-0.0001394,0.0023814,5.2791e-05,0,0,0.047458,-0.0055457,0,0.00023228,0,0,0,0.023953,-0.00013951,0.0023814,0.12554,0.0087317,0.022936,5.9457e-07,0.62,0.06,0
0.032469,0.0020375,0.023995,-0.00013366,0.0023862,0.0001036,0,0,0.04754,-0.0055436,0,0.00045585,0,0,0,0.023996,-0.00013411,0.0023862,0.246,0.0087493,0.022974,5.9756e-07,0.64,0.06,0
0.033421,0.0021363,0.024048,-0.00010922,0.0023939,0.00015268,0,0,0.047639,-0.0055068,0,0.0006718,0,0,0,0.024049,-0.00011018,0.0023939,0.36211,0.0087775,0.023009,6.0075e-07,0.66,0.06,0
0.034375,0.0022545,0.024105,-6.3771e-05,0.0024041,0.00018893,0,0,0.047741,-0.0054293,0,0.00083132,0,0,0,0.024106,-6.5248e-05,0.0024041,0.44787,0.0088149,0.023036,6.0358e-07,0.68,0.06,0
0.035331,0.0023874,0.024164,-5.9259e-06,0.0024158,0.00020218,0,0,0.047845,-0.0053277,0,0.00088958,0,0,0,0.024165,-7.617e-06,0.0024158,0.47923,0.0088578,0.023057,6.0616e-07,0.7,0.06,0
0.036288,0.0025292,0.024227,5.0197e-05,0.0024277,0.00018907,0,0,0.047958,-0.0052305,0,0.00083193,0,0,0,0.024228,4.8719e-05,0.0024277,0.44805,0.0089015,0.023082,6.0904e-07,0.72,0.06,0
0.037249,0.0026742,0.024296,9.3211e-05,0.0024389,0.00015328,0,0,0.048085,-0.0051605,0,0.00067445,0,0,0,0.024297,9.2241e-05,0.0024389,0.36286,0.0089426,0.023121,6.1278e-07,0.74,0.06,0
0.038212,0.0028173,0.024371,0.00011845,0.0024489,0.00010271,0,0,0.048228,-0.005127,0,0.00045195,0,0,0,0.024371,0.00011801,0.0024489,0.24266,0.0089794,0.023176,6.1758e-07,0.76,0.06,0
0.039178,0.0029545,0.024451,0.00012678,0.0024577,4.5505e-05,0,0,0.048384,-0.0051281,0,0.00020022,0,0,0,0.024451,0.0001267,0.0024577,0.10719,0.0090116,0.023246,6.2335e-07,0.78,0.06,0
0.040147,0.0030824,0.024533,0.0001213,0.0024654,-1.1393e-05,0,0,0.048548,-0.005157,0,-5.0128e-05,0,0,0,0.024533,0.00012129,0.0024654,-0.02674,0.0090398,0.023328,6.2986e-07,0.8,0.06,0
0.04112,0.0031991,0.024616,0.00010546,0.0024721,-6.2597e-05,0,0,0.048716,-0.0052067,0,-0.00027543,0,0,0,0.024616,0.0001053,0.0024721,-0.14633,0.0090644,0.023417,6.3685e-07,0.82,0.06,0
0.042096,0.003303,0.024698,8.2509e-05,0.002478,-0.00010401,0,0,0.048883,-0.0052701,0,-0.00045764,0,0,0,0.024698,8.2069e-05,0.002478,-0.24209,0.0090861,0.02351,6.4406e-07,0.84,0.06,0
0.043075,0.0033936,0.024777,5.551e-05,0.0024832,-0.00013285,0,0,0.049045,-0.0053409,0,-0.00058453,0,0,0,0.024777,5.4797e-05,0.0024832,-0.30789,0.0091051,0.023602,6.5123e-07,0.86,0.06,0
0.044058,0.0034708,0.024851,2.7259e-05,0.0024878,-0.0001477,0,0,0.049198,-0.0054132,0,-0.00064988,0,0,0,0.024851,2.638e-05,0.0024878,-0.3409,0.0091219,0.02369,6.5809e-07,0.88,0.06,0
0.045043,0.0035347,0.024917,1.3719e-07,0.0024918,-0.00014845,0,0,0.049336,-0.0054816,0,-0.00065318,0,0,0,0.024918,-7.4721e-07,0.0024918,-0.34134,0.0091365,0.023771,6.6437e-07,0.9,0.06,0
0.046031,0.0035859,0.024975,-2.3991e-05,0.0024951,-0.0001361,0,0,0.049456,-0.005542,0,-0.00059884,0,0,0,0.024976,-2.4731e-05,0.0024951,-0.31191,0.0091488,0.023841,6.6982e-07,0.92,0.06,0
0.047021,0.003625,0.025022,-4.3797e-05,0.0024978,-0.00011249,0,0,0.049553,-0.0055916,0,-0.00049496,0,0,0,0.025023,-4.4302e-05,0.0024978,-0.25712,0.0091587,0.023897,6.7426e-07,0.94,0.06,0
0.048013,0.0036524,0.025057,-5.8421e-05,0.0024998,-8.0049e-05,0,0,0.049625,-0.0056281,0,-0.00035222,0,0,0,0.025057,-5.8676e-05,0.0024998,-0.18262,0.009166,0.023939,6.7754e-07,0.96,0.06,0
0.049006,0.0036687,0.025078,-6.7361e-05,0.002501,-4.1558e-05,0,0,0.049669,-0.0056505,0,-0.00018286,0,0,0,0.025078,-6.743e-05,0.002501,-0.094695,0.0091705,0.023964,6.7954e-07,0.98,0.06,0
0.05,0.0036741,0.025085,-7.0366e-05,0.0025015,6.1271e-05,0,0,0.049683,-0.005658,0,0.00026959,0,0,0,0.025085,-7.0515e-05,0.0025015,0.13956,0.009172,0.023973,6.8024e-07,1,0.06,0
0,0,0.027839,0.0030933,0.0030933,0.0026906,0,0,0.054442,-5.421e-20,0,0.011839,0,0,0,0.028129,0.0028041,0.0030933,6.1341,0.011342,0.025181,8.1971e-07,0,0.08,0
0.0010888,0.00023677,0.027889,0.002634,0.0030522,0.0025741,0,0,0.05464,-0.00092016,0,0.011326,0,0,0,0.028148,0.0023743,0.0030522,5.7611,0.011192,0.025442,8.4376e-07,0.02,0.08,0
0.0021856,0.00048362,0.027996,0.0020583,0.0030054,0.002447,0,0,0.05498,-0.0020836,0,0.010767,0,0,0,0.028225,0.0018295,0.0030054,5.3425,0.01102,0.025828,8.7868e-07,0.04,0.08,0
0.003288,0.00072999,0.028023,0.0015107,0.0029533,0.0022216,0,0,0.055153,-0.0031738,0,0.0097749,0,0,0,0.028208,0.0013258,0.0029533,4.7569,0.010829,0.026106,9.0182e-07,0.06,0.08,0
0.0043917,0.00096615,0.027951,0.0010798,0.0029031,0.0019518,0,0,0.055106,-0.0040112,0,0.0085881,0,0,0,0.028092,0.00093879,0.0029031,4.1329,0.010645,0.026227,9.09e-07,0.08,0.08,0
0.0054922,0.0011862,0.0278,0.00077113,0.0028571,0.0016945,0,0,0.054874,-0.0045891,0,0.007456,0,0,0,0.027906,0.0006653,0.0028571,3.5735,0.010476,0.026213,9.0332e-07,0.1,0.08,0
0.0065867,0.0013877,0.027601,0.0005538,0.0028155,0.0014757,0,0,0.054528,-0.0049757,0,0.006493,0,0,0,0.027681,0.00047353,0.0028155,3.1137,0.010323,0.026116,8.9004e-07,0.12,0.08,0
0.0076734,0.0015702,0.027383,0.00040123,0.0027784,0.0012999,0,0,0.05413,-0.0052299,0,0.0057197,0,0,0,0.027446,0.00033875,0.0027784,2.7519,0.010188,0.025973,8.7318e-07,0.14,0.08,0
0.0087519,0.0017341,0.027162,0.00029448,0.0027456,0.0011623,0,0,0.053715,-0.0053925,0,0.0051141,0,0,0,0.027212,0.00024429,0.0027456,2.4725,0.010067,0.025808,8.5495e-07,0.16,0.08,0
0.009822,0.0018797,0.026944,0.00022114,0.0027165,0.0010552,0,0,0.053301,-0.0054898,0,0.004643,0,0,0,0.026986,0.00017953,0.0027165,2.2578,0.0099606,0.025632,8.364e-07,0.18,0.08,0
0.010884,0.0020075,0.026733,0.00017318,0.0026906,0.00097099,0,0,0.052893,-0.0055383,0,0.0042723,0,0,0,0.026768,0.00013773,0.0026906,2.0909,0.0098655,0.02545,8.1797e-07,0.2,0.08,0
0.011938,0.0021178,0.026527,0.00014542,0.0026673,0.00090251,0,0,0.052492,-0.0055481,0,0.0039711,0,0,0,0.026558,0.00011458,0.0026673,1.957,0.00978,0.025264,7.9977e-07,0.22,0.08,0
0.012984,0.0022106,0.026327,0.00013431,0.0026462,0.0008435,0,0,0.052098,-0.0055261,0,0.0037114,0,0,0,0.026354,0.00010718,0.0026462,1.8426,0.0097026,0.025074,7.8175e-07,0.24,0.08,0
0.014022,0.0022857,0.026131,0.00013718,0.0026268,0.00078837,0,0,0.051709,-0.0054772,0,0.0034688,0,0,0,0.026155,0.00011329,0.0026268,1.7356,0.0096316,0.02488,7.6384e-07,0.26,0.08,0
0.015052,0.0023429,0.025936,0.00015151,0.0026088,0.00073231,0,0,0.05132,-0.005406,0,0.0032222,0,0,0,0.025957,0.00013073,0.0026088,1.6255,0.0095655,0.024681,7.4596e-07,0.28,0.08,0
0.016074,0.0023818,0.025743,0.00017449,0.0025917,0.00067138,0,0,0.050932,-0.0053179,0,0.0029541,0,0,0,0.02576,0.00015688,0.0025917,1.5031,0.009503,0.024477,7.2811e-07,0.3,0.08,0
0.017089,0.0024021,0.025549,0.00020264,0.0025752,0.00060282,0,0,0.050543,-0.0052196,0,0.0026524,0,0,0,0.025564,0.00018831,0.0025752,1.3616,0.0094424,0.02427,7.1034e-07,0.32,0.08,0
0.018096,0.0024036,0.025355,0.00023168,0.0025587,0.00052533,0,0,0.050153,-0.0051195,0,0.0023114,0,0,0,0.025366,0.0002207,0.0025587,1.1973,0.0093819,0.024062,6.9279e-07,0.34,0.08,0
0.019095,0.0023867,0.025161,0.00025673,0.0025418,0.00043936,0,0,0.049762,-0.0050271,0,0.0019332,0,0,0,0.025168,0.00024898,0.0025418,1.0104,0.0093198,0.023856,6.7562e-07,0.36,0.08,0
0.020087,0.0023519,0.024965,0.00027274,0.0025238,0.00034711,0,0,0.049371,-0.0049523,0,0.0015273,0,0,0,0.02497,0.00026786,0.0025238,0.80522,0.0092539,0.023655,6.5901e-07,0.38,0.08,0
0.02107,0.0023007,0.024768,0.00027479,0.0025043,0.00025204,0,0,0.04898,-0.0049049,0,0.001109,0,0,0,0.024771,0.0002722,0.0025043,0.58949,0.0091823,0.023462,6.4312e-07,0.4,0.08,0
0.022046,0.0022352,0.02457,0.00025828,0.0024829,0.00015856,0,0,0.048592,-0.0048941,0,0.00069768,0,0,0,0.024571,0.00025725,0.0024829,0.37366,0.0091038,0.023281,6.2817e-07,0.42,0.08,0
0.023014,0.0021588,0.024375,0.00021764,0.0024592,7.1938e-05,0,0,0.048214,-0.0049315,0,0.00031653,0,0,0,0.024375,0.00021743,0.0024592,0.17062,0.0090172,0.023118,6.1451e-07,0.44,0.08,0
0.023974,0.0020757,0.024186,0.00014903,0.0024335,6.2344e-07,0,0,0.047855,-0.0050258,0,2.7432e-06,0,0,0,0.024186,0.00014903,0.0024335,0.0014861,0.0089228,0.02298,6.0254e-07,0.46,0.08,0
0.024928,0.0019917,0.024007,5.5975e-05,0.0024063,-4.5789e-05,0,0,0.047521,-0.0051706,0,-0.00020147,0,0,0,0.024007,5.5888e-05,0.0024063,-0.10954,0.0088229,0.022866,5.9225e-07,0.48,0.08,0
0.025875,0.0019134,0.023838,-4.2418e-05,0.0023795,-5.9814e-05,0,0,0.047207,-0.0053282,0,-0.00026318,0,0,0,0.023838,-4.2567e-05,0.0023795,-0.14351,0.0087248,0.022766,5.8295e-07,0.5,0.08,0
0.026816,0.0018477,0.023679,-0.00011804,0.0023561,-4.72e-05,0,0,0.04691,-0.005443,0,-0.00020768,0,0,0,0.023679,-0.00011813,0.0023561,-0.11364,0.0086389,0.022661,5.7374e-07,0.52,0.08,0
0.027752,0.0018006,0.023536,-0.00015349,0.0023382,-2.4137e-05,0,0,0.046634,-0.0054817,0,-0.00010621,0,0,0,0.023536,-0.00015351,0.0023382,-0.05838,0.0085734,0.022547,5.6451e-07,0.54,0.08,0
0.028682,0.0017759,0.023422,-0.0001558,0.0023267,-9.5278e-06,0,0,0.046411,-0.0054614,0,-4.1922e-05,0,0,0,0.023422,-0.0001558,0.0023267,-0.023153,0.0085311,0.02244,5.5649e-07,0.56,0.08,0
0.029608,0.0017756,0.023357,-0.0001496,0.0023207,-9.1369e-06,0,0,0.04628,-0.0054348,0,-4.0202e-05,0,0,0,0.023357,-0.0001496,0.0023207,-0.02227,0.0085094,0.022374,5.5167e-07,0.58,0.08,0
0.030533,0.0018005,0.023353,-0.00015478,0.0023198,-1.4458e-05,0,0,0.046272,-0.005444,0,-6.3613e-05,0,0,0,0.023353,-0.00015479,0.0023198,-0.035238,0.0085058,0.022373,5.5151e-07,0.6,0.08,0
0.031459,0.0018509,0.023408,-0.00017156,0.0023237,-9.6241e-06,0,0,0.046386,-0.0054896,0,-4.2346e-05,0,0,0,0.023408,-0.00017157,0.0023237,-0.023385,0.0085202,0.022437,5.5598e-07,0.62,0.08,0
0.032388,0.0019265,0.023511,-0.00018029,0.0023331,1.4113e-05,0,0,0.046592,-0.0055294,0,6.2098e-05,0,0,0,0.023511,-0.0001803,0.0023331,0.034132,0.0085547,0.02254,5.6358e-07,0.64,0.08,0
0.033323,0.002026,0.023642,-0.00015612,0.0023486,5.1281e-05,0,0,0.046845,-0.0055104,0,0.00022564,0,0,0,0.023642,-0.00015624,0.0023486,0.12346,0.0086115,0.02265,5.7226e-07,0.66,0.08,0
0.034262,0.002146,0.023786,-9.1476e-05,0.0023694,8.3065e-05,0,0,0.047115,-0.0054139,0,0.00036548,0,0,0,0.023786,-9.1765e-05,0.0023694,0.19932,0.0086878,0.022747,5.8071e-07,0.68,0.08,0
0.035207,0.0022813,0.023935,-3.1343e-06,0.0023932,9.3019e-05,0,0,0.047392,-0.005272,0,0.00040928,0,0,0,0.023936,-3.4957e-06,0.0023932,0.22263,0.0087751,0.022835,5.8891e-07,0.7,0.08,0
0.036158,0.0024254,0.02409,8.1058e-05,0.0024171,7.4914e-05,0,0,0.04768,-0.0051393,0,0.00032962,0,0,0,0.02409,8.0825e-05,0.0024171,0.17877,0.0088627,0.022931,5.9764e-07,0.72,0.08,0
0.037114,0.002572,0.024248,0.00014187,0.002439,3.5741e-05,0,0,0.047981,-0.0050538,0,0.00015726,0,0,0,0.024248,0.00014181,0.002439,0.084947,0.0089431,0.023044,6.0748e-07,0.74,0.08,0
0.038077,0.0027159,0.024407,0.00017536,0.0024582,-1.5242e-05,0,0,0.048287,-0.0050222,0,-6.7064e-05,0,0,0,0.024407,0.00017536,0.0024582,-0.03604,0.0090134,0.023174,6.1835e-07,0.76,0.08,0
0.039046,0.0028529,0.02456,0.00018486,0.0024745,-6.969e-05,0,0,0.048588,-0.0050371,0,-0.00030664,0,0,0,0.02456,0.00018466,0.0024745,-0.16381,0.009073,0.023315,6.2979e-07,0.78,0.08,0
0.040021,0.0029801,0.024704,0.00017534,0.002488,-0.00012224,0,0,0.048876,-0.0050878,0,-0.00053786,0,0,0,0.024705,0.00017473,0.002488,-0.28553,0.0091225,0.023459,6.4139e-07,0.8,0.08,0
0.041001,0.0030954,0.024838,0.00015074,0.0024989,-0.00016809,0,0,0.049147,-0.005166,0,-0.00073957,0,0,0,0.02484,0.00014959,0.0024989,-0.39007,0.0091627,0.023603,6.5285e-07,0.82,0.08,0
0.041987,0.0031978,0.024962,0.00011534,0.0025077,-0.00020309,0,0,0.049399,-0.0052632,0,-0.0008936,0,0,0,0.024963,0.00011368,0.0025077,-0.46829,0.0091949,0.023743,6.6395e-07,0.84,0.08,0
0.042977,0.0032866,0.025073,7.3593e-05,0.0025147,-0.00022413,0,0,0.049629,-0.0053704,0,-0.00098615,0,0,0,0.025075,7.1584e-05,0.0025147,-0.51361,0.0092205,0.023876,6.7444e-07,0.86,0.08,0
0.043972,0.003362,0.025172,2.9835e-05,0.0025202,-0.00022955,0,0,0.049835,-0.0054789,0,-0.00101,0,0,0,0.025174,2.774e-05,0.0025202,-0.52304,0.0092408,0.023998,6.8405e-07,0.88,0.08,0
0.04497,0.0034242,0.025258,-1.2163e-05,0.0025246,-0.00021925,0,0,0.050014,-0.0055808,0,-0.00096468,0,0,0,0.02526,-1.4065e-05,0.0025246,-0.49705,0.0092568,0.024105,6.9254e-07,0.9,0.08,0
0.045972,0.003474,0.025329,-4.9473e-05,0.002528,-0.00019442,0,0,0.050162,-0.0056704,0,-0.00085543,0,0,0,0.02533,-5.0963e-05,0.002528,-0.43889,0.0092692,0.024195,6.9969e-07,0.92,0.08,0
0.046977,0.0035118,0.025385,-8.0049e-05,0.0025305,-0.00015719,0,0,0.05028,-0.0057432,0,-0.00069163,0,0,0,0.025386,-8.1019e-05,0.0025305,-0.35365,0.0092785,0.024267,7.0536e-07,0.94,0.08,0
0.047983,0.0035384,0.025425,-0.00010259,0.0025323,-0.00011029,0,0,0.050364,-0.0057967,0,-0.00048529,0,0,0,0.025426,-0.00010307,0.0025323,-0.24754,0.0092849,0.024318,7.0946e-07,0.96,0.08,0
0.048991,0.0035541,0.025449,-0.00011636,0.0025333,-5.6811e-05,0,0,0.050415,-0.0058292,0,-0.00024997,0,0,0,0.025449,-0.00011648,0.0025333,-0.12732,0.0092887,0.024349,7.1194e-07,0.98,0.08,0
0.05,0.0035593,0.025457,-0.00012098,0.0025336,5.9191e-05,0,0,0.050432,-0.0058402,0,0.00026044,0,0,0,0.025458,-0.00012112,0.0025336,0.13259,0.00929,0.02436,7.1278e-07,1,0.08,0
0,0,0.027552,0.0030614,0.0030614,0.0025031,0,0,0.05388,2.7105e-20,0,0.011014,0,0,0,0.027805,0.0028081,0.0030614,5.7765,0.011225,0.024872,7.8992e-07,0,0.1,0
0.0010776,0.00022028,0.027602,0.0026763,0.0030278,0.0024373,0,0,0.054063,-0.00077331,0,0.010724,0,0,0,0.027838,0.0024403,0.0030278,5.5327,0.011102,0.025109,8.1156e-07,0.02,0.1,0
0.0021625,0.00044657,0.027722,0.0022121,0.0029934,0.0023647,0,0,0.054402,-0.0017189,0,0.010405,0,0,0,0.027939,0.0019947,0.0029934,5.2516,0.010976,0.02546,8.4319e-07,0.04,0.1,0
0.0032537,0.00067266,0.027794,0.0017405,0.0029535,0.0022231,0,0,0.05465,-0.0026686,0,0.0097815,0,0,0,0.027983,0.0015521,0.0029535,4.8422,0.01083,0.025759,8.6903e-07,0.06,0.1,0
0.0043485,0.00089193,0.027803,0.001326,0.0029129,0.0020357,0,0,0.054757,-0.003491,0,0.008957,0,0,0,0.027958,0.0011704,0.0029129,4.371,0.010681,0.02596,8.8494e-07,0.08,0.1,0
0.005444,0.0010994,0.027746,0.00099388,0.002874,0.0018358,0,0,0.054719,-0.0041363,0,0.0080774,0,0,0,0.027872,0.00086849,0.002874,3.9073,0.010538,0.026058,8.9065e-07,0.1,0.1,0
0.0065373,0.001292,0.027639,0.00074049,0.002838,0.0016491,0,0,0.054563,-0.0046145,0,0.0072559,0,0,0,0.02774,0.00063977,0.002838,3.4951,0.010406,0.026071,8.8831e-07,0.12,0.1,0
0.0076265,0.0014684,0.027499,0.00055159,0.0028051,0.0014878,0,0,0.054328,-0.0049577,0,0.0065465,0,0,0,0.027581,0.00046969,0.0028051,3.1507,0.010285,0.026023,8.8052e-07,0.14,0.1,0
0.0087104,0.0016282,0.027341,0.00041327,0.0027754,0.0013548,0,0,0.054044,-0.0051967,0,0.0059612,0,0,0,0.027409,0.00034528,0.0027754,2.8731,0.010176,0.025934,8.6936e-07,0.16,0.1,0
0.0097883,0.0017712,0.027172,0.00031464,0.0027487,0.0012476,0,0,0.053732,-0.0053549,0,0.0054893,0,0,0,0.02723,0.00025681,0.0027487,2.6538,0.010079,0.025818,8.5615e-07,0.18,0.1,0
0.01086,0.0018976,0.026999,0.00024782,0.0027247,0.0011616,0,0,0.053403,-0.0054491,0,0.005111,0,0,0,0.027049,0.00019747,0.0027247,2.4817,0.0099905,0.025682,8.416e-07,0.2,0.1,0
0.011924,0.0020074,0.026822,0.00020728,0.002703,0.0010915,0,0,0.053063,-0.0054905,0,0.0048028,0,0,0,0.026867,0.00016259,0.002703,2.3446,0.0099109,0.025529,8.2608e-07,0.22,0.1,0
0.012982,0.0021004,0.026642,0.00018907,0.0026832,0.0010321,0,0,0.052711,-0.005487,0,0.0045412,0,0,0,0.026683,0.00014886,0.0026832,2.2309,0.0098382,0.025362,8.0971e-07,0.24,0.1,0
0.014033,0.0021765,0.026458,0.00018999,0.0026648,0.00097802,0,0,0.052346,-0.0054447,0,0.0043033,0,0,0,0.026495,0.00015363,0.0026648,2.1293,0.0097711,0.02518,7.9249e-07,0.26,0.1,0
0.015076,0.0022351,0.026269,0.00020696,0.0026476,0.00092451,0,0,0.051966,-0.0053693,0,0.0040679,0,0,0,0.026301,0.0001742,0.0026476,2.0291,0.0097077,0.024983,7.7441e-07,0.28,0.1,0
0.016112,0.002276,0.026072,0.00023628,0.0026308,0.00086738,0,0,0.05157,-0.0052679,0,0.0038165,0,0,0,0.026101,0.0002072,0.0026308,1.9207,0.0096462,0.024771,7.5547e-07,0.3,0.1,0
0.017139,0.0022984,0.025866,0.00027319,0.0026139,0.00080345,0,0,0.051154,-0.0051496,0,0.0035352,0,0,0,0.025891,0.00024799,0.0026139,1.7964,0.0095843,0.024546,7.3579e-07,0.32,0.1,0
0.018158,0.0023023,0.02565,0.00031156,0.0025962,0.00073119,0,0,0.050719,-0.0050262,0,0.0032172,0,0,0,0.025671,0.00029048,0.0025962,1.6515,0.0095193,0.02431,7.1555e-07,0.34,0.1,0
0.019168,0.0022874,0.025424,0.00034438,0.0025768,0.00065116,0,0,0.050264,-0.0049114,0,0.0028651,0,0,0,0.025441,0.00032749,0.0025768,1.4863,0.0094485,0.024068,6.9499e-07,0.36,0.1,0
0.020168,0.0022543,0.025186,0.00036456,0.002555,0.00056607,0,0,0.049787,-0.004819,0,0.0024907,0,0,0,0.025199,0.00035165,0.002555,1.3058,0.0093684,0.023822,6.7431e-07,0.38,0.1,0
0.021159,0.0022042,0.024933,0.00036648,0.0025299,0.00048009,0,0,0.049286,-0.0047595,0,0.0021124,0,0,0,0.024942,0.0003571,0.0025299,1.1192,0.0092763,0.023574,6.5359e-07,0.4,0.1,0
0.02214,0.002139,0.024662,0.00034561,0.0025007,0.00039654,0,0,0.048754,-0.0047413,0,0.0017448,0,0,0,0.024668,0.00033914,0.0025007,0.93402,0.0091694,0.023324,6.328e-07,0.42,0.1,0
0.023109,0.0020618,0.024376,0.00029938,0.0024675,0.00031811,0,0,0.048198,-0.0047699,0,0.0013997,0,0,0,0.02438,0.00029518,0.0024675,0.75686,0.0090475,0.023075,6.1224e-07,0.44,0.1,0
0.024067,0.0019767,0.024081,0.00021632,0.0024297,0.00024573,0,0,0.047633,-0.0048695,0,0.0010812,0,0,0,0.024084,0.00021379,0.0024297,0.58987,0.008909,0.022843,5.9276e-07,0.46,0.1,0
0.025014,0.0018893,0.023788,9.3774e-05,0.0023882,0.00019352,0,0,0.04708,-0.0050478,0,0.00085148,0,0,0,0.02379,9.2194e-05,0.0023882,0.4679,0.0087568,0.022637,5.7518e-07,0.48,0.1,0
0.025951,0.0018074,0.023503,-4.4465e-05,0.0023459,0.00016906,0,0,0.046546,-0.0052587,0,0.00074385,0,0,0,0.023504,-4.5679e-05,0.0023459,0.41132,0.0086015,0.02245,5.5895e-07,0.5,0.1,0
0.026876,0.0017392,0.023228,-0.00014168,0.0023087,0.00017183,0,0,0.046023,-0.0053908,0,0.00075603,0,0,0,0.02323,-0.00014294,0.0023087,0.42123,0.0084651,0.022248,5.4252e-07,0.52,0.1,0
0.027792,0.0016916,0.022977,-0.00016043,0.0022816,0.00016596,0,0,0.045529,-0.0053725,0,0.00073023,0,0,0,0.022978,-0.00016162,0.0022816,0.41095,0.008366,0.02202,5.2567e-07,0.54,0.1,0
0.028698,0.0016678,0.022775,-0.00012618,0.0022649,0.00012486,0,0,0.045123,-0.0052604,0,0.00054937,0,0,0,0.022776,-0.00012686,0.0022649,0.31236,0.0083046,0.021805,5.1096e-07,0.56,0.1,0
0.029597,0.0016685,0.022659,-9.2358e-05,0.0022567,4.2417e-05,0,0,0.044886,-0.0051679,0,0.00018663,0,0,0,0.022659,-9.2437e-05,0.0022567,0.10682,0.0082746,0.021673,5.022e-07,0.58,0.1,0
0.030493,0.0016932,0.022653,-9.9763e-05,0.0022553,-5.4939e-05,0,0,0.044874,-0.0051811,0,-0.00024173,0,0,0,0.022653,-9.9896e-05,0.0022553,-0.13835,0.0082694,0.021671,5.0197e-07,0.6,0.1,0
0.031392,0.0017421,0.022755,-0.00014885,0.0022606,-0.00013255,0,0,0.045087,-0.0053008,0,-0.00058322,0,0,0,0.022756,-0.00014962,0.0022606,-0.33157,0.0082889,0.0218,5.1025e-07,0.62,0.1,0
0.032296,0.0018163,0.022942,-0.00019942,0.0022743,-0.00016349,0,0,0.04547,-0.0054422,0,-0.00071938,0,0,0,0.022943,-0.00020058,0.0022743,-0.40476,0.0083391,0.022011,5.2444e-07,0.64,0.1,0
0.03321,0.0019158,0.023179,-0.00019778,0.0022981,-0.0001532,0,0,0.045937,-0.0054909,0,-0.00067408,0,0,0,0.023179,-0.00019878,0.0022981,-0.37547,0.0084263,0.022235,5.4068e-07,0.66,0.1,0
0.034134,0.002038,0.023436,-0.0001173,0.0023318,-0.00012799,0,0,0.046428,-0.0053881,0,-0.00056313,0,0,0,0.023436,-0.000118,0.0023318,-0.31133,0.0085501,0.02243,5.5633e-07,0.68,0.1,0
0.035068,0.0021765,0.0237,5.7845e-06,0.0023705,-0.00012407,0,0,0.046924,-0.0052025,0,-0.00054591,0,0,0,0.0237,5.1348e-06,0.0023705,-0.30001,0.008692,0.022606,5.7145e-07,0.7,0.1,0
0.036011,0.0023236,0.023967,0.00011512,0.0024082,-0.00014277,0,0,0.047428,-0.0050447,0,-0.00062821,0,0,0,0.023967,0.00011427,0.0024082,-0.34296,0.0088299,0.022793,5.8744e-07,0.72,0.1,0
0.036965,0.002472,0.02423,0.00018651,0.0024417,-0.00017716,0,0,0.047935,-0.0049614,0,-0.00077952,0,0,0,0.024232,0.0001852,0.0024417,-0.42214,0.0089529,0.023001,6.0477e-07,0.74,0.1,0
0.037928,0.0026164,0.02448,0.00022194,0.0024702,-0.00021349,0,0,0.048421,-0.0049461,0,-0.00093934,0,0,0,0.024482,0.00022006,0.0024702,-0.50419,0.0090574,0.023219,6.2257e-07,0.76,0.1,0
0.038901,0.002753,0.024708,0.00023215,0.002494,-0.00025093,0,0,0.048871,-0.0049761,0,-0.0011041,0,0,0,0.02471,0.00022958,0.002494,-0.58732,0.0091447,0.023431,6.3992e-07,0.78,0.1,0
0.039883,0.0028789,0.024912,0.00021888,0.0025131,-0.00028668,0,0,0.049277,-0.0050472,0,-0.0012614,0,0,0,0.024915,0.00021556,0.0025131,-0.66507,0.0092145,0.023635,6.565e-07,0.8,0.1,0
0.040872,0.0029924,0.025093,0.00018568,0.0025279,-0.00031698,0,0,0.049644,-0.0051529,0,-0.0013947,0,0,0,0.025097,0.00018164,0.0025279,-0.72899,0.009269,0.023829,6.723e-07,0.82,0.1,0
0.041869,0.0030925,0.025255,0.00013716,0.0025392,-0.00033685,0,0,0.049974,-0.0052845,0,-0.0014821,0,0,0,0.025259,0.00013264,0.0025392,-0.7682,0.0093104,0.024014,6.8722e-07,0.84,0.1,0
0.042871,0.0031788,0.025397,7.9505e-05,0.0025476,-0.00034245,0,0,0.050268,-0.0054299,0,-0.0015068,0,0,0,0.025402,7.4874e-05,0.0025476,-0.7748,0.0093414,0.024185,7.0102e-07,0.86,0.1,0
0.04388,0.0032516,0.02552,1.9001e-05,0.0025539,-0.00033177,0,0,0.050525,-0.0055767,0,-0.0014598,0,0,0,0.025524,1.4685e-05,0.0025539,-0.74527,0.0093642,0.024339,7.1343e-07,0.88,0.1,0
0.044893,0.0033115,0.025623,-3.8917e-05,0.0025584,-0.00030478,0,0,0.050742,-0.0057141,0,-0.001341,0,0,0,0.025627,-4.2536e-05,0.0025584,-0.68036,0.0093808,0.024473,7.2417e-07,0.9,0.1,0
0.045909,0.0033591,0.025707,-9.0167e-05,0.0025616,-0.00026289,0,0,0.050919,-0.005834,0,-0.0011567,0,0,0,0.025709,-9.2846e-05,0.0025616,-0.58381,0.0093927,0.024583,7.3307e-07,0.92,0.1,0
0.046929,0.0033953,0.025771,-0.000132,0.0025639,-0.00020847,0,0,0.051056,-0.005931,0,-0.00091727,0,0,0,0.025773,-0.00013368,0.0025639,-0.46108,0.009401,0.024669,7.4001e-07,0.94,0.1,0
0.047952,0.0034206,0.025817,-0.00016275,0.0025654,-0.00014441,0,0,0.051153,-0.0060019,0,-0.00063541,0,0,0,0.025818,-0.00016355,0.0025654,-0.31848,0.0094065,0.02473,7.4497e-07,0.96,0.1,0
0.048975,0.0034355,0.025844,-0.00018149,0.0025662,-7.3842e-05,0,0,0.051211,-0.006045,0,-0.00032491,0,0,0,0.025844,-0.0001817,0.0025662,-0.16256,0.0094096,0.024767,7.4794e-07,0.98,0.1,0
0.05,0.0034405,0.025853,-0.00018778,0.0025665,5.6301e-05,0,0,0.05123,-0.0060595,0,0.00024772,0,0,0,0.025853,-0.0001879,0.0025665,0.12387,0.0094106,0.024779,7.4894e-07,1,0.1,0
0,0,0.027389,0.0030432,0.0030432,0.0023391,0,0,0.053561,1.0842e-19,0,0.010292,0,0,0,0.027612,0.0028205,0.0030432,5.4385,0.011159,0.024681,7.7193e-07,0,0.12,0
0.0010712,0.00020584,0.027439,0.0026985,0.0030137,0.0023024,0,0,0.053735,-0.00069343,0,0.010131,0,0,0,0.027651,0.0024861,0.0030137,5.2718,0.01105,0.024905,7.9222e-07,0.02,0.12,0
0.0021494,0.00041486,0.027563,0.0023013,0.0029864,0.0022586,0,0,0.054067,-0.0015072,0,0.009938,0,0,0,0.027763,0.0021009,0.0029864,5.0693,0.01095,0.025231,8.2151e-07,0.04,0.12,0
0.0032339,0.00062324,0.027658,0.0018886,0.0029546,0.0021688,0,0,0.054347,-0.0023453,0,0.0095425,0,0,0,0.027839,0.0017073,0.0029546,4.7773,0.010834,0.025531,8.4783e-07,0.06,0.12,0
0.0043233,0.00082651,0.02771,0.0015037,0.0029213,0.002041,0,0,0.054534,-0.0031189,0,0.0089806,0,0,0,0.027868,0.0013456,0.0029213,4.4268,0.010712,0.02577,8.6793e-07,0.08,0.12,0
0.0054153,0.0010207,0.027714,0.0011722,0.0028886,0.0018941,0,0,0.054615,-0.003776,0,0.008334,0,0,0,0.027848,0.0010377,0.0028886,4.0614,0.010592,0.025934,8.8052e-07,0.1,0.12,0
0.0065079,0.0012031,0.027673,0.00090185,0.0028575,0.0017465,0,0,0.054594,-0.0043024,0,0.0076845,0,0,0,0.027786,0.00078839,0.0028575,3.7168,0.010478,0.026025,8.8607e-07,0.12,0.12,0
0.0075991,0.0013719,0.027597,0.000689,0.0028286,0.001611,0,0,0.054491,-0.0047072,0,0.0070884,0,0,0,0.027693,0.00059289,0.0028286,3.414,0.010372,0.026055,8.8589e-07,0.14,0.12,0
0.0086875,0.0015262,0.027496,0.00052609,0.0028022,0.0014939,0,0,0.054326,-0.0050074,0,0.0065733,0,0,0,0.027578,0.00044359,0.0028022,3.1609,0.010275,0.026036,8.8139e-07,0.16,0.12,0
0.0097721,0.0016655,0.027376,0.00040543,0.0027782,0.0013966,0,0,0.054116,-0.0052201,0,0.0061452,0,0,0,0.027449,0.0003333,0.0027782,2.9564,0.010187,0.025979,8.737e-07,0.18,0.12,0
0.010852,0.0017896,0.027244,0.00032063,0.0027564,0.0013177,0,0,0.053872,-0.0053588,0,0.0057976,0,0,0,0.027308,0.0002563,0.0027564,2.7952,0.010107,0.025892,8.6358e-07,0.2,0.12,0
0.011927,0.0018982,0.0271,0.00026677,0.0027367,0.0012538,0,0,0.0536,-0.0054339,0,0.0055167,0,0,0,0.027159,0.00020831,0.0027367,2.6694,0.010035,0.02578,8.5146e-07,0.22,0.12,0
0.012996,0.0019911,0.026947,0.00024005,0.0027187,0.0012012,0,0,0.053302,-0.005453,0,0.0052851,0,0,0,0.027001,0.00018613,0.0027187,2.57,0.0099685,0.025642,8.3752e-07,0.24,0.12,0
0.014059,0.0020679,0.026782,0.00023727,0.0027019,0.0011554,0,0,0.052975,-0.0054222,0,0.0050837,0,0,0,0.026832,0.00018708,0.0027019,2.4876,0.0099069,0.025481,8.2183e-07,0.26,0.12,0
0.015115,0.0021281,0.026603,0.00025513,0.0026859,0.001112,0,0,0.052619,-0.0053476,0,0.004893,0,0,0,0.02665,0.00020828,0.0026859,2.4125,0.0098481,0.025294,8.0435e-07,0.28,0.12,0
0.016164,0.002171,0.02641,0.00028943,0.00267,0.0010668,0,0,0.052228,-0.0052372,0,0.0046941,0,0,0,0.026454,0.00024593,0.00267,2.3349,0.0097898,0.025084,7.8512e-07,0.3,0.12,0
0.017204,0.0021961,0.0262,0.00033424,0.0026534,0.0010162,0,0,0.051802,-0.0051022,0,0.0044713,0,0,0,0.02624,0.00029438,0.0026534,2.2464,0.0097292,0.02485,7.6425e-07,0.32,0.12,0
0.018236,0.0022026,0.025972,0.00038144,0.0026353,0.00095825,0,0,0.05134,-0.0049585,0,0.0042163,0,0,0,0.026007,0.00034561,0.0026353,2.1415,0.0096628,0.024597,7.4202e-07,0.34,0.12,0
0.019258,0.0021902,0.025724,0.00042096,0.0026144,0.00089366,0,0,0.05084,-0.0048257,0,0.0039321,0,0,0,0.025755,0.00038944,0.0026144,2.0203,0.0095863,0.02433,7.1883e-07,0.36,0.12,0
0.020269,0.0021591,0.025454,0.00044285,0.0025896,0.00082675,0,0,0.050301,-0.0047229,0,0.0036377,0,0,0,0.025481,0.00041556,0.0025896,1.8912,0.0094954,0.024052,6.9498e-07,0.38,0.12,0
0.02127,0.0021103,0.025156,0.00043947,0.0025595,0.00076381,0,0,0.049711,-0.0046641,0,0.0033608,0,0,0,0.025179,0.00041588,0.0025595,1.7684,0.0093849,0.023764,6.7039e-07,0.4,0.12,0
0.022258,0.0020456,0.024821,0.00041028,0.0025232,0.00071183,0,0,0.049056,-0.0046483,0,0.003132,0,0,0,0.024842,0.00038954,0.0025232,1.6689,0.0092516,0.023459,6.4457e-07,0.42,0.12,0
0.023232,0.001968,0.024436,0.00035396,0.002479,0.0006677,0,0,0.048305,-0.004675,0,0.0029379,0,0,0,0.024454,0.00033546,0.002479,1.587,0.0090895,0.023122,6.165e-07,0.44,0.12,0
0.02419,0.0018809,0.024012,0.00028216,0.0024294,0.00062922,0,0,0.047482,-0.004724,0,0.0027686,0,0,0,0.024029,0.00026549,0.0024294,1.5178,0.0089079,0.022759,5.87e-07,0.46,0.12,0
0.025131,0.0017897,0.023563,0.00014233,0.0023706,0.00057434,0,0,0.046624,-0.0049021,0,0.0025271,0,0,0,0.023577,0.00012825,0.0023706,1.4039,0.0086921,0.022412,5.5873e-07,0.48,0.12,0
0.026055,0.001703,0.023114,-4.2342e-05,0.0023071,0.0005546,0,0,0.045775,-0.0051689,0,0.0024402,0,0,0,0.023127,-5.5617e-05,0.0023071,1.3712,0.0084595,0.022096,5.3278e-07,0.5,0.12,0
0.026962,0.0016321,0.022674,-0.00015329,0.002252,0.00053345,0,0,0.044928,-0.0052917,0,0.0023472,0,0,0,0.022686,-0.00016575,0.002252,1.338,0.0082575,0.021744,5.0608e-07,0.52,0.12,0
0.027852,0.0015857,0.022265,-0.00011409,0.0022151,0.00048607,0,0,0.04411,-0.0051242,0,0.0021387,0,0,0,0.022276,-0.00012464,0.0022151,1.2437,0.008122,0.021327,4.7803e-07,0.54,0.12,0
0.028727,0.0015655,0.021945,1.1879e-05,0.0021957,0.00033827,0,0,0.04345,-0.0048045,0,0.0014884,0,0,0,0.021951,6.663e-06,0.0021957,0.88336,0.0080511,0.020935,4.5395e-07,0.56,0.12,0
0.02959,0.0015689,0.021763,8.5784e-05,0.0021848,0.00012118,0,0,0.043071,-0.0046179,0,0.00053321,0,0,0,0.021763,8.5107e-05,0.0021848,0.3203,0.008011,0.020708,4.4032e-07,0.58,0.12,0
0.03045,0.0015933,0.021754,7.6121e-05,0.002183,-0.0001187,0,0,0.043056,-0.0046352,0,-0.00052229,0,0,0,0.021755,7.5471e-05,0.002183,-0.31372,0.0080044,0.020706,4.4006e-07,0.6,0.12,0
0.031313,0.0016389,0.02192,-1.7899e-05,0.0021902,-0.00033097,0,0,0.043406,-0.0048579,0,-0.0014563,0,0,0,0.021925,-2.2891e-05,0.0021902,-0.86414,0.0080309,0.02093,4.5317e-07,0.62,0.12,0
0.032186,0.0017088,0.022223,-0.00016613,0.0022057,-0.00046834,0,0,0.044039,-0.005218,0,-0.0020607,0,0,0,0.022233,-0.00017592,0.0022057,-1.1978,0.0080876,0.021318,4.7671e-07,0.64,0.12,0
0.033074,0.0018064,0.022615,-0.00022973,0.0022386,-0.0004983,0,0,0.044829,-0.0054302,0,-0.0021925,0,0,0,0.022626,-0.00024059,0.0022386,-1.249,0.008208,0.021733,5.0418e-07,0.66,0.12,0
0.033979,0.0019305,0.023037,-0.00014278,0.0022894,-0.00049423,0,0,0.045644,-0.0053507,0,-0.0021746,0,0,0,0.023047,-0.00015331,0.0022894,-1.2209,0.0083944,0.022081,5.3017e-07,0.68,0.12,0
0.0349,0.0020732,0.023464,2.0825e-05,0.0023485,-0.00048179,0,0,0.046455,-0.0051209,0,-0.0021199,0,0,0,0.023474,1.0928e-05,0.0023485,-1.1768,0.0086113,0.022386,5.5507e-07,0.7,0.12,0
0.035837,0.0022236,0.023888,0.00014271,0.002403,-0.00049874,0,0,0.047266,-0.0049727,0,-0.0021945,0,0,0,0.023898,0.00013224,0.002403,-1.2027,0.0088112,0.022716,5.8179e-07,0.72,0.12,0
0.03679,0.0023736,0.024282,0.00019842,0.002448,-0.0004945,0,0,0.048035,-0.0049491,0,-0.0021758,0,0,0,0.024292,0.00018827,0.002448,-1.1758,0.0089761,0.023057,6.0922e-07,0.74,0.12,0
0.037759,0.002518,0.024633,0.00023963,0.0024873,-0.00049118,0,0,0.048722,-0.0049449,0,-0.0021612,0,0,0,0.024643,0.00022974,0.0024873,-1.153,0.0091201,0.023367,6.3469e-07,0.76,0.12,0
0.038739,0.0026538,0.024929,0.00025404,0.0025183,-0.00049124,0,0,0.049303,-0.0049813,0,-0.0021615,0,0,0,0.024938,0.00024426,0.0025183,-1.1401,0.0092337,0.023639,6.5735e-07,0.78,0.12,0
0.039731,0.0027782,0.025183,0.00024174,0.0025424,-0.00049776,0,0,0.049808,-0.0050615,0,-0.0021902,0,0,0,0.025192,0.00023181,0.0025424,-1.1429,0.0093222,0.023889,6.7817e-07,0.8,0.12,0
0.040732,0.0028893,0.025403,0.00020183,0.0025605,-0.00050335,0,0,0.050253,-0.005189,0,-0.0022147,0,0,0,0.025413,0.00019178,0.0025605,-1.1438,0.0093883,0.024124,6.9767e-07,0.82,0.12,0
0.041741,0.0029864,0.025595,0.00014051,0.0025736,-0.00050074,0,0,0.050647,-0.0053527,0,-0.0022032,0,0,0,0.025605,0.00013066,0.0025736,-1.1265,0.0094364,0.024345,7.1596e-07,0.84,0.12,0
0.042757,0.0030694,0.025762,6.6487e-05,0.0025828,-0.00048428,0,0,0.050994,-0.005536,0,-0.0021308,0,0,0,0.025771,5.7363e-05,0.0025828,-1.0794,0.0094704,0.024549,7.3275e-07,0.86,0.12,0
0.043781,0.0031389,0.025903,-1.1137e-05,0.0025892,-0.0004516,0,0,0.051291,-0.0057208,0,-0.001987,0,0,0,0.025911,-1.9005e-05,0.0025892,-0.99806,0.0094938,0.02473,7.4767e-07,0.88,0.12,0
0.044809,0.0031957,0.02602,-8.4987e-05,0.0025935,-0.00040286,0,0,0.051539,-0.0058927,0,-0.0017726,0,0,0,0.026027,-9.1202e-05,0.0025935,-0.88391,0.0095096,0.024884,7.6042e-07,0.9,0.12,0
0.045842,0.0032406,0.026113,-0.00014986,0.0025963,-0.00033985,0,0,0.051737,-0.0060417,0,-0.0014953,0,0,0,0.026118,-0.00015426,0.0025963,-0.74125,0.00952,0.02501,7.7083e-07,0.92,0.12,0
0.046879,0.0032746,0.026184,-0.00020249,0.0025982,-0.00026515,0,0,0.051889,-0.0061614,0,-0.0011667,0,0,0,0.026187,-0.00020516,0.0025982,-0.57568,0.0095265,0.025108,7.7886e-07,0.94,0.12,0
0.047918,0.0032983,0.026233,-0.000241,0.0025992,-0.00018165,0,0,0.051995,-0.0062485,0,-0.00079926,0,0,0,0.026235,-0.00024224,0.0025992,-0.3931,0.0095305,0.025177,7.8453e-07,0.96,0.12,0
0.048958,0.0033123,0.026262,-0.00026439,0.0025998,-9.2285e-05,0,0,0.052058,-0.0063012,0,-0.00040606,0,0,0,0.026263,-0.00026472,0.0025998,-0.19933,0.0095326,0.025217,7.879e-07,0.98,0.12,0
0.05,0.0033169,0.026272,-0.00027224,0.0026,5.2628e-05,0,0,0.052078,-0.0063188,0,0.00023156,0,0,0,0.026272,-0.00027234,0.0026,0.1136,0.0095332,0.025231,7.8903e-07,1,0.12,0
0,0,0.027306,0.003034,0.003034,0.0021879,0,0,0.053398,-1.8973e-19,0,0.0096269,0,0,0,0.027501,0.0028383,0.003034,5.11,0.011125,0.024566,7.6124e-07,0,0.14,0
0.001068,0.00019254,0.027355,0.0027111,0.0030066,0.0021693,0,0,0.053566,-0.00065007,0,0.0095451,0,0,0,0.027544,0.0025216,0.0030066,4.9924,0.011024,0.024784,7.8086e-07,0.02,0.14,0
0.0021426,0.00038629,0.027481,0.0023548,0.0029836,0.0021424,0,0,0.053895,-0.0013834,0,0.0094265,0,0,0,0.027662,0.0021734,0.0029836,4.8388,0.01094,0.025094,8.0872e-07,0.04,0.14,0
0.0032237,0.00057884,0.027589,0.0019838,0.0029573,0.0020851,0,0,0.05419,-0.0021416,0,0.0091746,0,0,0,0.027758,0.0018151,0.0029573,4.6252,0.010843,0.025391,8.35e-07,0.06,0.14,0
0.0043102,0.00076718,0.027668,0.0016272,0.0029295,0.0019995,0,0,0.054424,-0.0028651,0,0.0087978,0,0,0,0.027821,0.0014746,0.0029295,4.3653,0.010741,0.025649,8.5728e-07,0.08,0.14,0
0.0054007,0.00094833,0.027711,0.001306,0.0029017,0.0018952,0,0,0.054581,-0.0035105,0,0.008339,0,0,0,0.027846,0.0011707,0.0029017,4.0845,0.01064,0.025854,8.7415e-07,0.1,0.14,0
0.0064935,0.0011199,0.027719,0.001031,0.0028749,0.0017846,0,0,0.054656,-0.0040566,0,0.0078521,0,0,0,0.027837,0.00091224,0.0028749,3.8087,0.010542,0.025999,8.853e-07,0.12,0.14,0
0.007587,0.0012801,0.027693,0.00080457,0.0028498,0.001678,0,0,0.054656,-0.0044995,0,0.0073833,0,0,0,0.027798,0.00070025,0.0028498,3.5572,0.010449,0.026089,8.9119e-07,0.14,0.14,0
0.0086797,0.0014279,0.027642,0.00062416,0.0028266,0.0015826,0,0,0.054594,-0.0048454,0,0.0069634,0,0,0,0.027734,0.00053177,0.0028266,3.3409,0.010364,0.026131,8.9259e-07,0.16,0.14,0
0.0097707,0.0015624,0.027569,0.00048558,0.0028054,0.0015017,0,0,0.054479,-0.0051036,0,0.0066073,0,0,0,0.027652,0.00040258,0.0028054,3.1639,0.010287,0.026131,8.9029e-07,0.18,0.14,0
0.010859,0.0016833,0.027478,0.00038453,0.0027862,0.001436,0,0,0.054321,-0.0052837,0,0.0063182,0,0,0,0.027554,0.00030864,0.0027862,3.0254,0.010216,0.026094,8.8489e-07,0.2,0.14,0
0.011943,0.00179,0.027371,0.00031729,0.0027688,0.0013843,0,0,0.054125,-0.0053934,0,0.006091,0,0,0,0.027442,0.00024664,0.0027688,2.9216,0.010152,0.026026,8.7676e-07,0.22,0.14,0
0.013024,0.0018823,0.027249,0.00028076,0.002753,0.0013444,0,0,0.053891,-0.0054388,0,0.0059154,0,0,0,0.027316,0.00021391,0.002753,2.8469,0.010094,0.025926,8.6609e-07,0.24,0.14,0
0.014099,0.0019596,0.02711,0.0002722,0.0027382,0.0013131,0,0,0.053618,-0.0054252,0,0.0057776,0,0,0,0.027174,0.00020811,0.0027382,2.7944,0.01004,0.025794,8.5288e-07,0.26,0.14,0
0.015169,0.0020212,0.026952,0.00028858,0.0027241,0.0012866,0,0,0.053301,-0.005358,0,0.005661,0,0,0,0.027014,0.00022665,0.0027241,2.7561,0.0099882,0.02563,8.3708e-07,0.28,0.14,0
0.016231,0.0020665,0.026772,0.00032574,0.0027098,0.0012607,0,0,0.052938,-0.005245,0,0.0055472,0,0,0,0.026832,0.00026577,0.0027098,2.7231,0.009936,0.025433,8.1865e-07,0.3,0.14,0
0.017286,0.0020944,0.026568,0.00037714,0.0026946,0.0012315,0,0,0.052523,-0.0050983,0,0.0054184,0,0,0,0.026626,0.00031937,0.0026946,2.686,0.0098801,0.025203,7.9767e-07,0.32,0.14,0
0.018332,0.0021039,0.026339,0.00043259,0.0026771,0.0011959,0,0,0.052055,-0.004938,0,0.005262,0,0,0,0.026394,0.00037751,0.0026771,2.6375,0.0098162,0.024946,7.7452e-07,0.34,0.14,0
0.019368,0.0020944,0.026082,0.00047815,0.0026561,0.0011547,0,0,0.051538,-0.0047914,0,0.0050807,0,0,0,0.026134,0.00042618,0.0026561,2.5769,0.0097389,0.024669,7.4983e-07,0.36,0.14,0
0.020394,0.0020654,0.025797,0.00049764,0.0026295,0.0011137,0,0,0.050969,-0.00469,0,0.0049001,0,0,0,0.025846,0.00044871,0.0026295,2.5156,0.0096414,0.02438,7.2423e-07,0.38,0.14,0
0.021407,0.0020176,0.025477,0.00048088,0.0025958,0.001086,0,0,0.050339,-0.0046528,0,0.0047785,0,0,0,0.025524,0.00043378,0.0025958,2.4831,0.0095179,0.024082,6.9787e-07,0.4,0.14,0
0.022407,0.0019531,0.025102,0.00042362,0.0025525,0.0010831,0,0,0.049608,-0.0046836,0,0.0047656,0,0,0,0.025149,0.00037617,0.0025525,2.5082,0.0093593,0.02376,6.6942e-07,0.42,0.14,0
0.023391,0.0018748,0.024651,0.00035026,0.0025002,0.0011217,0,0,0.048732,-0.0047298,0,0.0049353,0,0,0,0.024703,0.0002986,0.0025002,2.6371,0.0091672,0.023381,6.3692e-07,0.44,0.14,0
0.024356,0.0017877,0.024044,0.00024788,0.0024292,0.0011637,0,0,0.047553,-0.0047989,0,0.0051202,0,0,0,0.024101,0.00019111,0.0024292,2.793,0.0089071,0.022873,5.9482e-07,0.46,0.14,0
0.025294,0.0016933,0.023377,0.00021856,0.0023595,0.0012349,0,0,0.046238,-0.0047101,0,0.0054335,0,0,0,0.023442,0.00015289,0.0023595,3.0438,0.0086515,0.022268,5.4839e-07,0.48,0.14,0
0.026206,0.0016006,0.022648,-3.179e-05,0.0022617,0.0011489,0,0,0.044851,-0.0050456,0,0.0050551,0,0,0,0.022707,-8.984e-05,0.0022617,2.8925,0.0082928,0.021716,5.0525e-07,0.5,0.14,0
0.027088,0.0015275,0.021922,-0.00017987,0.0021742,0.0011678,0,0,0.043445,-0.005179,0,0.0051384,0,0,0,0.021984,-0.0002414,0.0021742,3.0162,0.0079722,0.021121,4.6265e-07,0.52,0.14,0
0.027944,0.0014866,0.021304,0.00010538,0.0021409,0.0009524,0,0,0.042158,-0.0044782,0,0.0041905,0,0,0,0.021347,6.268e-05,0.0021409,2.5673,0.0078501,0.020325,4.1605e-07,0.54,0.14,0
0.028774,0.0014757,0.020823,0.00032013,0.0021143,0.0006142,0,0,0.041158,-0.0039471,0,0.0027025,0,0,0,0.020841,0.00030174,0.0021143,1.7144,0.0077524,0.019696,3.8122e-07,0.56,0.14,0
0.02959,0.0014838,0.020605,0.00041732,0.0021023,0.00021388,0,0,0.040707,-0.0037069,0,0.00094107,0,0,0,0.020608,0.00041505,0.0021023,0.60693,0.0077083,0.019404,3.6568e-07,0.58,0.14,0
0.030402,0.0015077,0.020596,0.00040545,0.0021001,-0.0001936,0,0,0.04069,-0.0037282,0,-0.00085182,0,0,0,0.020598,0.0004036,0.0021001,-0.54932,0.0077004,0.019401,3.6542e-07,0.6,0.14,0
0.031218,0.0015478,0.020794,0.00028348,0.0021077,-0.00058935,0,0,0.04111,-0.0040134,0,-0.0025931,0,0,0,0.020811,0.00026656,0.0021077,-1.6445,0.0077284,0.019688,3.8043e-07,0.62,0.14,0
0.032046,0.0016076,0.021257,4.0647e-05,0.0021298,-0.00091752,0,0,0.04208,-0.004596,0,-0.0040371,0,0,0,0.021296,1.041e-06,0.0021298,-2.4717,0.0078091,0.020315,4.1469e-07,0.64,0.14,0
0.032901,0.0016986,0.021858,-0.00027789,0.002158,-0.0011153,0,0,0.043339,-0.0053589,0,-0.0049073,0,0,0,0.021914,-0.00033394,0.002158,-2.8771,0.0079126,0.021112,4.6069e-07,0.66,0.14,0
0.03378,0.0018239,0.022565,-0.00016404,0.0022401,-0.001069,0,0,0.044715,-0.0052892,0,-0.0047038,0,0,0,0.022616,-0.00021421,0.0022401,-2.6869,0.0082138,0.021707,5.0274e-07,0.68,0.14,0
0.03469,0.0019717,0.023273,5.9931e-05,0.0023332,-0.0011192,0,0,0.046067,-0.0050013,0,-0.0049246,0,0,0,0.023326,6.0919e-06,0.0023332,-2.7541,0.0085553,0.022248,5.4479e-07,0.7,0.14,0
0.035623,0.0021247,0.023916,6.6782e-05,0.0023983,-0.0010076,0,0,0.04734,-0.0051294,0,-0.0044333,0,0,0,0.023959,2.4291e-05,0.0023983,-2.4148,0.0087939,0.02284,5.8974e-07,0.72,0.14,0
0.036583,0.0022741,0.024497,0.00014733,0.0024644,-0.00091905,0,0,0.048471,-0.0050976,0,-0.0040438,0,0,0,0.024531,0.00011269,0.0024644,-2.1585,0.0090362,0.023332,6.3005e-07,0.74,0.14,0
0.037562,0.0024187,0.024918,0.00020091,0.0025118,-0.00082884,0,0,0.049293,-0.0050841,0,-0.0036469,0,0,0,0.024945,0.00017314,0.0025118,-1.9185,0.0092101,0.02369,6.6042e-07,0.76,0.14,0
0.038555,0.0025537,0.02526,0.00023898,0.0025499,-0.00077524,0,0,0.049961,-0.0050839,0,-0.0034111,0,0,0,0.025284,0.00021498,0.0025499,-1.773,0.0093495,0.023987,6.8621e-07,0.78,0.14,0
0.03956,0.0026765,0.025542,0.00023567,0.0025778,-0.0007419,0,0,0.050522,-0.0051526,0,-0.0032644,0,0,0,0.025564,0.00021394,0.0025778,-1.6778,0.0094519,0.024255,7.0941e-07,0.8,0.14,0
0.040576,0.0027849,0.025787,0.00019303,0.002598,-0.00071712,0,0,0.051015,-0.0052908,0,-0.0031553,0,0,0,0.025807,0.00017295,0.002598,-1.6037,0.0095258,0.024511,7.3144e-07,0.82,0.14,0
0.041601,0.0028784,0.025999,0.00011917,0.0026118,-0.00068654,0,0,0.051451,-0.0054837,0,-0.0030208,0,0,0,0.026017,0.00010097,0.0026118,-1.5185,0.0095765,0.024756,7.5228e-07,0.84,0.14,0
0.042634,0.0029574,0.026181,2.8628e-05,0.0026209,-0.00064267,0,0,0.051831,-0.005703,0,-0.0028277,0,0,0,0.026196,1.2845e-05,0.0026209,-1.4069,0.00961,0.024982,7.7139e-07,0.86,0.14,0
0.043674,0.0030228,0.026333,-6.575e-05,0.0026267,-0.00058297,0,0,0.052153,-0.0059234,0,-0.0025651,0,0,0,0.026346,-7.8618e-05,0.0026267,-1.2645,0.0096312,0.025181,7.8821e-07,0.88,0.14,0
0.04472,0.0030758,0.026456,-0.00015447,0.0026302,-0.00050836,0,0,0.052417,-0.0061262,0,-0.0022368,0,0,0,0.026466,-0.00016417,0.0026302,-1.094,0.009644,0.025349,8.0237e-07,0.9,0.14,0
0.045771,0.0031174,0.026553,-0.00023156,0.0026321,-0.00042121,0,0,0.052625,-0.0063001,0,-0.0018533,0,0,0,0.026559,-0.00023818,0.0026321,-0.90073,0.0096511,0.025484,8.1377e-07,0.92,0.14,0
0.046825,0.0031488,0.026625,-0.00029358,0.0026331,-0.0003242,0,0,0.052782,-0.0064388,0,-0.0014265,0,0,0,0.026629,-0.00029749,0.0026331,-0.68994,0.0096548,0.025587,8.2244e-07,0.94,0.14,0
0.047882,0.0031706,0.026674,-0.0003387,0.0026336,-0.00022002,0,0,0.05289,-0.006539,0,-0.00096809,0,0,0,0.026676,-0.00034049,0.0026336,-0.46663,0.0096564,0.025659,8.285e-07,0.96,0.14,0
0.04894,0.0031835,0.026704,-0.00036601,0.0026337,-0.00011116,0,0,0.052953,-0.0065995,0,-0.00048911,0,0,0,0.026704,-0.00036647,0.0026337,-0.23528,0.0096571,0.025702,8.3208e-07,0.98,0.14,0
0.05,0.0031878,0.026713,-0.00037515,0.0026338,4.8282e-05,0,0,0.052974,-0.0066197,0,0.00021244,0,0,0,0.026713,-0.00037524,0.0026338,0.10212,0.0096572,0.025716,8.3328e-07,1,0.14,0
0,0,0.027275,0.0030305,0.0030305,0.0020436,0,0,0.053337,-1.8973e-19,0,0.0089918,0,0,0,0.027446,0.0028594,0.0030305,4.7846,0.011112,0.024501,7.5528e-07,0,0.16,0
0.0010667,0.00017984,0.027324,0.0027185,0.0030043,0.0020366,0,0,0.053504,-0.00062872,0,0.0089611,0,0,0,0.027491,0.0025511,0.0030043,4.6998,0.011016,0.024717,7.7468e-07,0.02,0.16,0
0.0021401,0.00035953,0.027453,0.002387,0.002984,0.0020201,0,0,0.053832,-0.0013134,0,0.0088884,0,0,0,0.027615,0.0022252,0.002984,4.5781,0.010941,0.025019,8.0182e-07,0.04,0.16,0
0.00322,0.00053757,0.02757,0.0020446,0.0029615,0.0019842,0,0,0.054138,-0.002017,0,0.0087304,0,0,0,0.027723,0.0018913,0.0029615,4.4185,0.010859,0.025314,8.2808e-07,0.06,0.16,0
0.0043057,0.0007119,0.027667,0.0017109,0.0029377,0.001928,0,0,0.054403,-0.0026991,0,0.0084832,0,0,0,0.027809,0.0015684,0.0029377,4.2251,0.010772,0.025583,8.517e-07,0.08,0.16,0
0.0053961,0.00088032,0.027737,0.001402,0.0029139,0.0018564,0,0,0.054612,-0.0033262,0,0.0081682,0,0,0,0.027868,0.0012718,0.0029139,4.0124,0.010684,0.025814,8.7142e-07,0.1,0.16,0
0.0064902,0.0010409,0.02778,0.0011286,0.0028909,0.0017771,0,0,0.054757,-0.0038771,0,0.0078193,0,0,0,0.027898,0.0010106,0.0028909,3.798,0.0106,0.025999,8.8666e-07,0.12,0.16,0
0.0075864,0.0011919,0.027796,0.00089529,0.0028691,0.001698,0,0,0.054839,-0.0043425,0,0.0074713,0,0,0,0.027903,0.00078853,0.0028691,3.5976,0.01052,0.026136,8.974e-07,0.14,0.16,0
0.0086837,0.0013324,0.027787,0.00070297,0.002849,0.0016255,0,0,0.054864,-0.0047213,0,0.0071521,0,0,0,0.027884,0.00060577,0.002849,3.4223,0.010446,0.026229,9.0396e-07,0.16,0.16,0
0.009781,0.0014614,0.027757,0.00055019,0.0028307,0.0015636,0,0,0.054838,-0.0050171,0,0.0068798,0,0,0,0.027846,0.00046062,0.0028307,3.2785,0.010379,0.026281,9.0677e-07,0.18,0.16,0
0.010877,0.0015782,0.027707,0.00043466,0.0028142,0.0015145,0,0,0.054765,-0.005235,0,0.0066639,0,0,0,0.027791,0.00035082,0.0028142,3.1688,0.010319,0.026295,9.0624e-07,0.2,0.16,0
0.011972,0.0016825,0.02764,0.00035408,0.0027994,0.0014787,0,0,0.054649,-0.0053797,0,0.0065062,0,0,0,0.02772,0.00027418,0.0027994,3.0929,0.010264,0.026274,9.0263e-07,0.22,0.16,0
0.013063,0.0017735,0.027555,0.00030634,0.0027861,0.0014553,0,0,0.054491,-0.0054555,0,0.0064034,0,0,0,0.027632,0.00022883,0.0027861,3.0486,0.010216,0.026219,8.9604e-07,0.24,0.16,0
0.014151,0.0018509,0.02745,0.00028946,0.002774,0.0014426,0,0,0.054288,-0.0054659,0,0.0063474,0,0,0,0.027527,0.00021306,0.002774,3.0318,0.010171,0.026127,8.8643e-07,0.26,0.16,0
0.015235,0.0019138,0.027323,0.00030116,0.0027624,0.0014378,0,0,0.054033,-0.0054148,0,0.0063263,0,0,0,0.027399,0.00022487,0.0027624,3.0372,0.010129,0.025999,8.7364e-07,0.28,0.16,0
0.016313,0.0019612,0.027169,0.00033795,0.0027507,0.0014372,0,0,0.053721,-0.0053081,0,0.0063238,0,0,0,0.027246,0.00026119,0.0027507,3.0574,0.010086,0.02583,8.5748e-07,0.3,0.16,0
0.017384,0.0019921,0.026986,0.00039371,0.0027379,0.0014363,0,0,0.053345,-0.0051573,0,0.0063198,0,0,0,0.027063,0.00031636,0.0027379,3.0828,0.010039,0.025622,8.3791e-07,0.32,0.16,0
0.018446,0.0020051,0.026769,0.00045733,0.0027227,0.0014306,0,0,0.052902,-0.0049837,0,0.0062946,0,0,0,0.026847,0.00037978,0.0027227,3.103,0.0099831,0.025377,8.1525e-07,0.34,0.16,0
0.0195,0.0019986,0.02652,0.00050949,0.002703,0.0014183,0,0,0.052398,-0.0048256,0,0.0062405,0,0,0,0.026597,0.00043238,0.002703,3.1119,0.0099109,0.025107,7.9044e-07,0.36,0.16,0
0.020542,0.0019715,0.026241,0.00052594,0.0026767,0.0014074,0,0,0.051842,-0.0047317,0,0.0061925,0,0,0,0.026318,0.00044914,0.0026767,3.1233,0.0098146,0.02483,7.6496e-07,0.38,0.16,0
0.021573,0.0019242,0.025925,0.00047998,0.0026405,0.0014145,0,0,0.051227,-0.0047532,0,0.0062239,0,0,0,0.026004,0.00040159,0.0026405,3.1721,0.009682,0.024559,7.3953e-07,0.4,0.16,0
0.022591,0.0018582,0.025567,0.00037871,0.0025946,0.0014785,0,0,0.050539,-0.0048749,0,0.0065054,0,0,0,0.025653,0.00029222,0.0025946,3.3478,0.0095134,0.024292,7.1398e-07,0.42,0.16,0
0.023595,0.0017788,0.025089,0.00021408,0.0025303,0.0016009,0,0,0.04963,-0.0050958,0,0.007044,0,0,0,0.025192,0.00011147,0.0025303,3.6673,0.0092779,0.023963,6.8247e-07,0.44,0.16,0
0.024577,0.001689,0.02452,0.0001156,0.0024635,0.001875,0,0,0.048524,-0.0051655,0,0.00825,0,0,0,0.024663,-2.7616e-05,0.0024635,4.3679,0.009033,0.023544,6.4507e-07,0.46,0.16,0
0.025536,0.0016013,0.023303,-0.00010413,0.0023199,0.0020537,0,0,0.046162,-0.0053327,0,0.0090362,0,0,0,0.023481,-0.00028295,0.0023199,4.9764,0.0085061,0.022576,5.6455e-07,0.48,0.16,0
0.026423,0.0015012,0.022041,-4.7403e-05,0.0021994,0.0028121,0,0,0.043652,-0.004943,0,0.012374,0,0,0,0.022394,-0.0003998,0.0021994,7.1426,0.0080645,0.021611,4.9323e-07,0.5,0.16,0
0.027282,0.0014249,0.020843,0.00022907,0.0021072,0.0020212,0,0,0.041218,-0.0041318,0,0.0088932,0,0,0,0.021039,3.2757e-05,0.0021072,5.5475,0.0077263,0.02005,3.9905e-07,0.52,0.16,0
0.028072,0.0014066,0.019713,0.0006217,0.0020334,0.0014526,0,0,0.038894,-0.0031058,0,0.0063913,0,0,0,0.019822,0.00051181,0.0020334,4.3263,0.0074559,0.018597,3.2286e-07,0.54,0.16,0
0.028838,0.0014076,0.019333,0.000809,0.0020142,0.00083866,0,0,0.038101,-0.0026513,0,0.0036901,0,0,0,0.01937,0.00077111,0.0020142,2.587,0.0073852,0.01801,2.9522e-07,0.56,0.16,0
0.029596,0.0014207,0.019212,0.00088487,0.0020097,0.00028422,0,0,0.037845,-0.0024746,0,0.0012506,0,0,0,0.019216,0.00088046,0.0020097,0.88827,0.0073688,0.017798,2.8564e-07,0.58,0.16,0
0.030352,0.0014442,0.019202,0.00087083,0.0020073,-0.00024483,0,0,0.037828,-0.0025002,0,-0.0010772,0,0,0,0.019205,0.00086756,0.0020073,-0.76505,0.00736,0.017795,2.8542e-07,0.6,0.16,0
0.031109,0.0014783,0.019303,0.0007656,0.0020068,-0.00079475,0,0,0.038051,-0.0027307,0,-0.0034969,0,0,0,0.019336,0.00073158,0.0020068,-2.4505,0.0073583,0.018001,2.9453e-07,0.62,0.16,0
0.031874,0.001525,0.019662,0.00054502,0.0020207,-0.001399,0,0,0.038812,-0.0032466,0,-0.0061558,0,0,0,0.019764,0.00044317,0.0020207,-4.1635,0.0074094,0.018583,3.2157e-07,0.64,0.16,0
0.032661,0.001592,0.020774,0.00011025,0.0020884,-0.0019498,0,0,0.041107,-0.0043519,0,-0.008579,0,0,0,0.020956,-7.2115e-05,0.0020884,-5.3435,0.0076574,0.020035,3.9691e-07,0.66,0.16,0
0.033518,0.0017189,0.021954,-0.00021802,0.0021736,-0.0027106,0,0,0.043516,-0.0052615,0,-0.011926,0,0,0,0.02228,-0.00054458,0.0021736,-6.8699,0.0079697,0.021594,4.8967e-07,0.68,0.16,0
0.034402,0.0018732,0.023195,-0.00029761,0.0022897,-0.0019187,0,0,0.045991,-0.0056921,0,-0.0084421,0,0,0,0.02335,-0.00045328,0.0022897,-4.6385,0.0083956,0.022558,5.6024e-07,0.7,0.16,0
0.035358,0.0020185,0.02439,-0.00011119,0.0024279,-0.0016966,0,0,0.048317,-0.005586,0,-0.007465,0,0,0,0.024507,-0.00022811,0.0024279,-3.9423,0.0089023,0.02352,6.396e-07,0.72,0.16,0
0.036335,0.0021697,0.02494,-3.9634e-05,0.00249,-0.0013741,0,0,0.04939,-0.0055653,0,-0.0060461,0,0,0,0.025015,-0.000115,0.00249,-3.1392,0.0091301,0.023934,6.7615e-07,0.74,0.16,0
0.037333,0.0023147,0.025394,9.9516e-05,0.0025494,-0.0011961,0,0,0.050258,-0.0053896,0,-0.005263,0,0,0,0.02545,4.3079e-05,0.0025494,-2.7014,0.0093476,0.024251,7.0624e-07,0.76,0.16,0
0.038345,0.0024505,0.025726,0.00017769,0.0025904,-0.0010723,0,0,0.050898,-0.0053079,0,-0.004718,0,0,0,0.025771,0.00013276,0.0025904,-2.3991,0.009498,0.024502,7.2992e-07,0.78,0.16,0
0.039369,0.0025721,0.026013,0.00019961,0.0026212,-0.0010012,0,0,0.051461,-0.0053276,0,-0.0044054,0,0,0,0.026051,0.00016083,0.0026212,-2.2179,0.0096112,0.024752,7.53e-07,0.8,0.16,0
0.040404,0.0026777,0.026261,0.00015525,0.0026416,-0.00094413,0,0,0.051963,-0.00547,0,-0.0041542,0,0,0,0.026295,0.00012115,0.0026416,-2.0685,0.009686,0.025009,7.7593e-07,0.82,0.16,0
0.041447,0.002767,0.026479,6.8218e-05,0.0026547,-0.00088274,0,0,0.052413,-0.0056902,0,-0.0038841,0,0,0,0.026508,3.8747e-05,0.0026547,-1.9122,0.0097339,0.025263,7.9825e-07,0.84,0.16,0
0.0425,0.0028413,0.026663,-3.9236e-05,0.0026624,-0.00080704,0,0,0.052802,-0.0059436,0,-0.003551,0,0,0,0.026688,-6.3606e-05,0.0026624,-1.7296,0.0097621,0.025498,8.1866e-07,0.86,0.16,0
0.04356,0.002902,0.026814,-0.00014892,0.0026666,-0.00071644,0,0,0.053125,-0.006194,0,-0.0031523,0,0,0,0.026833,-0.00016794,0.0026666,-1.521,0.0097774,0.025702,8.3633e-07,0.88,0.16,0
0.044625,0.0029506,0.026934,-0.00025012,0.0026684,-0.00061332,0,0,0.053385,-0.0064207,0,-0.0026986,0,0,0,0.026948,-0.00026395,0.0026684,-1.2918,0.0097842,0.025871,8.509e-07,0.9,0.16,0
0.045695,0.0029886,0.027026,-0.00033685,0.0026689,-0.00050065,0,0,0.053585,-0.0066126,0,-0.0022028,0,0,0,0.027035,-0.00034601,0.0026689,-1.0479,0.0097859,0.026005,8.6241e-07,0.92,0.16,0
0.046768,0.003017,0.027093,-0.00040598,0.0026687,-0.000381,0,0,0.053733,-0.0067642,0,-0.0016764,0,0,0,0.027098,-0.00041125,0.0026687,-0.79363,0.0097851,0.026106,8.7104e-07,0.94,0.16,0
0.047844,0.0030367,0.027138,-0.00045593,0.0026682,-0.00025651,0,0,0.053834,-0.0068732,0,-0.0011286,0,0,0,0.027141,-0.00045832,0.0026682,-0.53255,0.0097835,0.026176,8.7701e-07,0.96,0.16,0
0.048922,0.0030483,0.027165,-0.00048606,0.0026678,-0.00012899,0,0,0.053893,-0.0069386,0,-0.00056754,0,0,0,0.027165,-0.00048666,0.0026678,-0.26727,0.0097821,0.026217,8.8051e-07,0.98,0.16,0
0.05,0.0030521,0.027173,-0.00049612,0.0026677,4.3448e-05,0,0,0.053912,-0.0069604,0,0.00019117,0,0,0,0.027173,-0.00049619,0.0026677,0.08997,0.0097816,0.026231,8.8168e-07,1,0.16,0
0,0,0.027278,0.0030309,0.0030309,0.0019022,0,0,0.053344,3.2526e-19,0,0.0083695,0,0,0,0.027426,0.0028826,0.0030309,4.4585,0.011113,0.02447,7.5244e-07,0,0.18,0
0.0010669,0.00016739,0.027328,0.0027227,0.0030051,0.0019027,0,0,0.053511,-0.00062126,0,0.0083718,0,0,0,0.027475,0.0025765,0.0030051,4.3957,0.011019,0.024687,7.7191e-07,0.02,0.18,0
0.0021404,0.00033375,0.027461,0.0024059,0.0029866,0.0018929,0,0,0.053843,-0.0012777,0,0.0083287,0,0,0,0.027603,0.0022637,0.0029866,4.2962,0.010951,0.024986,7.9884e-07,0.04,0.18,0
0.0032206,0.00049816,0.027585,0.0020825,0.0029667,0.0018712,0,0,0.05416,-0.0019453,0,0.0082333,0,0,0,0.027721,0.0019459,0.0029667,4.1742,0.010878,0.02528,8.2525e-07,0.06,0.18,0
0.0043068,0.00065921,0.027695,0.0017659,0.0029461,0.0018356,0,0,0.054448,-0.0025965,0,0.0080768,0,0,0,0.027824,0.0016366,0.0029461,4.0294,0.010802,0.025558,8.4987e-07,0.08,0.18,0
0.0053985,0.00081528,0.027787,0.0014682,0.0029255,0.0017883,0,0,0.054695,-0.003206,0,0.0078686,0,0,0,0.027908,0.0013472,0.0029255,3.8695,0.010727,0.025808,8.7169e-07,0.1,0.18,0
0.0064946,0.0009648,0.027858,0.0011985,0.0029056,0.0017341,0,0,0.054895,-0.0037557,0,0.0076299,0,0,0,0.02797,0.0010862,0.0029056,3.706,0.010654,0.026022,8.9008e-07,0.12,0.18,0
0.0075943,0.0011064,0.027907,0.00096215,0.0028869,0.0016786,0,0,0.055044,-0.0042344,0,0.0073858,0,0,0,0.028011,0.00085799,0.0028869,3.5511,0.010585,0.026198,9.0479e-07,0.14,0.18,0
0.0086964,0.001239,0.027935,0.00076166,0.0028697,0.0016272,0,0,0.055144,-0.0046377,0,0.0071596,0,0,0,0.028032,0.00066457,0.0028697,3.4146,0.010522,0.026335,9.1586e-07,0.16,0.18,0
0.0098,0.0013617,0.027945,0.00059743,0.0028542,0.0015841,0,0,0.055199,-0.0049649,0,0.00697,0,0,0,0.028036,0.00050598,0.0028542,3.3041,0.010465,0.026434,9.235e-07,0.18,0.18,0
0.010904,0.0014739,0.027936,0.00046882,0.0028405,0.0015521,0,0,0.055211,-0.0052177,0,0.0068295,0,0,0,0.028024,0.00038139,0.0028405,3.224,0.010415,0.026498,9.2792e-07,0.2,0.18,0
0.012009,0.0015749,0.027911,0.0003748,0.0028285,0.001533,0,0,0.055181,-0.0053983,0,0.0067453,0,0,0,0.027996,0.00028972,0.0028285,3.1768,0.010371,0.026528,9.2927e-07,0.22,0.18,0
0.013112,0.0016641,0.027868,0.00031429,0.0028182,0.0015272,0,0,0.055109,-0.0055086,0,0.0067199,0,0,0,0.027952,0.00022989,0.0028182,3.1629,0.010333,0.026523,9.2758e-07,0.24,0.18,0
0.014213,0.001741,0.027806,0.00028617,0.0028092,0.0015345,0,0,0.054992,-0.0055506,0,0.0067516,0,0,0,0.027891,0.00020088,0.0028092,3.1816,0.0103,0.026482,9.2275e-07,0.26,0.18,0
0.015311,0.0018046,0.027721,0.0002891,0.002801,0.0015533,0,0,0.054824,-0.0055262,0,0.0068346,0,0,0,0.027808,0.00020142,0.002801,3.2306,0.01027,0.026403,9.1455e-07,0.28,0.18,0
0.016406,0.0018541,0.027608,0.0003208,0.0027929,0.0015813,0,0,0.054594,-0.0054387,0,0.0069576,0,0,0,0.0277,0.00022947,0.0027929,3.3054,0.010241,0.026283,9.026e-07,0.3,0.18,0
0.017495,0.0018881,0.027462,0.00037672,0.0027839,0.001614,0,0,0.054293,-0.0052958,0,0.0071015,0,0,0,0.027558,0.00028089,0.0027839,3.3981,0.010208,0.026116,8.8656e-07,0.32,0.18,0
0.018578,0.0019046,0.027277,0.00044722,0.0027725,0.0016448,0,0,0.053911,-0.0051155,0,0.0072371,0,0,0,0.027378,0.00034676,0.0027725,3.495,0.010166,0.025904,8.6636e-07,0.34,0.18,0
0.019651,0.0019013,0.027055,0.00051157,0.0027567,0.0016677,0,0,0.053457,-0.0049392,0,0.0073379,0,0,0,0.027159,0.0004072,0.0027567,3.581,0.010108,0.025658,8.431e-07,0.36,0.18,0
0.020716,0.0018761,0.026799,0.00052638,0.0027325,0.0016831,0,0,0.052946,-0.0048535,0,0.0074056,0,0,0,0.026906,0.00041899,0.0027325,3.6506,0.010019,0.02541,8.1909e-07,0.38,0.18,0
0.021769,0.0018275,0.026528,0.00045513,0.0026983,0.0017245,0,0,0.052426,-0.0049351,0,0.0075877,0,0,0,0.026642,0.00034157,0.0026983,3.7677,0.009894,0.025205,7.9818e-07,0.4,0.18,0
0.022813,0.0017581,0.026202,0.000245,0.0026447,0.0018158,0,0,0.051827,-0.0052794,0,0.0079894,0,0,0,0.026329,0.0001186,0.0026447,3.9821,0.0096974,0.025043,7.7902e-07,0.42,0.18,0
0.023842,0.001671,0.0259,1.8501e-05,0.0025919,0.0020904,0,0,0.051278,-0.0056614,0,0.0091979,0,0,0,0.026068,-0.00014925,0.0025919,4.5881,0.0095035,0.02496,7.6625e-07,0.44,0.18,0
0.024864,0.0015811,0.025216,-0.00036683,0.0024849,0.002356,0,0,0.050008,-0.0062738,0,0.010367,0,0,0,0.025431,-0.000582,0.0024849,5.2181,0.0091113,0.024623,7.2681e-07,0.46,0.18,0
0.025843,0.0014799,0.025365,-0.00050853,0.0024857,0.0033482,0,0,0.050335,-0.0065872,0,0.014732,0,0,0,0.025791,-0.00093478,0.0024857,7.2552,0.0091141,0.025191,7.7022e-07,0.48,0.18,0
0.026877,0.0014029,0.028185,0.00014253,0.0028327,0.0031357,0,0,0.039261,-0.004084,0,0.010579,0,0,0,0.028553,-0.00022595,0.0028327,6.5889,0.010387,0.027378,1.1048e-06,0.5,0.18,0
0.027538,0.0013623,0.025493,0.0011239,0.0026617,0.0021964,0,0,0.033486,-0.002475,0,0.0077774,0,0,0,0.025749,0.00086813,0.0026617,5.9838,0.0097596,0.02404,9.0331e-07,0.52,0.18,0
0.028217,0.0013624,0.026082,0.0012878,0.002737,0.0014872,0,0,0.034239,-0.002147,0,0.0051305,0,0,0,0.026192,0.0011775,0.002737,3.9944,0.010035,0.024273,9.5656e-07,0.54,0.18,0
0.028907,0.0013696,0.026419,0.0013725,0.0027792,0.0008229,0,0,0.034672,-0.0020228,0,0.0028216,0,0,0,0.026452,0.0013393,0.0027792,2.1992,0.01019,0.024425,9.8555e-07,0.56,0.18,0
0.029604,0.0013848,0.026556,0.0013958,0.0027951,0.00028388,0,0,0.034849,-0.0019877,0,0.0009615,0,0,0,0.026559,0.001392,0.0027951,0.74911,0.010249,0.024496,9.9815e-07,0.58,0.18,0
0.030301,0.0014077,0.026543,0.0013796,0.0027923,-0.00022254,0,0,0.034835,-0.0020093,0,-0.00078033,0,0,0,0.026546,0.001377,0.0027923,-0.60812,0.010238,0.024492,9.9742e-07,0.6,0.18,0
0.030997,0.0014386,0.026382,0.0013225,0.0027705,-0.00075669,0,0,0.034631,-0.0020899,0,-0.0026253,0,0,0,0.026411,0.0012935,0.0027705,-2.045,0.010159,0.024413,9.8336e-07,0.62,0.18,0
0.031687,0.0014777,0.026019,0.0011987,0.0027218,-0.0014113,0,0,0.034169,-0.0022662,0,-0.0049041,0,0,0,0.02612,0.0010976,0.0027218,-3.8137,0.0099798,0.024251,9.5281e-07,0.64,0.18,0
0.032364,0.0015245,0.025399,0.00098748,0.0026386,-0.0021005,0,0,0.033382,-0.0026594,0,-0.0074919,0,0,0,0.025637,0.00074906,0.0026386,-5.7523,0.009675,0.024006,8.9761e-07,0.66,0.18,0
0.033022,0.0016135,0.028052,-8.2719e-05,0.002797,-0.0029963,0,0,0.03911,-0.0043736,0,-0.010144,0,0,0,0.02839,-0.00042035,0.002797,-6.2988,0.010256,0.027344,1.096e-06,0.68,0.18,0
0.034052,0.001744,0.025242,-0.00075058,0.0024491,-0.0031938,0,0,0.050144,-0.0070394,0,-0.014053,0,0,0,0.025629,-0.0011373,0.0024491,-6.9034,0.0089802,0.025165,7.6276e-07,0.7,0.18,0
0.035028,0.0019012,0.02509,-0.00063708,0.0024453,-0.0021649,0,0,0.049818,-0.0067812,0,-0.0095256,0,0,0,0.025271,-0.00081799,0.0024453,-4.7767,0.008966,0.02462,7.2124e-07,0.72,0.18,0
0.036045,0.0020515,0.025759,-0.00029126,0.0025467,-0.0018449,0,0,0.051066,-0.0062436,0,-0.0081178,0,0,0,0.025888,-0.00042128,0.0025467,-4.0311,0.009338,0.024959,7.6057e-07,0.74,0.18,0
0.03707,0.0022031,0.026046,-9.3752e-05,0.0025952,-0.0015126,0,0,0.051591,-0.0059157,0,-0.0066557,0,0,0,0.026133,-0.000181,0.0025952,-3.3009,0.0095158,0.025042,7.732e-07,0.76,0.18,0
0.038109,0.0023414,0.026353,8.9529e-05,0.0026442,-0.0013584,0,0,0.052159,-0.0056204,0,-0.005977,0,0,0,0.026423,1.9457e-05,0.0026442,-2.953,0.0096956,0.025194,7.9133e-07,0.78,0.18,0
0.039157,0.0024634,0.026604,0.00013446,0.0026738,-0.0012522,0,0,0.052646,-0.0055866,0,-0.0055097,0,0,0,0.026663,7.5357e-05,0.0026738,-2.7025,0.009804,0.025388,8.1086e-07,0.8,0.18,0
0.040215,0.0025661,0.026841,8.7835e-05,0.0026929,-0.0011691,0,0,0.053125,-0.0057311,0,-0.0051439,0,0,0,0.026892,3.6846e-05,0.0026929,-2.4974,0.0098738,0.02563,8.3352e-07,0.82,0.18,0
0.041282,0.0026508,0.027046,-1.768e-05,0.0027029,-0.0010737,0,0,0.053555,-0.0059852,0,-0.0047242,0,0,0,0.027089,-6.0208e-05,0.0027029,-2.2683,0.0099105,0.025878,8.5596e-07,0.84,0.18,0
0.042357,0.0027196,0.027217,-0.00014124,0.0027076,-0.00096254,0,0,0.05392,-0.0062674,0,-0.0042352,0,0,0,0.027251,-0.00017506,0.0027076,-2.0125,0.0099277,0.026104,8.7613e-07,0.86,0.18,0
0.043438,0.002775,0.027351,-0.00026282,0.0027088,-0.00083886,0,0,0.054213,-0.0065376,0,-0.003691,0,0,0,0.027377,-0.00028828,0.0027088,-1.7384,0.0099324,0.026295,8.9297e-07,0.88,0.18,0
0.044525,0.0028189,0.027453,-0.00037252,0.0027081,-0.00070704,0,0,0.05444,-0.0067773,0,-0.003111,0,0,0,0.027471,-0.00039047,0.0027081,-1.4546,0.0099297,0.026449,9.0646e-07,0.9,0.18,0
0.045616,0.0028529,0.027529,-0.00046524,0.0027064,-0.00057,0,0,0.05461,-0.0069776,0,-0.002508,0,0,0,0.027541,-0.00047684,0.0027064,-1.166,0.0099235,0.026569,9.1687e-07,0.92,0.18,0
0.04671,0.0028782,0.027583,-0.00053844,0.0027045,-0.00042968,0,0,0.054734,-0.0071345,0,-0.0018906,0,0,0,0.02759,-0.000545,0.0027045,-0.87517,0.0099165,0.026659,9.2455e-07,0.94,0.18,0
0.047805,0.0028957,0.02762,-0.00059101,0.0027029,-0.00028736,0,0,0.054817,-0.0072465,0,-0.0012644,0,0,0,0.027622,-0.00059393,0.0027029,-0.58356,0.0099104,0.026721,9.298e-07,0.96,0.18,0
0.048902,0.002906,0.02764,-0.00062258,0.0027018,-0.00014393,0,0,0.054864,-0.0073135,0,-0.00063328,0,0,0,0.027641,-0.00062331,0.0027018,-0.29177,0.0099064,0.026757,9.3284e-07,0.98,0.18,0
0.05,0.0029093,0.027647,-0.0006331,0.0027014,3.8366e-05,0,0,0.05488,-0.0073358,0,0.00016881,0,0,0,0.027647,-0.00063315,0.0027014,0.077731,0.009905,0.026769,9.3385e-07,1,0.18,0
0,0,0.027303,0.0030337,0.0030337,0.0017612,0,0,0.053393,-1.3552e-19,0,0.0077493,0,0,0,0.02743,0.0029065,0.0030337,4.129,0.011123,0.02446,7.5159e-07,0,0.2,0
0.0010679,0.00015499,0.027355,0.002725,0.003008,0.0017663,0,0,0.053563,-0.00062257,0,0.0077718,0,0,0,0.027481,0.002599,0.003008,4.0811,0.011029,0.02468,7.7135e-07,0.02,0.2,0
0.0021425,0.00030842,0.027491,0.0024162,0.0029907,0.0017609,0,0,0.0539,-0.001264,0,0.0077479,0,0,0,0.027614,0.0022931,0.0029907,3.9975,0.010966,0.024979,7.9841e-07,0.04,0.2,0
0.0032239,0.00045976,0.027622,0.002105,0.0029727,0.0017487,0,0,0.054228,-0.0019089,0,0.0076941,0,0,0,0.027741,0.0019857,0.0029727,3.9022,0.0109,0.025276,8.2514e-07,0.06,0.2,0
0.0043116,0.00060805,0.027743,0.0018006,0.0029544,0.0017273,0,0,0.054536,-0.0025383,0,0.0076001,0,0,0,0.027858,0.0016861,0.0029544,3.7925,0.010833,0.025561,8.5064e-07,0.08,0.2,0
0.0054053,0.00075208,0.027852,0.0015119,0.0029364,0.0016975,0,0,0.054815,-0.0031339,0,0.0074689,0,0,0,0.027961,0.001403,0.0029364,3.6721,0.010767,0.025826,8.7414e-07,0.1,0.2,0
0.0065042,0.00089064,0.027946,0.0012461,0.0029192,0.0016622,0,0,0.055059,-0.0036807,0,0.0073134,0,0,0,0.028049,0.0011431,0.0029192,3.5486,0.010704,0.026063,8.9507e-07,0.12,0.2,0
0.0076076,0.0010226,0.028023,0.0010085,0.0029032,0.0016255,0,0,0.055265,-0.0041684,0,0.007152,0,0,0,0.028121,0.00091101,0.0029032,3.4309,0.010645,0.02627,9.1314e-07,0.14,0.2,0
0.0087148,0.0011469,0.028085,0.00080196,0.0028887,0.0015917,0,0,0.055432,-0.0045908,0,0.0070036,0,0,0,0.028178,0.00070941,0.0028887,3.3276,0.010592,0.026446,9.2824e-07,0.16,0.2,0
0.0098249,0.0012628,0.028132,0.00062813,0.002876,0.0015649,0,0,0.055562,-0.0049452,0,0.0068856,0,0,0,0.02822,0.00053937,0.002876,3.2461,0.010545,0.02659,9.4042e-07,0.18,0.2,0
0.010937,0.0013695,0.028163,0.00048743,0.0028651,0.0015482,0,0,0.055656,-0.0052308,0,0.0068122,0,0,0,0.02825,0.00040109,0.0028651,3.1919,0.010505,0.026702,9.4979e-07,0.2,0.2,0
0.012051,0.0014665,0.028181,0.00037981,0.0028561,0.001544,0,0,0.055716,-0.0054479,0,0.0067938,0,0,0,0.028267,0.00029432,0.0028561,3.1691,0.010472,0.026784,9.5643e-07,0.22,0.2,0
0.013166,0.0015532,0.028185,0.00030503,0.002849,0.001554,0,0,0.055739,-0.0055968,0,0.0068377,0,0,0,0.028272,0.00021867,0.002849,3.1805,0.010446,0.026835,9.6036e-07,0.24,0.2,0
0.014281,0.0016289,0.028173,0.00026272,0.0028436,0.0015791,0,0,0.055725,-0.0056779,0,0.0069481,0,0,0,0.028262,0.00017366,0.0028436,3.2279,0.010427,0.026853,9.6147e-07,0.26,0.2,0
0.015395,0.0016927,0.028143,0.00025238,0.0028395,0.0016196,0,0,0.055668,-0.0056917,0,0.0071261,0,0,0,0.028237,0.00015865,0.0028395,3.3122,0.010412,0.026838,9.5953e-07,0.28,0.2,0
0.016508,0.0017437,0.028089,0.00027292,0.0028362,0.0016746,0,0,0.055557,-0.0056393,0,0.0073683,0,0,0,0.02819,0.00017246,0.0028362,3.4328,0.0104,0.026785,9.5411e-07,0.3,0.2,0
0.017617,0.0017803,0.028004,0.0003219,0.0028326,0.0017417,0,0,0.055378,-0.0055236,0,0.0076637,0,0,0,0.028113,0.00021275,0.0028326,3.5861,0.010386,0.026687,9.4457e-07,0.32,0.2,0
0.018723,0.0018005,0.027878,0.0003934,0.0028271,0.0018148,0,0,0.055112,-0.0053542,0,0.0079852,0,0,0,0.027997,0.00027408,0.0028271,3.7615,0.010366,0.026539,9.301e-07,0.34,0.2,0
0.019822,0.001801,0.027702,0.00047244,0.0028174,0.0018802,0,0,0.054745,-0.0051589,0,0.0082731,0,0,0,0.027831,0.00034321,0.0028174,3.9316,0.01033,0.026338,9.1047e-07,0.36,0.2,0
0.020912,0.0017774,0.027497,0.00051612,0.0028013,0.00193,0,0,0.05433,-0.0050274,0,0.0084921,0,0,0,0.027634,0.00037876,0.0028013,4.0709,0.010271,0.026129,8.8967e-07,0.38,0.2,0
0.021995,0.0017268,0.027254,0.00039726,0.0027651,0.0019641,0,0,0.053875,-0.0052093,0,0.008642,0,0,0,0.027397,0.00025439,0.0027651,4.1607,0.010139,0.025978,8.7213e-07,0.4,0.2,0
0.023067,0.001647,0.027098,0.00013507,0.0027233,0.002129,0,0,0.053623,-0.005694,0,0.0093677,0,0,0,0.027265,-3.2003e-05,0.0027233,4.4872,0.0099853,0.026029,8.7156e-07,0.42,0.2,0
0.02414,0.0015523,0.026655,-0.00042852,0.0026227,0.0022849,0,0,0.052872,-0.0067126,0,0.010053,0,0,0,0.026847,-0.00061993,0.0026227,4.7886,0.0096164,0.025997,8.5528e-07,0.44,0.2,0
0.025182,0.001438,0.027229,-0.00080115,0.0026427,0.0031403,0,0,0.054089,-0.0075765,0,0.013817,0,0,0,0.027576,-0.0011486,0.0026427,6.3147,0.0096901,0.027029,9.4727e-07,0.46,0.2,0
0.026303,0.0013379,0.031338,1.9898e-05,0.0031358,0.0027012,0,0,0.043463,-0.0049321,0,0.0093666,0,0,0,0.031597,-0.00023843,0.0031358,5.1995,0.011498,0.030291,1.5119e-06,0.48,0.2,0
0.027047,0.0013295,0.025578,0.00049445,0.0026073,0.001203,0,0,0.034559,-0.0032413,0,0.0046597,0,0,0,0.025673,0.00039986,0.0026073,3.3106,0.0095599,0.024245,8.5193e-07,0.5,0.2,0
0.027634,0.001326,0.031066,0.0016519,0.0032718,0.0011717,0,0,0.030574,-0.0017819,0,0.0025778,0,0,0,0.031113,0.0016053,0.0032718,2.2775,0.011997,0.028711,1.2017e-06,0.52,0.2,0
0.02827,0.0013207,0.032889,0.0017731,0.0034662,0.00081343,0,0,0.032365,-0.0018624,0,0.0017895,0,0,0,0.03291,0.0017518,0.0034662,1.4965,0.012709,0.030337,1.4186e-06,0.54,0.2,0
0.028928,0.0013267,0.033696,0.0017996,0.0035496,0.00052246,0,0,0.033161,-0.001925,0,0.0011494,0,0,0,0.033705,0.001791,0.0035496,0.93816,0.013015,0.031072,1.5241e-06,0.56,0.2,0
0.029596,0.0013411,0.033996,0.0017941,0.003579,0.00020298,0,0,0.033459,-0.0019634,0,0.00044656,0,0,0,0.033997,0.0017928,0.003579,0.36114,0.013123,0.031349,1.5651e-06,0.58,0.2,0
0.030266,0.0013638,0.03398,0.0017754,0.0035756,-0.00011375,0,0,0.033445,-0.0019801,0,-0.00025025,0,0,0,0.033981,0.001775,0.0035756,-0.20237,0.01311,0.031344,1.564e-06,0.6,0.2,0
0.030934,0.0013947,0.03365,0.0017421,0.0035392,-0.00042846,0,0,0.033121,-0.0019768,0,-0.00094262,0,0,0,0.033655,0.0017364,0.0035392,-0.7692,0.012977,0.031057,1.521e-06,0.62,0.2,0
0.031591,0.0014343,0.032813,0.0016716,0.0034485,-0.00070913,0,0,0.032301,-0.0019545,0,-0.0015601,0,0,0,0.032829,0.0016555,0.0034485,-1.3038,0.012644,0.030317,1.4143e-06,0.64,0.2,0
0.032226,0.0014856,0.030974,0.0014958,0.003247,-0.0010603,0,0,0.0305,-0.0019263,0,-0.0023326,0,0,0,0.031012,0.0014577,0.003247,-2.0572,0.011906,0.028702,1.1984e-06,0.66,0.2,0
0.032811,0.001535,0.025479,0.00031316,0.0025792,-0.001093,0,0,0.034448,-0.0034734,0,-0.0043283,0,0,0,0.025563,0.00022872,0.0025792,-3.0547,0.009457,0.024245,8.4953e-07,0.68,0.2,0
0.033552,0.0015916,0.031191,-0.00029507,0.0030896,-0.0025196,0,0,0.043305,-0.0053435,0,-0.0087967,0,0,0,0.031418,-0.00052209,0.0030896,-4.8515,0.011329,0.030298,1.5048e-06,0.7,0.2,0
0.034669,0.0017472,0.027097,-0.0011346,0.0025962,-0.0029348,0,0,0.053901,-0.0082078,0,-0.012913,0,0,0,0.027399,-0.0014365,0.0025962,-5.8726,0.0095194,0.027045,9.4029e-07,0.72,0.2,0
0.035708,0.0019199,0.026527,-0.00079248,0.0025735,-0.0020325,0,0,0.052698,-0.0074051,0,-0.008943,0,0,0,0.026678,-0.00094287,0.0025735,-4.2316,0.0094361,0.026041,8.5149e-07,0.74,0.2,0
0.036777,0.002078,0.026958,-0.00026901,0.0026689,-0.0018113,0,0,0.053437,-0.0064635,0,-0.0079699,0,0,0,0.027078,-0.00038898,0.0026689,-3.7894,0.0097862,0.026073,8.6829e-07,0.76,0.2,0
0.037846,0.0022257,0.027106,-3.2234e-05,0.0027074,-0.001583,0,0,0.053677,-0.0060271,0,-0.0069652,0,0,0,0.027198,-0.00012426,0.0027074,-3.3271,0.009927,0.026022,8.6898e-07,0.78,0.2,0
0.038924,0.0023486,0.027338,5.9691e-05,0.0027398,-0.0014845,0,0,0.054117,-0.0058962,0,-0.006532,0,0,0,0.027419,-2.0861e-05,0.0027398,-3.1059,0.010046,0.026169,8.8595e-07,0.8,0.2,0
0.04001,0.0024484,0.027536,-1.7711e-05,0.0027519,-0.0013708,0,0,0.054526,-0.0060931,0,-0.0060314,0,0,0,0.027604,-8.5737e-05,0.0027519,-2.841,0.01009,0.026386,9.0681e-07,0.82,0.2,0
0.041105,0.0025276,0.027711,-0.00014411,0.0027567,-0.0012373,0,0,0.0549,-0.0063818,0,-0.0054444,0,0,0,0.027766,-0.00019896,0.0027567,-2.5384,0.010108,0.026611,9.2769e-07,0.84,0.2,0
0.042206,0.0025906,0.027843,-0.00027855,0.0027565,-0.0010883,0,0,0.055191,-0.006677,0,-0.0047885,0,0,0,0.027885,-0.0003206,0.0027565,-2.2129,0.010107,0.0268,9.4483e-07,0.86,0.2,0
0.043313,0.0026405,0.027939,-0.00040603,0.0027533,-0.00093352,0,0,0.055408,-0.0069504,0,-0.0041075,0,0,0,0.027969,-0.00043674,0.0027533,-1.8843,0.010095,0.026953,9.5831e-07,0.88,0.2,0
0.044423,0.0026795,0.028007,-0.00051902,0.0027488,-0.00077689,0,0,0.055568,-0.0071892,0,-0.0034183,0,0,0,0.028028,-0.00054016,0.0027488,-1.5589,0.010079,0.027074,9.6873e-07,0.9,0.2,0
0.045535,0.0027095,0.028055,-0.00061346,0.0027442,-0.00062006,0,0,0.055685,-0.0073868,0,-0.0027283,0,0,0,0.028069,-0.00062686,0.0027442,-1.2385,0.010062,0.027167,9.7659e-07,0.92,0.2,0
0.04665,0.0027316,0.028088,-0.00068739,0.0027401,-0.00046384,0,0,0.055766,-0.0075405,0,-0.0020409,0,0,0,0.028096,-0.00069487,0.0027401,-0.92323,0.010047,0.027236,9.8226e-07,0.94,0.2,0
0.047766,0.0027469,0.02811,-0.00074016,0.0027369,-0.00030851,0,0,0.05582,-0.0076496,0,-0.0013575,0,0,0,0.028113,-0.00074345,0.0027369,-0.61261,0.010035,0.027283,9.8607e-07,0.96,0.2,0
0.048883,0.0027558,0.028121,-0.00077171,0.002735,-0.00015401,0,0,0.05585,-0.0077147,0,-0.00067767,0,0,0,0.028122,-0.00077253,0.002735,-0.3054,0.010028,0.02731,9.8825e-07,0.98,0.2,0
0.05,0.0027587,0.028125,-0.0007822,0.0027343,3.3309e-05,0,0,0.05586,-0.0077363,0,0.00014656,0,0,0,0.028125,-0.00078224,0.0027343,0.066021,0.010026,0.027319,9.8896e-07,1,0.2,0
0,0,0.027341,0.0030379,0.0030379,0.0016192,0,0,0.053466,-2.7105e-20,0,0.0071244,0,0,0,0.027448,0.0029305,0.0030379,3.795,0.011139,0.024464,7.5195e-07,0,0.22,0
0.0010693,0.00014249,0.027394,0.002726,0.003012,0.0016267,0,0,0.05364,-0.00062908,0,0.0071575,0,0,0,0.027501,0.0026192,0.003012,3.7567,0.011044,0.024687,7.721e-07,0.02,0.22,0
0.0021456,0.00028319,0.027534,0.002421,0.0029955,0.001624,0,0,0.053985,-0.0012639,0,0.0071458,0,0,0,0.027639,0.0023164,0.0029955,3.6848,0.010984,0.02499,7.995e-07,0.04,0.22,0
0.0032287,0.00042181,0.027671,0.0021175,0.0029789,0.0016179,0,0,0.054323,-0.0018951,0,0.0071187,0,0,0,0.027773,0.0020154,0.0029789,3.6084,0.010922,0.02529,8.2667e-07,0.06,0.22,0
0.0043185,0.00055768,0.027803,0.0018215,0.0029624,0.0016059,0,0,0.054648,-0.0025099,0,0.0070657,0,0,0,0.027901,0.0017227,0.0029624,3.5235,0.010862,0.025581,8.5299e-07,0.08,0.22,0
0.0054147,0.00068992,0.027926,0.0015395,0.0029465,0.001588,0,0,0.054954,-0.0030955,0,0.006987,0,0,0,0.028021,0.0014443,0.0029465,3.4316,0.010804,0.025858,8.7792e-07,0.1,0.22,0
0.0065167,0.00081757,0.028039,0.0012771,0.0029316,0.001566,0,0,0.055236,-0.00364,0,0.0068904,0,0,0,0.02813,0.0011857,0.0029316,3.3376,0.010749,0.026115,9.01e-07,0.12,0.22,0
0.0076241,0.00093967,0.028141,0.0010386,0.002918,0.001543,0,0,0.055491,-0.0041346,0,0.0067893,0,0,0,0.028229,0.00095106,0.002918,3.248,0.010699,0.026349,9.2195e-07,0.14,0.22,0
0.0087363,0.0010554,0.028233,0.00082734,0.002906,0.0015225,0,0,0.055719,-0.004573,0,0.006699,0,0,0,0.028317,0.00074302,0.002906,3.1701,0.010655,0.026559,9.4065e-07,0.16,0.22,0
0.0098528,0.0011639,0.028313,0.00064515,0.0028959,0.001508,0,0,0.055919,-0.0049516,0,0.0066353,0,0,0,0.028395,0.0005632,0.0028959,3.1106,0.010618,0.026742,9.5708e-07,0.18,0.22,0
0.010973,0.0012646,0.028385,0.00049316,0.0028878,0.0015028,0,0,0.056093,-0.0052681,0,0.0066124,0,0,0,0.028465,0.00041242,0.0028878,3.0753,0.010589,0.026901,9.7131e-07,0.2,0.22,0
0.012096,0.0013569,0.028446,0.00037199,0.0028818,0.0015097,0,0,0.056242,-0.0055217,0,0.0066425,0,0,0,0.028527,0.00029104,0.0028818,3.0692,0.010567,0.027034,9.834e-07,0.22,0.22,0
0.013223,0.0014402,0.0285,0.00028196,0.0028782,0.0015309,0,0,0.056367,-0.0057117,0,0.0067359,0,0,0,0.028583,0.00019915,0.0028782,3.0964,0.010553,0.027143,9.9342e-07,0.24,0.22,0
0.014351,0.0015138,0.028544,0.00022325,0.0028767,0.0015684,0,0,0.056468,-0.0058376,0,0.0069009,0,0,0,0.02863,0.00013666,0.0028767,3.1601,0.010548,0.027228,1.0014e-06,0.26,0.22,0
0.015482,0.001577,0.028578,0.00019584,0.0028774,0.0016237,0,0,0.056542,-0.0058994,0,0.0071441,0,0,0,0.028671,0.00010325,0.0028774,3.2635,0.010551,0.027286,1.0071e-06,0.28,0.22,0
0.016613,0.0016286,0.0286,0.00019936,0.0028799,0.0016978,0,0,0.056584,-0.0058972,0,0.0074705,0,0,0,0.028701,9.8216e-05,0.0028799,3.4091,0.01056,0.027318,1.0106e-06,0.3,0.22,0
0.017745,0.0016671,0.028603,0.00023274,0.0028836,0.0017913,0,0,0.056583,-0.0058318,0,0.0078818,0,0,0,0.028716,0.00012008,0.0028836,3.5987,0.010573,0.027319,1.0111e-06,0.32,0.22,0
0.018876,0.0016904,0.028576,0.00029348,0.002887,0.0019023,0,0,0.056516,-0.0057057,0,0.00837,0,0,0,0.028704,0.00016611,0.002887,3.8306,0.010586,0.027279,1.0077e-06,0.34,0.22,0
0.020005,0.001695,0.028495,0.00037452,0.0028869,0.0020217,0,0,0.056337,-0.0055273,0,0.0088956,0,0,0,0.028639,0.00022991,0.0028869,4.0913,0.010585,0.027178,9.9793e-07,0.36,0.22,0
0.02113,0.001675,0.028332,0.00045745,0.002879,0.0021129,0,0,0.055997,-0.0053273,0,0.0092966,0,0,0,0.028491,0.0002982,0.002879,4.3101,0.010556,0.026995,9.7933e-07,0.38,0.22,0
0.022245,0.0016191,0.028233,0.00043445,0.0028668,0.002194,0,0,0.055807,-0.0053511,0,0.0096536,0,0,0,0.028405,0.00026236,0.0028668,4.485,0.010512,0.026936,9.7211e-07,0.4,0.22,0
0.023362,0.0015303,0.027866,-0.00013408,0.0027732,0.0021862,0,0,0.055205,-0.0063961,0,0.0096195,0,0,0,0.028036,-0.00030376,0.0027732,4.4377,0.010169,0.026934,9.5946e-07,0.42,0.22,0
0.024454,0.0014025,0.028565,-0.00077622,0.0027788,0.0028862,0,0,0.056729,-0.0078211,0,0.0127,0,0,0,0.028846,-0.0010574,0.0027788,5.5651,0.010189,0.028182,1.0781e-06,0.44,0.22,0
0.025631,0.0012781,0.032927,-3.8734e-05,0.0032888,0.0022061,0,0,0.04567,-0.0053257,0,0.007864,0,0,0,0.033101,-0.0002129,0.0032888,4.1103,0.012059,0.031711,1.7369e-06,0.46,0.22,0
0.026412,0.0012609,0.026535,0.00063226,0.0027167,0.0004645,0,0,0.035967,-0.0032544,0,0.0021712,0,0,0,0.026563,0.00060415,0.0027167,1.426,0.0099614,0.024971,9.2604e-07,0.48,0.22,0
0.027008,0.0012818,0.031383,0.001229,0.0032612,-0.00026167,0,0,0.030934,-0.0022354,0,-0.00057567,0,0,0,0.031385,0.0012267,0.0032612,-0.49715,0.011958,0.029194,1.2571e-06,0.5,0.22,0
0.02765,0.001291,0.032499,0.0016275,0.0034127,0.00010249,0,0,0.031995,-0.0019637,0,0.00022548,0,0,0,0.0325,0.0016271,0.0034127,0.19021,0.012513,0.030019,1.3728e-06,0.52,0.22,0
0.028288,0.0012879,0.032617,0.0019169,0.0034534,0.00014856,0,0,0.03208,-0.0016901,0,0.00032684,0,0,0,0.032618,0.0019162,0.0034534,0.27726,0.012663,0.029963,1.3693e-06,0.54,0.22,0
0.028933,0.0012926,0.032971,0.0019896,0.003496,0.00016993,0,0,0.032422,-0.0016571,0,0.00037386,0,0,0,0.032972,0.0019887,0.003496,0.31426,0.012819,0.030257,1.4108e-06,0.56,0.22,0
0.029584,0.0013062,0.033172,0.002005,0.0035177,0.0001046,0,0,0.03262,-0.001664,0,0.00023011,0,0,0,0.033173,0.0020047,0.0035177,0.19228,0.012898,0.03044,1.4365e-06,0.58,0.22,0
0.030238,0.0013285,0.033158,0.0019839,0.0035142,1.3391e-05,0,0,0.032609,-0.0016834,0,2.9461e-05,0,0,0,0.033158,0.0019839,0.0035142,0.024612,0.012885,0.030438,1.436e-06,0.6,0.22,0
0.030889,0.0013595,0.032929,0.0019249,0.0034854,-4.7244e-05,0,0,0.032388,-0.0017165,0,-0.00010394,0,0,0,0.032929,0.0019249,0.0034854,-0.087307,0.01278,0.030254,1.4095e-06,0.62,0.22,0
0.031533,0.0013995,0.03255,0.0018046,0.0034355,-1.8764e-05,0,0,0.032026,-0.001794,0,-4.128e-05,0,0,0,0.032551,0.0018046,0.0034355,-0.034967,0.012597,0.029964,1.3679e-06,0.64,0.22,0
0.03217,0.0014475,0.032405,0.0014575,0.0033862,3.7166e-05,0,0,0.031921,-0.0021216,0,8.1765e-05,0,0,0,0.032405,0.0014575,0.0033862,0.068808,0.012416,0.03003,1.3715e-06,0.66,0.22,0
0.03281,0.0014835,0.031276,0.0010082,0.0032284,0.00040126,0,0,0.030852,-0.0024422,0,0.00088277,0,0,0,0.031281,0.0010029,0.0032284,0.7594,0.011838,0.029229,1.2575e-06,0.68,0.22,0
0.033404,0.0015075,0.026429,0.00038058,0.0026809,-0.00032555,0,0,0.035858,-0.0035818,0,-0.0017501,0,0,0,0.026452,0.00035683,0.0026809,-1.1141,0.0098301,0.025015,9.2708e-07,0.7,0.22,0
0.034183,0.0015729,0.032773,-0.00047279,0.00323,-0.0019784,0,0,0.045524,-0.0058997,0,-0.0071448,0,0,0,0.032917,-0.0006165,0.00323,-3.689,0.011843,0.031787,1.7364e-06,0.72,0.22,0
0.035356,0.0017553,0.028437,-0.0012225,0.0027215,-0.002624,0,0,0.056575,-0.0086767,0,-0.011545,0,0,0,0.028668,-0.0014528,0.0027215,-5.017,0.0099787,0.028265,1.075e-06,0.74,0.22,0
0.036446,0.0019445,0.027749,-0.000601,0.0027148,-0.0018665,0,0,0.055076,-0.0072949,0,-0.0082124,0,0,0,0.027872,-0.00072335,0.0027148,-3.7505,0.0099545,0.027041,9.6036e-07,0.76,0.22,0
0.03756,0.0021003,0.02811,-6.1057e-05,0.0028049,-0.0018042,0,0,0.055671,-0.0063051,0,-0.0079387,0,0,0,0.028225,-0.00017614,0.0028049,-3.6497,0.010285,0.027034,9.7328e-07,0.78,0.22,0
0.038673,0.0022275,0.02821,-5.7383e-05,0.0028152,-0.0016647,0,0,0.055868,-0.0063198,0,-0.0073245,0,0,0,0.028307,-0.00015508,0.0028152,-3.3587,0.010323,0.0271,9.8088e-07,0.8,0.22,0
0.039794,0.0023223,0.028378,-0.00017552,0.0028203,-0.0015165,0,0,0.056228,-0.0065908,0,-0.0066725,0,0,0,0.028459,-0.00025583,0.0028203,-3.0316,0.010341,0.027307,1.0012e-06,0.82,0.22,0
0.040922,0.0023955,0.028477,-0.00030978,0.0028168,-0.0013376,0,0,0.056453,-0.0068784,0,-0.0058854,0,0,0,0.028539,-0.0003718,0.0028168,-2.6546,0.010328,0.027456,1.0148e-06,0.84,0.22,0
0.042052,0.0024525,0.028531,-0.00044498,0.0028086,-0.0011579,0,0,0.056588,-0.0071578,0,-0.0050949,0,0,0,0.028577,-0.00049118,0.0028086,-2.2848,0.010298,0.027567,1.0241e-06,0.86,0.22,0
0.043185,0.002497,0.028562,-0.00057154,0.002799,-0.00098214,0,0,0.056678,-0.0074152,0,-0.0043214,0,0,0,0.028595,-0.00060461,0.002799,-1.9286,0.010263,0.027655,1.031e-06,0.88,0.22,0
0.04432,0.0025314,0.02858,-0.00068296,0.0027897,-0.00081013,0,0,0.056739,-0.0076399,0,-0.0035646,0,0,0,0.028603,-0.00070537,0.0027897,-1.5846,0.010229,0.027726,1.0363e-06,0.9,0.22,0
0.045455,0.0025575,0.02859,-0.00077522,0.0027815,-0.00064188,0,0,0.056779,-0.0078248,0,-0.0028242,0,0,0,0.028604,-0.00078925,0.0027815,-1.2516,0.010199,0.027781,1.0401e-06,0.92,0.22,0
0.046591,0.0025766,0.028595,-0.0008468,0.0027748,-0.00047734,0,0,0.056804,-0.0079675,0,-0.0021003,0,0,0,0.028603,-0.00085453,0.0027748,-0.92861,0.010174,0.027821,1.0427e-06,0.94,0.22,0
0.047727,0.0025897,0.028596,-0.00089749,0.0027699,-0.00031612,0,0,0.056818,-0.0080682,0,-0.0013909,0,0,0,0.0286,-0.00090088,0.0027699,-0.61401,0.010156,0.027847,1.0444e-06,0.96,0.22,0
0.048863,0.0025974,0.028597,-0.00092766,0.0027669,-0.0001574,0,0,0.056825,-0.008128,0,-0.00069255,0,0,0,0.028597,-0.0009285,0.0027669,-0.30544,0.010145,0.027862,1.0453e-06,0.98,0.22,0
0.05,0.0025999,0.028596,-0.00093766,0.0027659,2.8548e-05,0,0,0.056827,-0.0081478,0,0.00012561,0,0,0,0.028596,-0.00093769,0.0027659,0.055383,0.010141,0.027867,1.0456e-06,1,0.22,0
0,0,0.027383,0.0030425,0.0030425,0.0014753,0,0,0.053549,1.0842e-19,0,0.0064911,0,0,0,0.027472,0.0029534,0.0030425,3.4558,0.011156,0.024474,7.5288e-07,0,0.24,0
0.001071,0.00012982,0.027437,0.0027263,0.0030164,0.0014835,0,0,0.053726,-0.00063807,0,0.0065274,0,0,0,0.027526,0.0026376,0.0030164,3.4233,0.01106,0.024701,7.7345e-07,0.02,0.24,0
0.002149,0.00025786,0.027582,0.0024226,0.0030004,0.0014824,0,0,0.054079,-0.0012713,0,0.0065226,0,0,0,0.027669,0.0023356,0.0030004,3.3604,0.011002,0.025007,8.0131e-07,0.04,0.24,0
0.0032341,0.00038396,0.027725,0.0021237,0.0029849,0.0014797,0,0,0.054428,-0.0018945,0,0.0065107,0,0,0,0.02781,0.0020385,0.0029849,3.2969,0.010944,0.025312,8.2897e-07,0.06,0.24,0
0.0043261,0.00050765,0.027865,0.0018335,0.0029698,0.0014732,0,0,0.054769,-0.0024999,0,0.0064822,0,0,0,0.027948,0.0017504,0.0029698,3.2289,0.010889,0.02561,8.5605e-07,0.08,0.24,0
0.0054249,0.00062826,0.028,0.0015564,0.0029557,0.0014627,0,0,0.055098,-0.0030785,0,0.0064357,0,0,0,0.028081,0.0014757,0.0029557,3.1563,0.010837,0.025897,8.8221e-07,0.1,0.24,0
0.0065301,0.00074504,0.02813,0.0012965,0.0029427,0.0014491,0,0,0.055413,-0.0036216,0,0.0063762,0,0,0,0.028209,0.0012185,0.0029427,3.0823,0.01079,0.02617,9.0712e-07,0.12,0.24,0
0.0076414,0.00085719,0.028254,0.0010575,0.0029312,0.0014349,0,0,0.055711,-0.0041221,0,0.0063135,0,0,0,0.02833,0.00098202,0.0029312,3.0117,0.010748,0.026427,9.3056e-07,0.14,0.24,0
0.0087585,0.00096397,0.028372,0.00084223,0.0029214,0.0014227,0,0,0.055992,-0.0045743,0,0.0062601,0,0,0,0.028446,0.0007689,0.0029214,2.9506,0.010712,0.026666,9.5245e-07,0.16,0.24,0
0.0098811,0.0010647,0.028485,0.00065271,0.0029137,0.0014158,0,0,0.056256,-0.0049743,0,0.0062296,0,0,0,0.028556,0.00058087,0.0029137,2.9047,0.010684,0.026885,9.7278e-07,0.18,0.24,0
0.011009,0.0011588,0.028593,0.00049036,0.0029083,0.0014172,0,0,0.056505,-0.0053194,0,0.0062356,0,0,0,0.028664,0.00041908,0.0029083,2.8796,0.010664,0.027086,9.9161e-07,0.2,0.24,0
0.012141,0.0012457,0.028697,0.00035621,0.0029053,0.0014296,0,0,0.056742,-0.0056081,0,0.0062903,0,0,0,0.028769,0.00028428,0.0029053,2.8804,0.010653,0.027269,1.0091e-06,0.22,0.24,0
0.013279,0.0013247,0.0288,0.00025099,0.0029051,0.0014556,0,0,0.056969,-0.005839,0,0.0064049,0,0,0,0.028874,0.00017696,0.0029051,2.9113,0.010652,0.027435,1.0253e-06,0.24,0.24,0
0.01442,0.0013954,0.028902,0.00017523,0.0029077,0.0014974,0,0,0.057188,-0.0060115,0,0.0065888,0,0,0,0.02898,9.7383e-05,0.0029077,2.9759,0.010662,0.027585,1.0404e-06,0.26,0.24,0
0.015566,0.0014567,0.029006,0.00012922,0.0029135,0.0015569,0,0,0.057402,-0.0061253,0,0.0068503,0,0,0,0.029089,4.5525e-05,0.0029135,3.0773,0.010683,0.027721,1.0547e-06,0.28,0.24,0
0.016716,0.0015078,0.029112,0.00011282,0.0029225,0.0016357,0,0,0.057617,-0.0061812,0,0.0071972,0,0,0,0.029204,2.0846e-05,0.0029225,3.2182,0.010716,0.027846,1.0684e-06,0.3,0.24,0
0.017871,0.001547,0.029223,0.00012517,0.0029348,0.0017357,0,0,0.057834,-0.0061812,0,0.0076373,0,0,0,0.029326,2.2001e-05,0.0029348,3.4017,0.010761,0.027962,1.0819e-06,0.32,0.24,0
0.01903,0.0015722,0.02934,0.00016449,0.0029504,0.0018591,0,0,0.058056,-0.006129,0,0.0081802,0,0,0,0.029458,4.6499e-05,0.0029504,3.6315,0.010818,0.028072,1.0953e-06,0.34,0.24,0
0.020193,0.0015799,0.029452,0.00022826,0.0029681,0.0020079,0,0,0.058266,-0.0060276,0,0.0088347,0,0,0,0.02959,9.0951e-05,0.0029681,3.9121,0.010883,0.028171,1.1079e-06,0.36,0.24,0
0.02136,0.0015643,0.029489,0.0003055,0.0029794,0.0021704,0,0,0.058321,-0.0058826,0,0.0095499,0,0,0,0.029649,0.00014497,0.0029794,4.2302,0.010925,0.028194,1.1119e-06,0.38,0.24,0
0.022526,0.0015127,0.029192,0.00038409,0.0029576,0.0022607,0,0,0.057716,-0.0056618,0,0.0099472,0,0,0,0.029368,0.00020776,0.0029576,4.4599,0.010845,0.027888,1.0775e-06,0.4,0.24,0
0.023669,0.0013912,0.029963,-0.00015048,0.0029812,0.0026724,0,0,0.059359,-0.0068898,0,0.011759,0,0,0,0.030198,-0.00038581,0.0029812,5.0324,0.010931,0.029047,1.2019e-06,0.42,0.24,0
0.0249,0.0012395,0.034566,-0.00010101,0.0034465,0.0019417,0,0,0.047917,-0.0056242,0,0.0069877,0,0,0,0.034699,-0.00023316,0.0034465,3.4784,0.012637,0.033246,2.0109e-06,0.44,0.24,0
0.025722,0.0011983,0.027746,0.00072223,0.0028468,6.8189e-05,0,0,0.037662,-0.0033345,0,0.00077032,0,0,0,0.027756,0.00071175,0.0028468,0.42261,0.010438,0.026044,1.0477e-06,0.46,0.24,0
0.026338,0.0012195,0.032278,0.0014839,0.0033762,-0.00058747,0,0,0.031792,-0.0020815,0,-0.0012924,0,0,0,0.032289,0.0014727,0.0033762,-1.0925,0.012379,0.02991,1.3555e-06,0.48,0.24,0
0.026994,0.0012401,0.032948,0.0013949,0.0034343,-0.00010415,0,0,0.032466,-0.0022434,0,-0.00022913,0,0,0,0.032949,0.0013946,0.0034343,-0.18912,0.012593,0.030585,1.4475e-06,0.5,0.24,0
0.027637,0.0012474,0.032676,0.0014651,0.0034141,-0.00018194,0,0,0.032188,-0.0021439,0,-0.00040028,0,0,0,0.032677,0.0014641,0.0034141,-0.33399,0.012518,0.030285,1.4067e-06,0.52,0.24,0
0.028281,0.0012531,0.032731,0.0018046,0.0034536,-9.2604e-05,0,0,0.032205,-0.0018139,0,-0.00020373,0,0,0,0.032732,0.0018043,0.0034536,-0.17156,0.012663,0.030137,1.3916e-06,0.54,0.24,0
0.028925,0.0012604,0.032752,0.00198,0.0034732,-1.6573e-05,0,0,0.032206,-0.0016425,0,-3.6461e-05,0,0,0,0.032752,0.00198,0.0034732,-0.030859,0.012735,0.030053,1.3825e-06,0.56,0.24,0
0.029569,0.0012746,0.032794,0.0020354,0.0034829,4.64e-05,0,0,0.032242,-0.0015923,0,0.00010208,0,0,0,0.032794,0.0020353,0.0034829,0.086432,0.012771,0.030061,1.3843e-06,0.58,0.24,0
0.030214,0.0012964,0.032783,0.0020115,0.0034795,9.5579e-05,0,0,0.032234,-0.0016148,0,0.00021027,0,0,0,0.032784,0.0020112,0.0034795,0.17796,0.012758,0.030065,1.3845e-06,0.6,0.24,0
0.030859,0.0013261,0.032719,0.0019077,0.0034626,0.00016365,0,0,0.032182,-0.0017105,0,0.00036003,0,0,0,0.03272,0.0019068,0.0034626,0.30431,0.012696,0.030065,1.3832e-06,0.62,0.24,0
0.031502,0.0013626,0.032674,0.0016821,0.0034356,0.00024824,0,0,0.032162,-0.0019289,0,0.00054613,0,0,0,0.032676,0.0016801,0.0034356,0.4589,0.012597,0.030156,1.3924e-06,0.64,0.24,0
0.032145,0.0014008,0.032593,0.0012914,0.0033884,0.00034485,0,0,0.032125,-0.0023067,0,0.00075868,0,0,0,0.032597,0.0012876,0.0033884,0.63114,0.012424,0.030313,1.4074e-06,0.66,0.24,0
0.032787,0.0014373,0.032836,0.0011587,0.0033994,0.0002756,0,0,0.03238,-0.0024648,0,0.00060632,0,0,0,0.032838,0.0011563,0.0033994,0.49844,0.012465,0.030622,1.4481e-06,0.68,0.24,0
0.03344,0.0014608,0.032157,0.0011843,0.0033341,0.00075241,0,0,0.031705,-0.0023648,0,0.0016553,0,0,0,0.032175,0.001166,0.0033341,1.3908,0.012225,0.029984,1.3601e-06,0.7,0.24,0
0.034055,0.0014831,0.027639,0.0003753,0.0028015,9.8553e-05,0,0,0.03757,-0.003792,0,-0.00025915,0,0,0,0.02765,0.00036492,0.0028015,-0.066492,0.010272,0.026152,1.0544e-06,0.72,0.24,0
0.034875,0.0015729,0.034418,-0.00069392,0.0033724,-0.0016659,0,0,0.047804,-0.0064147,0,-0.0061057,0,0,0,0.034519,-0.00079499,0.0033724,-2.9845,0.012365,0.033427,2.0227e-06,0.74,0.24,0
0.036103,0.0017863,0.029849,-0.00071972,0.0029129,-0.0023421,0,0,0.059259,-0.0079918,0,-0.010305,0,0,0,0.030027,-0.00089813,0.0029129,-4.3561,0.010681,0.029207,1.2065e-06,0.76,0.24,0
0.037245,0.0019735,0.029094,-0.00016134,0.0028932,-0.0018756,0,0,0.057641,-0.0067201,0,-0.0082526,0,0,0,0.029213,-0.0002811,0.0028932,-3.6534,0.010608,0.028042,1.0838e-06,0.78,0.24,0
0.038409,0.0020958,0.029394,-0.00026099,0.0029133,-0.0017308,0,0,0.058258,-0.0069835,0,-0.0076157,0,0,0,0.029495,-0.00036167,0.0029133,-3.329,0.010682,0.028361,1.1191e-06,0.8,0.24,0
0.039575,0.0021848,0.029383,-0.00036974,0.0029014,-0.0015252,0,0,0.05826,-0.0071964,0,-0.006711,0,0,0,0.029461,-0.00044773,0.0029014,-2.9269,0.010638,0.028383,1.1194e-06,0.82,0.24,0
0.040739,0.0022525,0.029309,-0.00049378,0.0028815,-0.0013294,0,0,0.05814,-0.0074256,0,-0.0058492,0,0,0,0.029368,-0.00055296,0.0028815,-2.549,0.010565,0.02836,1.1138e-06,0.84,0.24,0
0.041901,0.0023043,0.029243,-0.00062307,0.002862,-0.001147,0,0,0.058039,-0.0076672,0,-0.0050468,0,0,0,0.029287,-0.00066705,0.002862,-2.1961,0.010494,0.028355,1.11e-06,0.86,0.24,0
0.043061,0.0023439,0.029192,-0.00074652,0.0028445,-0.00096997,0,0,0.057964,-0.0079003,0,-0.0042679,0,0,0,0.029223,-0.00077791,0.0028445,-1.8537,0.01043,0.028364,1.1078e-06,0.88,0.24,0
0.04422,0.0023739,0.02915,-0.00085397,0.0028296,-0.00079684,0,0,0.057905,-0.0081039,0,-0.0035061,0,0,0,0.029171,-0.00087512,0.0028296,-1.5202,0.010375,0.028376,1.1063e-06,0.9,0.24,0
0.045377,0.0023965,0.029115,-0.00094152,0.0028173,-0.00062845,0,0,0.057855,-0.0082695,0,-0.0027652,0,0,0,0.029128,-0.00095466,0.0028173,-1.1973,0.01033,0.028385,1.105e-06,0.92,0.24,0
0.046534,0.0024129,0.029086,-0.0010084,0.0028078,-0.00046536,0,0,0.057812,-0.0083956,0,-0.0020476,0,0,0,0.029093,-0.0010156,0.0028078,-0.8857,0.010295,0.028391,1.1038e-06,0.94,0.24,0
0.04769,0.0024241,0.029065,-0.0010553,0.0028009,-0.00030716,0,0,0.05778,-0.0084837,0,-0.0013515,0,0,0,0.029068,-0.0010584,0.0028009,-0.58422,0.01027,0.028394,1.1028e-06,0.96,0.24,0
0.048845,0.0024306,0.029051,-0.001083,0.0027968,-0.00015261,0,0,0.057759,-0.0085355,0,-0.00067149,0,0,0,0.029052,-0.0010837,0.0027968,-0.29016,0.010255,0.028395,1.1022e-06,0.98,0.24,0
0.05,0.0024328,0.029047,-0.0010921,0.0027955,2.4314e-05,0,0,0.057753,-0.0085526,0,0.00010698,0,0,0,0.029047,-0.0010921,0.0027955,0.046223,0.01025,0.028395,1.1019e-06,1,0.24,0
0,0,0.027423,0.003047,0.003047,0.0013292,0,0,0.053628,-1.6263e-19,0,0.0058482,0,0,0,0.027496,0.0029748,0.003047,3.1118,0.011173,0.024485,7.5389e-07,0,0.26,0
0.0010726,0.00011697,0.027479,0.0027263,0.0030205,0.0013367,0,0,0.053809,-0.00064737,0,0.0058816,0,0,0,0.027551,0.0026543,0.0030205,3.0822,0.011075,0.024716,7.7486e-07,0.02,0.26,0
0.0021524,0.00023234,0.027628,0.0024227,0.003005,0.0013362,0,0,0.05417,-0.0012812,0,0.0058795,0,0,0,0.027698,0.002352,0.003005,3.0263,0.011019,0.025026,8.0318e-07,0.04,0.26,0
0.0032394,0.00034603,0.027776,0.0021267,0.0029903,0.001335,0,0,0.054528,-0.0018998,0,0.0058739,0,0,0,0.027845,0.0020574,0.0029903,2.9714,0.010964,0.025334,8.313e-07,0.06,0.26,0
0.0043335,0.00045769,0.027923,0.0018406,0.0029764,0.0013311,0,0,0.054883,-0.0024987,0,0.0058566,0,0,0,0.027991,0.0017729,0.0029764,2.9138,0.010913,0.025638,8.5906e-07,0.08,0.26,0
0.0054347,0.00056679,0.02807,0.0015671,0.0029637,0.001324,0,0,0.055233,-0.0030724,0,0.0058256,0,0,0,0.028136,0.0015012,0.0029637,2.8529,0.010867,0.025934,8.8624e-07,0.1,0.26,0
0.0065428,0.00067271,0.028214,0.0013093,0.0029523,0.0013146,0,0,0.055575,-0.0036146,0,0.005784,0,0,0,0.028278,0.0012452,0.0029523,2.7906,0.010825,0.026221,9.1267e-07,0.12,0.26,0
0.0076577,0.00077479,0.028356,0.00107,0.0029426,0.0013044,0,0,0.05591,-0.0041199,0,0.0057393,0,0,0,0.028418,0.0010077,0.0029426,2.7306,0.01079,0.026496,9.3823e-07,0.14,0.26,0
0.0087792,0.0008724,0.028497,0.00085145,0.0029349,0.0012958,0,0,0.056237,-0.0045835,0,0.0057015,0,0,0,0.028558,0.00079084,0.0029349,2.6777,0.010761,0.026759,9.6287e-07,0.16,0.26,0
0.0099072,0.00096494,0.028638,0.00065572,0.0029293,0.0012914,0,0,0.056558,-0.005002,0,0.0056823,0,0,0,0.028697,0.00059624,0.0029293,2.6369,0.010741,0.02701,9.8663e-07,0.18,0.26,0
0.011041,0.0010519,0.028779,0.00048432,0.0029263,0.001294,0,0,0.056876,-0.0053724,0,0.0056935,0,0,0,0.028838,0.00042527,0.0029263,2.613,0.01073,0.027248,1.0096e-06,0.2,0.26,0
0.012182,0.0011326,0.028923,0.00033852,0.0029262,0.0013059,0,0,0.057193,-0.0056928,0,0.0057462,0,0,0,0.028983,0.00027898,0.0029262,2.6105,0.010729,0.027476,1.032e-06,0.22,0.26,0
0.013329,0.0012067,0.029072,0.00021945,0.0029291,0.0013296,0,0,0.057514,-0.0059613,0,0.0058503,0,0,0,0.029133,0.0001583,0.0029291,2.633,0.01074,0.027693,1.0541e-06,0.24,0.26,0
0.014483,0.0012734,0.029229,0.00012809,0.0029357,0.0013667,0,0,0.057844,-0.0061767,0,0.0060136,0,0,0,0.029293,6.4044e-05,0.0029357,2.6831,0.010764,0.027904,1.0761e-06,0.26,0.26,0
0.015643,0.001332,0.029397,6.526e-05,0.0029463,0.0014183,0,0,0.058193,-0.0063382,0,0.0062405,0,0,0,0.029466,-3.1596e-06,0.0029463,2.7618,0.010803,0.028111,1.0986e-06,0.28,0.26,0
0.01681,0.0013813,0.029585,3.133e-05,0.0029616,0.0014846,0,0,0.058571,-0.0064466,0,0.0065322,0,0,0,0.029659,-4.306e-05,0.0029616,2.8686,0.010859,0.02832,1.1224e-06,0.3,0.26,0
0.017986,0.0014199,0.029802,2.585e-05,0.0029828,0.0015648,0,0,0.059002,-0.0065052,0,0.0068852,0,0,0,0.029884,-5.616e-05,0.0029828,3.0001,0.010937,0.028542,1.1487e-06,0.32,0.26,0
0.019171,0.0014452,0.030067,4.7298e-05,0.0030115,0.0016574,0,0,0.059523,-0.0065212,0,0.0072925,0,0,0,0.030159,-4.3929e-05,0.0030115,3.1505,0.011042,0.028797,1.18e-06,0.34,0.26,0
0.020367,0.0014539,0.030419,9.3572e-05,0.0030512,0.0017587,0,0,0.060208,-0.0065068,0,0.0077384,0,0,0,0.03052,-8.0856e-06,0.0030512,3.3081,0.011188,0.029119,1.2211e-06,0.36,0.26,0
0.021579,0.0014397,0.030947,0.00017045,0.0031118,0.0018674,0,0,0.061239,-0.006471,0,0.0082165,0,0,0,0.03106,5.7564e-05,0.0031118,3.4595,0.01141,0.029594,1.2835e-06,0.38,0.26,0
0.022816,0.0013926,0.031936,0.00030744,0.0032244,0.0017858,0,0,0.063166,-0.0064172,0,0.0078577,0,0,0,0.032037,0.00020693,0.0032244,3.2214,0.011823,0.030433,1.3998e-06,0.4,0.26,0
0.024105,0.0012547,0.037356,0.00043652,0.0037793,0.0029089,0,0,0.051419,-0.005177,0,0.0094485,0,0,0,0.03759,0.00020239,0.0037793,4.6367,0.013857,0.035734,2.5686e-06,0.42,0.26,0
0.025004,0.0011523,0.029826,0.00076298,0.0030589,-0.00014414,0,0,0.040669,-0.0036157,0,-0.00030496,0,0,0,0.029827,0.00076172,0.0030589,-0.22581,0.011216,0.027988,1.2817e-06,0.44,0.26,0
0.025648,0.0011578,0.033399,0.0016474,0.0035047,-0.00051665,0,0,0.032884,-0.002043,0,-0.0011366,0,0,0,0.033407,0.001639,0.0035047,-0.93196,0.01285,0.030878,1.4935e-06,0.46,0.26,0
0.026319,0.0011777,0.033574,0.0014672,0.0035041,1.9395e-05,0,0,0.033077,-0.0022406,0,4.2668e-05,0,0,0,0.033574,0.0014671,0.0035041,0.034611,0.012848,0.031138,1.5282e-06,0.48,0.26,0
0.026971,0.0011921,0.033024,0.0013322,0.0034356,-9.3968e-05,0,0,0.032547,-0.0023137,0,-0.00020673,0,0,0,0.033024,0.0013319,0.0034356,-0.16988,0.012597,0.030695,1.4618e-06,0.5,0.26,0
0.027621,0.0012052,0.032888,0.0015191,0.0034407,-8.8956e-05,0,0,0.032392,-0.0021137,0,-0.0001957,0,0,0,0.032888,0.0015189,0.0034407,-0.16248,0.012616,0.030454,1.4311e-06,0.52,0.26,0
0.028266,0.0012153,0.032749,0.0017194,0.0034468,-9.9917e-05,0,0,0.032232,-0.0019002,0,-0.00021982,0,0,0,0.032749,0.0017191,0.0034468,-0.18449,0.012638,0.030203,1.3995e-06,0.54,0.26,0
0.02891,0.0012269,0.032689,0.0018976,0.0034587,-4.4376e-05,0,0,0.032154,-0.0017172,0,-9.7628e-05,0,0,0,0.03269,0.0018975,0.0034587,-0.082573,0.012682,0.030042,1.3799e-06,0.56,0.26,0
0.029552,0.0012426,0.03266,0.0019702,0.003463,3.4619e-05,0,0,0.032116,-0.0016421,0,7.6162e-05,0,0,0,0.03266,0.0019702,0.003463,0.064632,0.012698,0.029971,1.3711e-06,0.58,0.26,0
0.030195,0.0012639,0.032654,0.0019428,0.0034597,0.00012315,0,0,0.032114,-0.0016686,0,0.00027094,0,0,0,0.032654,0.0019423,0.0034597,0.22976,0.012685,0.029982,1.3723e-06,0.6,0.26,0
0.030837,0.0012911,0.03267,0.0018155,0.0034486,0.00020948,0,0,0.032144,-0.0017963,0,0.00046087,0,0,0,0.032672,0.0018141,0.0034486,0.38898,0.012645,0.030074,1.383e-06,0.62,0.26,0
0.031481,0.0013224,0.032711,0.0015842,0.0034295,0.0002779,0,0,0.03221,-0.0020299,0,0.00061138,0,0,0,0.032714,0.0015817,0.0034295,0.51148,0.012575,0.03025,1.4039e-06,0.64,0.26,0
0.032126,0.0013552,0.032822,0.0013322,0.0034154,0.00028215,0,0,0.032347,-0.0022916,0,0.00062073,0,0,0,0.032825,0.0013297,0.0034154,0.51331,0.012523,0.030506,1.4351e-06,0.66,0.26,0
0.032774,0.0013849,0.032923,0.0010955,0.0034018,0.00029542,0,0,0.032473,-0.002537,0,0.00064993,0,0,0,0.032925,0.0010927,0.0034018,0.53177,0.012473,0.030743,1.464e-06,0.68,0.26,0
0.033424,0.0014129,0.033434,0.0011626,0.0034597,0.00018307,0,0,0.032972,-0.0025268,0,0.00040276,0,0,0,0.033435,0.0011616,0.0034597,0.32502,0.012686,0.031188,1.5296e-06,0.7,0.26,0
0.034093,0.0014353,0.033259,0.0012454,0.0034505,0.00069635,0,0,0.03279,-0.0024256,0,0.001532,0,0,0,0.033275,0.0012302,0.0034505,1.2455,0.012652,0.030994,1.5027e-06,0.72,0.26,0
0.034736,0.0014716,0.029727,0.00027301,0.003,0.0003468,0,0,0.040612,-0.0042652,0,0.00094388,0,0,0,0.029731,0.00026855,0.003,0.62606,0.011,0.028197,1.2988e-06,0.74,0.26,0
0.035633,0.0016248,0.03722,-0.00034864,0.0036872,-0.0025778,0,0,0.051348,-0.0062264,0,-0.0083648,0,0,0,0.037401,-0.0005295,0.0036872,-4.046,0.01352,0.036008,2.5981e-06,0.76,0.26,0
0.03692,0.0018315,0.031832,-0.00029257,0.003154,-0.0013967,0,0,0.063092,-0.0075824,0,-0.0061455,0,0,0,0.031893,-0.00035318,0.003154,-2.4848,0.011565,0.030643,1.4128e-06,0.78,0.26,0
0.038157,0.0019482,0.030877,-0.00043389,0.0030443,-0.0014563,0,0,0.061232,-0.007652,0,-0.0064075,0,0,0,0.030944,-0.00050148,0.0030443,-2.6572,0.011162,0.029831,1.2988e-06,0.8,0.26,0
0.039369,0.0020345,0.030391,-0.00053135,0.0029859,-0.0013202,0,0,0.060291,-0.007738,0,-0.005809,0,0,0,0.030447,-0.00058761,0.0029859,-2.4403,0.010948,0.029411,1.2419e-06,0.82,0.26,0
0.040568,0.0020985,0.030105,-0.00065159,0.0029453,-0.0011921,0,0,0.059751,-0.0079132,0,-0.0052451,0,0,0,0.030151,-0.00069772,0.0029453,-2.2163,0.0108,0.029198,1.2116e-06,0.84,0.26,0
0.041759,0.0021458,0.02992,-0.00078975,0.0029131,-0.0010478,0,0,0.059416,-0.0081462,0,-0.0046104,0,0,0,0.029956,-0.00082546,0.0029131,-1.9519,0.010681,0.029093,1.1946e-06,0.86,0.26,0
0.042945,0.002181,0.02979,-0.0009154,0.0028875,-0.0008918,0,0,0.059186,-0.0083664,0,-0.0039239,0,0,0,0.029816,-0.00094128,0.0028875,-1.6622,0.010587,0.029033,1.1835e-06,0.88,0.26,0
0.044127,0.0022072,0.029688,-0.0010197,0.0028669,-0.0007324,0,0,0.059007,-0.0085505,0,-0.0032226,0,0,0,0.029706,-0.0010372,0.0028669,-1.3655,0.010512,0.028989,1.175e-06,0.9,0.26,0
0.045305,0.0022267,0.029607,-0.0011017,0.0028505,-0.00057605,0,0,0.058863,-0.0086947,0,-0.0025346,0,0,0,0.029617,-0.0011125,0.0028505,-1.0743,0.010452,0.028952,1.1681e-06,0.92,0.26,0
0.046481,0.0022408,0.029543,-0.0011626,0.002838,-0.0004252,0,0,0.05875,-0.0088014,0,-0.0018709,0,0,0,0.029549,-0.0011685,0.002838,-0.79322,0.010406,0.028923,1.1626e-06,0.94,0.26,0
0.047655,0.0022504,0.029497,-0.0012045,0.0028292,-0.0002799,0,0,0.058669,-0.0088743,0,-0.0012315,0,0,0,0.029499,-0.0012071,0.0028292,-0.52229,0.010374,0.0289,1.1587e-06,0.96,0.26,0
0.048828,0.0022559,0.029469,-0.001229,0.002824,-0.00013882,0,0,0.058619,-0.0089167,0,-0.00061081,0,0,0,0.02947,-0.0012297,0.002824,-0.25909,0.010355,0.028887,1.1562e-06,0.98,0.26,0
0.05,0.0022578,0.02946,-0.0012371,0.0028223,2.0773e-05,0,0,0.058603,-0.0089306,0,9.1402e-05,0,0,0,0.02946,-0.0012371,0.0028223,0.038773,0.010348,0.028882,1.1554e-06,1,0.26,0
0,0,0.027458,0.0030508,0.0030508,0.001181,0,0,0.053695,-5.6921e-19,0,0.0051964,0,0,0,0.027515,0.0029938,0.0030508,2.7638,0.011186,0.024492,7.5459e-07,0,0.28,0
0.0010739,0.00010393,0.027514,0.0027262,0.0030241,0.0011868,0,0,0.053879,-0.0006552,0,0.0052219,0,0,0,0.027571,0.0026696,0.0030241,2.7348,0.011088,0.024726,7.7589e-07,0.02,0.28,0
0.0021552,0.00020661,0.027666,0.0024225,0.0030089,0.0011862,0,0,0.054246,-0.0012899,0,0.0052193,0,0,0,0.027722,0.0023669,0.0030089,2.6845,0.011033,0.02504,8.0458e-07,0.04,0.28,0
0.0032437,0.00030797,0.027819,0.0021288,0.0029948,0.0011847,0,0,0.054613,-0.001905,0,0.0052129,0,0,0,0.027873,0.0020743,0.0029948,2.6349,0.010981,0.025351,8.3308e-07,0.06,0.28,0
0.0043397,0.0004077,0.027972,0.001846,0.0029818,0.0011809,0,0,0.054979,-0.0024988,0,0.0051959,0,0,0,0.028025,0.0017927,0.0029818,2.5827,0.010933,0.025659,8.6136e-07,0.08,0.28,0
0.0054429,0.00050537,0.028127,0.0015756,0.0029703,0.0011742,0,0,0.055345,-0.0030682,0,0.0051664,0,0,0,0.028179,0.0015238,0.0029703,2.5272,0.010891,0.025962,8.8934e-07,0.1,0.28,0
0.0065534,0.00060045,0.028283,0.0013198,0.0029603,0.0011651,0,0,0.05571,-0.0036091,0,0.0051265,0,0,0,0.028333,0.0012695,0.0029603,2.4697,0.010854,0.026259,9.1697e-07,0.12,0.28,0
0.0076713,0.00069239,0.028441,0.0010805,0.0029521,0.001155,0,0,0.056075,-0.0041176,0,0.0050818,0,0,0,0.028489,0.0010318,0.0029521,2.4129,0.010824,0.02655,9.4422e-07,0.14,0.28,0
0.0087964,0.00078063,0.028601,0.00085972,0.0029461,0.0011455,0,0,0.056441,-0.00459,0,0.0050402,0,0,0,0.028648,0.0008125,0.0029461,2.3605,0.010802,0.026833,9.7111e-07,0.16,0.28,0
0.0099289,0.00086463,0.028765,0.00065919,0.0029424,0.0011389,0,0,0.05681,-0.0050231,0,0.0050113,0,0,0,0.028811,0.00061312,0.0029424,2.3167,0.010789,0.027109,9.9774e-07,0.18,0.28,0
0.011069,0.0009439,0.028935,0.0004805,0.0029415,0.0011375,0,0,0.057186,-0.0054143,0,0.0050048,0,0,0,0.02898,0.0004351,0.0029415,2.2855,0.010786,0.027378,1.0243e-06,0.2,0.28,0
0.012216,0.001018,0.029113,0.00032515,0.0029438,0.0011432,0,0,0.057572,-0.005761,0,0.0050302,0,0,0,0.029158,0.00027982,0.0029438,2.2706,0.010794,0.027643,1.0509e-06,0.22,0.28,0
0.013372,0.0010863,0.029301,0.00019475,0.0029496,0.0011579,0,0,0.057973,-0.0060607,0,0.0050948,0,0,0,0.029347,0.00014876,0.0029496,2.2745,0.010815,0.027904,1.078e-06,0.24,0.28,0
0.014535,0.0011483,0.029504,9.1051e-05,0.0029595,0.0011824,0,0,0.058398,-0.0063106,0,0.0052025,0,0,0,0.029552,4.3595e-05,0.0029595,2.2983,0.010852,0.028164,1.106e-06,0.26,0.28,0
0.015708,0.0012032,0.029727,1.6078e-05,0.0029743,0.0012162,0,0,0.058856,-0.0065081,0,0.0053514,0,0,0,0.029777,-3.3626e-05,0.0029743,2.3402,0.010906,0.028426,1.1353e-06,0.28,0.28,0
0.01689,0.0012499,0.029978,-2.7979e-05,0.002995,0.0012567,0,0,0.059361,-0.0066504,0,0.0055294,0,0,0,0.03003,-8.052e-05,0.002995,2.3941,0.010981,0.028697,1.1668e-06,0.3,0.28,0
0.018082,0.0012868,0.030269,-3.8894e-05,0.0030231,0.0012974,0,0,0.059942,-0.0067363,0,0.0057087,0,0,0,0.030325,-9.4332e-05,0.0030231,2.4467,0.011085,0.028986,1.2022e-06,0.32,0.28,0
0.019287,0.0013114,0.030628,-1.4207e-05,0.0030614,0.0013258,0,0,0.060646,-0.0067663,0,0.0058333,0,0,0,0.030685,-7.146e-05,0.0030614,2.4728,0.011225,0.029316,1.2443e-06,0.34,0.28,0
0.020508,0.0013196,0.031102,5.1391e-05,0.0031154,0.0013179,0,0,0.061571,-0.0067408,0,0.0057988,0,0,0,0.031158,-4.4451e-06,0.0031154,2.426,0.011423,0.029726,1.2991e-06,0.36,0.28,0
0.02175,0.0013055,0.031801,0.00018065,0.0031981,0.0012103,0,0,0.062925,-0.0066384,0,0.0053252,0,0,0,0.031847,0.00013439,0.0031981,2.1888,0.011727,0.030297,1.3792e-06,0.38,0.28,0
0.023025,0.001256,0.032778,0.00045821,0.0033236,0.00095098,0,0,0.064799,-0.0063039,0,0.0041843,0,0,0,0.032806,0.00043026,0.0033236,1.6839,0.012187,0.03103,1.4896e-06,0.4,0.28,0
0.024342,0.0011677,0.032765,0.00073227,0.0033497,0.0012416,0,0,0.04882,-0.0038389,0,0.0033882,0,0,0,0.032825,0.0006719,0.0033497,2.2006,0.012282,0.030912,1.4742e-06,0.42,0.28,0
0.024978,0.0011098,0.03325,0.0017466,0.0034997,-0.00032688,0,0,0.032726,-0.0019284,0,-0.00071915,0,0,0,0.033254,0.0017432,0.0034997,-0.59442,0.012832,0.03067,1.4653e-06,0.44,0.28,0
0.025651,0.0011165,0.033703,0.0016032,0.0035307,0.00038379,0,0,0.03319,-0.0021202,0,0.00084433,0,0,0,0.033708,0.0015986,0.0035307,0.6849,0.012946,0.031188,1.5379e-06,0.46,0.28,0
0.026305,0.0011299,0.033155,0.0014166,0.0034572,0.00019726,0,0,0.032668,-0.0022446,0,0.00043397,0,0,0,0.033156,0.0014154,0.0034572,0.35608,0.012676,0.030771,1.4742e-06,0.48,0.28,0
0.026958,0.0011476,0.032995,0.0014733,0.0034469,0.00012814,0,0,0.032503,-0.0021709,0,0.00028191,0,0,0,0.032996,0.0014728,0.0034469,0.23291,0.012639,0.030584,1.4487e-06,0.5,0.28,0
0.027606,0.0011628,0.032823,0.0015614,0.0034384,1.754e-05,0,0,0.032323,-0.0020647,0,3.8589e-05,0,0,0,0.032823,0.0015614,0.0034384,0.032148,0.012608,0.030367,1.4196e-06,0.52,0.28,0
0.028251,0.0011771,0.032719,0.0017126,0.0034432,-2.2617e-05,0,0,0.032204,-0.0019037,0,-4.9757e-05,0,0,0,0.032719,0.0017126,0.0034432,-0.041793,0.012625,0.030179,1.396e-06,0.54,0.28,0
0.028894,0.0011918,0.032646,0.0018329,0.0034479,-1.0791e-05,0,0,0.032118,-0.0017764,0,-2.374e-05,0,0,0,0.032646,0.0018329,0.0034479,-0.020065,0.012642,0.030038,1.3784e-06,0.56,0.28,0
0.029535,0.0012089,0.032612,0.0018878,0.00345,4.4536e-05,0,0,0.032079,-0.0017184,0,9.7979e-05,0,0,0,0.032612,0.0018878,0.00345,0.083051,0.01265,0.029974,1.3705e-06,0.58,0.28,0
0.030177,0.0012297,0.032614,0.0018558,0.003447,0.00011678,0,0,0.032084,-0.0017503,0,0.00025692,0,0,0,0.032614,0.0018553,0.003447,0.21754,0.012639,0.029995,1.3728e-06,0.6,0.28,0
0.030819,0.0012542,0.032649,0.0017375,0.0034386,0.00018238,0,0,0.032131,-0.0018712,0,0.00040124,0,0,0,0.03265,0.0017365,0.0034386,0.33804,0.012608,0.030099,1.3853e-06,0.62,0.28,0
0.031462,0.0012814,0.032717,0.0015565,0.0034274,0.00021437,0,0,0.032219,-0.002058,0,0.00047162,0,0,0,0.032719,0.001555,0.0034274,0.39415,0.012567,0.030271,1.4063e-06,0.64,0.28,0
0.032107,0.0013091,0.032802,0.0013502,0.0034153,0.00020211,0,0,0.032326,-0.0022716,0,0.00044464,0,0,0,0.032804,0.0013489,0.0034153,0.36816,0.012523,0.030474,1.431e-06,0.66,0.28,0
0.032755,0.0013358,0.03293,0.001215,0.0034145,0.00012124,0,0,0.032467,-0.0024195,0,0.00026673,0,0,0,0.032931,0.0012145,0.0034145,0.21902,0.01252,0.030675,1.4568e-06,0.68,0.28,0
0.033406,0.0013597,0.033013,0.0011224,0.0034136,6.0421e-05,0,0,0.03256,-0.0025203,0,0.00013293,0,0,0,0.033014,0.0011223,0.0034136,0.10855,0.012516,0.03081,1.474e-06,0.7,0.28,0
0.034057,0.001386,0.033501,0.0012458,0.0034747,-0.00014713,0,0,0.033029,-0.0024517,0,-0.00032367,0,0,0,0.033501,0.0012451,0.0034747,-0.26134,0.01274,0.031201,1.5332e-06,0.72,0.28,0
0.034727,0.0014182,0.033036,0.0011497,0.0034186,0.00052378,0,0,0.032579,-0.0024957,0,0.0011523,0,0,0,0.033045,0.0011412,0.0034186,0.94083,0.012535,0.030828,1.4771e-06,0.74,0.28,0
0.035361,0.0015188,0.032594,-6.0513e-05,0.0032533,-0.00096275,0,0,0.048716,-0.0048603,0,-0.0024004,0,0,0,0.032636,-0.00010337,0.0032533,-1.664,0.011929,0.031213,1.494e-06,0.76,0.28,0
0.036676,0.0016702,0.032667,-0.00021225,0.0032454,-0.00061229,0,0,0.064727,-0.0076069,0,-0.0026941,0,0,0,0.032678,-0.00022365,0.0032454,-1.0665,0.0119,0.031312,1.5116e-06,0.78,0.28,0
0.03795,0.0017897,0.03173,-0.00042666,0.0031304,-0.00083719,0,0,0.06292,-0.0078255,0,-0.0036836,0,0,0,0.031752,-0.00044844,0.0031304,-1.4903,0.011478,0.030569,1.3995e-06,0.8,0.28,0
0.039193,0.0018753,0.031106,-0.00055558,0.0030551,-0.0009726,0,0,0.061713,-0.0079434,0,-0.0042794,0,0,0,0.031136,-0.00058543,0.0030551,-1.7578,0.011202,0.030067,1.3273e-06,0.82,0.28,0
0.040418,0.001936,0.030741,-0.0007558,0.0029985,-0.00096423,0,0,0.061033,-0.0082594,0,-0.0042426,0,0,0,0.03077,-0.00078529,0.0029985,-1.7519,0.010994,0.029844,1.2915e-06,0.84,0.28,0
0.041634,0.0019784,0.030508,-0.00092912,0.0029579,-0.00087744,0,0,0.06061,-0.0085514,0,-0.0038607,0,0,0,0.030532,-0.00095359,0.0029579,-1.5975,0.010845,0.029724,1.2704e-06,0.86,0.28,0
0.042843,0.0020092,0.030322,-0.001065,0.0029257,-0.00075249,0,0,0.060272,-0.0087795,0,-0.003311,0,0,0,0.03034,-0.001083,0.0029257,-1.3726,0.010728,0.029623,1.2531e-06,0.88,0.28,0
0.044045,0.0020319,0.030168,-0.0011681,0.0029,-0.00061786,0,0,0.059989,-0.0089497,0,-0.0027186,0,0,0,0.03018,-0.0011803,0.0029,-1.1291,0.010633,0.029532,1.2381e-06,0.9,0.28,0
0.045242,0.0020487,0.030042,-0.0012445,0.0028797,-0.00048467,0,0,0.059757,-0.0090733,0,-0.0021325,0,0,0,0.030049,-0.001252,0.0028797,-0.8873,0.010559,0.029454,1.2257e-06,0.92,0.28,0
0.046435,0.0020609,0.029945,-0.0012991,0.0028645,-0.00035667,0,0,0.059576,-0.0091601,0,-0.0015693,0,0,0,0.029949,-0.0013032,0.0028645,-0.65395,0.010503,0.02939,1.216e-06,0.94,0.28,0
0.047625,0.0020692,0.029875,-0.0013357,0.002854,-0.00023418,0,0,0.059447,-0.0092173,0,-0.0010304,0,0,0,0.029877,-0.0013375,0.002854,-0.42987,0.010464,0.029344,1.209e-06,0.96,0.28,0
0.048813,0.002074,0.029834,-0.0013568,0.0028477,-0.00011596,0,0,0.05937,-0.0092498,0,-0.00051021,0,0,0,0.029834,-0.0013572,0.0028477,-0.213,0.010442,0.029316,1.2048e-06,0.98,0.28,0
0.05,0.0020756,0.02982,-0.0013636,0.0028457,1.8002e-05,0,0,0.059344,-0.0092604,0,7.9209e-05,0,0,0,0.02982,-0.0013636,0.0028457,0.033076,0.010434,0.029307,1.2034e-06,1,0.28,0
0,0,0.027481,0.0030535,0.0030535,0.0010313,0,0,0.053741,-1.3552e-19,0,0.0045378,0,0,0,0.027525,0.00301,0.0030535,2.4133,0.011196,0.024493,7.5466e-07,0,0.3,0
0.0010748,9.0757e-05,0.027539,0.0027265,0.0030265,0.0010345,0,0,0.053927,-0.00066013,0,0.0045517,0,0,0,0.027582,0.0026834,0.0030265,2.3833,0.011097,0.024729,7.7616e-07,0.02,0.3,0
0.0021571,0.00018074,0.027693,0.0024233,0.0030116,0.0010332,0,0,0.054299,-0.0012944,0,0.0045459,0,0,0,0.027735,0.0023811,0.0030116,2.3374,0.011043,0.025045,8.0509e-07,0.04,0.3,0
0.0032468,0.00026983,0.027849,0.0021319,0.002998,0.0010302,0,0,0.054671,-0.0019055,0,0.0045331,0,0,0,0.02789,0.0020907,0.002998,2.2905,0.010993,0.025358,8.3381e-07,0.06,0.3,0
0.0043439,0.00035773,0.028006,0.0018522,0.0029859,0.0010246,0,0,0.055045,-0.002494,0,0.004508,0,0,0,0.028046,0.0018122,0.0029859,2.2399,0.010948,0.025668,8.624e-07,0.08,0.3,0
0.0054486,0.00044406,0.028168,0.001585,0.0029753,0.0010157,0,0,0.055423,-0.0030585,0,0.004469,0,0,0,0.028206,0.0015463,0.0029753,2.1849,0.010909,0.025975,8.9092e-07,0.1,0.3,0
0.0065609,0.00052834,0.028332,0.0013315,0.0029664,0.0010039,0,0,0.055805,-0.0035968,0,0.0044174,0,0,0,0.02837,0.0012942,0.0029664,2.1265,0.010877,0.026279,9.1939e-07,0.12,0.3,0
0.0076808,0.00061009,0.028502,0.0010931,0.0029595,0.00099032,0,0,0.056193,-0.0041061,0,0.0043574,0,0,0,0.028538,0.0010574,0.0029595,2.0666,0.010852,0.02658,9.4786e-07,0.14,0.3,0
0.0088086,0.0006888,0.028677,0.00087132,0.0029549,0.00097621,0,0,0.056589,-0.0045838,0,0.0042953,0,0,0,0.028712,0.00083709,0.0029549,2.0082,0.010835,0.026878,9.7644e-07,0.16,0.3,0
0.0099444,0.00076402,0.02886,0.00066772,0.0029528,0.0009633,0,0,0.056996,-0.0050271,0,0.0042385,0,0,0,0.028893,0.00063485,0.0029528,1.9547,0.010827,0.027173,1.0053e-06,0.18,0.3,0
0.011088,0.00083528,0.029052,0.0004839,0.0029536,0.0009534,0,0,0.057417,-0.0054334,0,0.004195,0,0,0,0.029084,0.00045212,0.0029536,1.9093,0.01083,0.027467,1.0346e-06,0.2,0.3,0
0.012241,0.00090217,0.029257,0.00032163,0.0029578,0.00094814,0,0,0.057858,-0.0057996,0,0.0041718,0,0,0,0.029288,0.0002906,0.0029578,1.8748,0.010845,0.02776,1.0646e-06,0.22,0.3,0
0.013403,0.00096423,0.029476,0.00018309,0.0029659,0.00094869,0,0,0.058322,-0.0061222,0,0.0041742,0,0,0,0.029507,0.00015239,0.0029659,1.853,0.010875,0.028054,1.0956e-06,0.24,0.3,0
0.014574,0.0010209,0.029714,7.1125e-05,0.0029785,0.0009552,0,0,0.058818,-0.0063963,0,0.0042029,0,0,0,0.029745,4.0377e-05,0.0029785,1.8437,0.010921,0.02835,1.1279e-06,0.26,0.3,0
0.015755,0.0010716,0.029975,-1.0307e-05,0.0029964,0.00096605,0,0,0.059352,-0.0066148,0,0.0042506,0,0,0,0.030006,-4.1399e-05,0.0029964,1.8434,0.010987,0.028649,1.162e-06,0.28,0.3,0
0.016948,0.0011153,0.030263,-5.5703e-05,0.0030208,0.00097631,0,0,0.059934,-0.0067682,0,0.0042958,0,0,0,0.030295,-8.7108e-05,0.0030208,1.8424,0.011076,0.028953,1.1983e-06,0.3,0.3,0
0.018153,0.0011504,0.030588,-5.7275e-05,0.003053,0.00097539,0,0,0.060576,-0.0068427,0,0.0042917,0,0,0,0.030619,-8.8289e-05,0.003053,1.8212,0.011194,0.029263,1.2371e-06,0.32,0.3,0
0.019371,0.0011746,0.030958,-3.484e-06,0.0030954,0.00094333,0,0,0.061297,-0.0068176,0,0.0041507,0,0,0,0.030987,-3.2199e-05,0.0030954,1.7435,0.01135,0.029579,1.2792e-06,0.34,0.3,0
0.020605,0.0011842,0.031383,0.00012626,0.0031509,0.00084459,0,0,0.062111,-0.0066543,0,0.0037162,0,0,0,0.031406,0.00010345,0.0031509,1.5467,0.011553,0.029895,1.3243e-06,0.36,0.3,0
0.021855,0.0011742,0.03182,0.00037639,0.0032196,0.00063261,0,0,0.062921,-0.0062551,0,0.0027835,0,0,0,0.031833,0.00036367,0.0032196,1.1521,0.011805,0.030143,1.3641e-06,0.38,0.3,0
0.023121,0.0011405,0.032069,0.00091621,0.0032985,0.00034243,0,0,0.063295,-0.0052411,0,0.0015067,0,0,0,0.032073,0.00091244,0.0032985,0.6297,0.012095,0.030039,1.3625e-06,0.4,0.3,0
0.024387,0.0011012,0.032227,0.00108,0.0033307,7.571e-05,0,0,0.047609,-0.0033011,0,0.00011194,0,0,0,0.032228,0.0010793,0.0033307,0.13286,0.012213,0.030093,1.3714e-06,0.42,0.3,0
0.025026,0.0010751,0.032347,0.0015865,0.0033934,0.00039394,0,0,0.031849,-0.0019876,0,0.00086666,0,0,0,0.032352,0.0015814,0.0033934,0.73359,0.012442,0.029906,1.3567e-06,0.44,0.3,0
0.025661,0.001073,0.03248,0.0015578,0.0034037,0.00036966,0,0,0.031983,-0.0020306,0,0.00081325,0,0,0,0.032484,0.0015533,0.0034037,0.68482,0.01248,0.030048,1.3756e-06,0.46,0.3,0
0.026305,0.0010879,0.032695,0.0015925,0.0034288,0.00034938,0,0,0.032193,-0.0020199,0,0.00076863,0,0,0,0.032699,0.0015886,0.0034288,0.6435,0.012572,0.030232,1.4015e-06,0.48,0.3,0
0.026949,0.0011052,0.032691,0.0015911,0.0034282,0.00020449,0,0,0.032189,-0.0020208,0,0.00044988,0,0,0,0.032692,0.0015897,0.0034282,0.37671,0.01257,0.030225,1.4005e-06,0.5,0.3,0
0.027593,0.0011227,0.03267,0.0016547,0.0034325,9.8416e-05,0,0,0.032162,-0.0019556,0,0.00021651,0,0,0,0.032671,0.0016544,0.0034325,0.1818,0.012586,0.030167,1.3934e-06,0.52,0.3,0
0.028236,0.0011392,0.032631,0.0017333,0.0034364,3.3932e-05,0,0,0.032114,-0.0018734,0,7.465e-05,0,0,0,0.032631,0.0017332,0.0034364,0.062923,0.0126,0.030082,1.383e-06,0.54,0.3,0
0.028877,0.0011558,0.0326,0.0018023,0.0034402,2.3577e-05,0,0,0.032075,-0.0018017,0,5.1869e-05,0,0,0,0.0326,0.0018022,0.0034402,0.043863,0.012614,0.030012,1.3744e-06,0.56,0.3,0
0.029518,0.0011738,0.032586,0.0018261,0.0034412,5.1461e-05,0,0,0.032059,-0.0017766,0,0.00011322,0,0,0,0.032586,0.001826,0.0034412,0.095856,0.012618,0.029985,1.3711e-06,0.58,0.3,0
0.03016,0.0011939,0.032597,0.0017885,0.0034385,9.7257e-05,0,0,0.032074,-0.001815,0,0.00021396,0,0,0,0.032597,0.0017882,0.0034385,0.18087,0.012608,0.030017,1.375e-06,0.6,0.3,0
0.030801,0.0012162,0.032631,0.00169,0.0034321,0.00013728,0,0,0.032119,-0.0019163,0,0.00030202,0,0,0,0.032632,0.0016894,0.0034321,0.25421,0.012585,0.030109,1.3861e-06,0.62,0.3,0
0.031444,0.00124,0.032681,0.0015483,0.0034229,0.00015241,0,0,0.032184,-0.002062,0,0.00033531,0,0,0,0.032682,0.0015476,0.0034229,0.28049,0.012551,0.03024,1.4019e-06,0.64,0.3,0
0.032089,0.0012644,0.032731,0.0014019,0.0034133,0.00012918,0,0,0.032249,-0.0022125,0,0.0002842,0,0,0,0.032731,0.0014013,0.0034133,0.23625,0.012515,0.030374,1.4179e-06,0.66,0.3,0
0.032734,0.0012882,0.032735,0.0012818,0.0034017,8.1634e-05,0,0,0.032267,-0.0023319,0,0.0001796,0,0,0,0.032736,0.0012816,0.0034017,0.1487,0.012473,0.030449,1.4263e-06,0.68,0.3,0
0.033379,0.0013121,0.032649,0.0012486,0.0033898,6.4393e-06,0,0,0.032185,-0.0023553,0,1.4167e-05,0,0,0,0.032649,0.0012486,0.0033898,0.01175,0.012429,0.030387,1.4169e-06,0.7,0.3,0
0.034022,0.0013372,0.032204,0.0012267,0.0033431,-2.9423e-06,0,0,0.031747,-0.002328,0,-6.473e-06,0,0,0,0.032204,0.0012267,0.0033431,-0.005442,0.012258,0.029975,1.3601e-06,0.72,0.3,0
0.034649,0.0013718,0.032035,0.0012326,0.0033267,-6.4348e-05,0,0,0.031579,-0.0023036,0,-0.00014157,0,0,0,0.032035,0.0012325,0.0033267,-0.11969,0.012198,0.029811,1.338e-06,0.74,0.3,0
0.035285,0.0014304,0.031919,6.4523e-05,0.0031983,6.6578e-05,0,0,0.047295,-0.0045963,0,0.00051321,0,0,0,0.031921,6.2103e-05,0.0031983,0.13822,0.011727,0.030424,1.3909e-06,0.76,0.3,0
0.036541,0.0015272,0.031825,0.00014768,0.0031972,-3.7488e-06,0,0,0.06298,-0.006709,0,-1.6495e-05,0,0,0,0.031825,0.00014768,0.0031972,-0.0067806,0.011723,0.030268,1.3755e-06,0.78,0.3,0
0.037804,0.0016351,0.031693,-5.1395e-05,0.0031642,-0.00044933,0,0,0.062765,-0.0070743,0,-0.001977,0,0,0,0.0317,-5.7753e-05,0.0031642,-0.81076,0.011602,0.030276,1.371e-06,0.8,0.3,0
0.039052,0.0017167,0.031399,-0.00049977,0.0030899,-0.0006721,0,0,0.06228,-0.0078974,0,-0.0029572,0,0,0,0.031413,-0.00051393,0.0030899,-1.2065,0.01133,0.030287,1.3589e-06,0.82,0.3,0
0.040295,0.0017681,0.031219,-0.00082451,0.0030394,-0.00072181,0,0,0.061995,-0.0085007,0,-0.003176,0,0,0,0.031235,-0.00084076,0.0030394,-1.2898,0.011145,0.030323,1.3532e-06,0.84,0.3,0
0.041532,0.0018038,0.030991,-0.001039,0.0029952,-0.00065689,0,0,0.06159,-0.0088752,0,-0.0028903,0,0,0,0.031004,-0.0010525,0.0029952,-1.1744,0.010982,0.030237,1.3344e-06,0.86,0.3,0
0.042759,0.0018298,0.030763,-0.0011861,0.0029577,-0.00056079,0,0,0.061171,-0.0091163,0,-0.0024675,0,0,0,0.030773,-0.001196,0.0029577,-1.0053,0.010845,0.030107,1.3122e-06,0.88,0.3,0
0.043978,0.0018492,0.030563,-0.0012883,0.0029275,-0.00045811,0,0,0.060798,-0.0092747,0,-0.0020157,0,0,0,0.030569,-0.0012949,0.0029275,-0.82385,0.010734,0.029977,1.2915e-06,0.9,0.3,0
0.045191,0.0018638,0.030399,-0.0013595,0.002904,-0.00035767,0,0,0.060489,-0.0093795,0,-0.0015738,0,0,0,0.030403,-0.0013635,0.002904,-0.64516,0.010648,0.029862,1.2741e-06,0.92,0.3,0
0.046398,0.0018744,0.030273,-0.0014081,0.0028864,-0.00026214,0,0,0.060249,-0.009448,0,-0.0011534,0,0,0,0.030275,-0.0014103,0.0028864,-0.47406,0.010584,0.02977,1.2604e-06,0.94,0.3,0
0.047601,0.0018817,0.030183,-0.0014397,0.0028743,-0.00017158,0,0,0.060079,-0.0094908,0,-0.00075497,0,0,0,0.030184,-0.0014406,0.0028743,-0.31087,0.010539,0.029703,1.2507e-06,0.96,0.3,0
0.048801,0.0018859,0.03013,-0.0014574,0.0028672,-8.4793e-05,0,0,0.059977,-0.0095142,0,-0.00037309,0,0,0,0.03013,-0.0014577,0.0028672,-0.1538,0.010513,0.029663,1.2449e-06,0.98,0.3,0
0.05,0.0018874,0.030112,-0.0014632,0.0028649,1.5985e-05,0,0,0.059944,-0.0095217,0,7.0335e-05,0,0,0,0.030112,-0.0014632,0.0028649,0.029007,0.010505,0.029649,1.243e-06,1,0.3,0
0,0,0.027492,0.0030546,0.0030546,0.00088094,0,0,0.053761,1.0842e-19,0,0.0038761,0,0,0,0.027523,0.0030229,0.0030546,2.0619,0.0112,0.024484,7.5388e-07,0,0.32,0
0.0010752,7.7523e-05,0.02755,0.0027272,0.0030277,0.00088079,0,0,0.053948,-0.00066103,0,0.0038755,0,0,0,0.027581,0.002696,0.0030277,2.0297,0.011101,0.02472,7.7542e-07,0.02,0.32,0
0.0021579,0.00015484,0.027704,0.0024256,0.003013,0.00087832,0,0,0.054321,-0.0012922,0,0.0038646,0,0,0,0.027735,0.0023952,0.003013,1.9876,0.011048,0.025037,8.0437e-07,0.04,0.32,0
0.0032481,0.00023174,0.027862,0.0021373,0.0029999,0.00087302,0,0,0.054696,-0.0018978,0,0.0038413,0,0,0,0.027891,0.0021077,0.0029999,1.9415,0.011,0.025349,8.331e-07,0.06,0.32,0
0.0043457,0.00030794,0.028022,0.0018613,0.0029883,0.00086403,0,0,0.055074,-0.0024795,0,0.0038017,0,0,0,0.028051,0.0018328,0.0029883,1.8896,0.010957,0.02566,8.6177e-07,0.08,0.32,0
0.005451,0.00038303,0.028187,0.0015978,0.0029785,0.00085106,0,0,0.055459,-0.0030375,0,0.0037447,0,0,0,0.028214,0.0015706,0.0029785,1.8314,0.010921,0.025968,8.9051e-07,0.1,0.32,0
0.0065641,0.00045658,0.028358,0.0013474,0.0029705,0.00083434,0,0,0.055852,-0.0035709,0,0.0036711,0,0,0,0.028383,0.0013216,0.0029705,1.7676,0.010892,0.026276,9.1942e-07,0.12,0.32,0
0.0076851,0.00052815,0.028535,0.001111,0.0029646,0.00081457,0,0,0.056255,-0.004078,0,0.0035841,0,0,0,0.028559,0.0010868,0.0029646,1.6998,0.01087,0.026583,9.4862e-07,0.14,0.32,0
0.0088143,0.00059728,0.028721,0.00088978,0.0029611,0.00079282,0,0,0.056671,-0.0045568,0,0.0034884,0,0,0,0.028743,0.00086721,0.0029611,1.6304,0.010857,0.026891,9.7827e-07,0.16,0.32,0
0.009952,0.00066355,0.028917,0.00068513,0.0029602,0.00077036,0,0,0.057104,-0.0050051,0,0.0033896,0,0,0,0.028938,0.00066412,0.0029602,1.5619,0.010854,0.027198,1.0086e-06,0.18,0.32,0
0.011099,0.00072657,0.029125,0.00049862,0.0029623,0.0007486,0,0,0.057557,-0.0054202,0,0.0032939,0,0,0,0.029144,0.00047906,0.0029623,1.497,0.010862,0.027508,1.0397e-06,0.2,0.32,0
0.012254,0.00078597,0.029348,0.00033227,0.002968,0.00072881,0,0,0.058035,-0.0057986,0,0.0032067,0,0,0,0.029366,0.00031397,0.002968,1.4379,0.010883,0.02782,1.072e-06,0.22,0.32,0
0.01342,0.00084139,0.029588,0.00018881,0.0029777,0.00071185,0,0,0.058543,-0.0061356,0,0.0031322,0,0,0,0.029605,0.00017158,0.0029777,1.3862,0.010918,0.028136,1.1057e-06,0.24,0.32,0
0.014596,0.00089244,0.029849,7.2244e-05,0.0029921,0.00069779,0,0,0.059085,-0.0064237,0,0.0030703,0,0,0,0.029865,5.5901e-05,0.0029921,1.3417,0.010971,0.028455,1.141e-06,0.26,0.32,0
0.015783,0.00093862,0.030132,-1.1381e-05,0.0030121,0.00068504,0,0,0.059664,-0.0066516,0,0.0030142,0,0,0,0.030148,-2.6941e-05,0.0030121,1.3012,0.011044,0.028776,1.1779e-06,0.28,0.32,0
0.016983,0.00097921,0.030438,-5.2775e-05,0.0030385,0.00066909,0,0,0.060279,-0.0068009,0,0.002944,0,0,0,0.030453,-6.7451e-05,0.0030385,1.2565,0.011141,0.029092,1.2161e-06,0.3,0.32,0
0.018194,0.0010131,0.030764,-3.7607e-05,0.0030726,0.00064036,0,0,0.060921,-0.0068425,0,0.0028176,0,0,0,0.030777,-5.0914e-05,0.0030726,1.1905,0.011266,0.029391,1.2544e-06,0.32,0.32,0
0.019419,0.0010387,0.031099,5.617e-05,0.0031155,0.00058185,0,0,0.061564,-0.0067306,0,0.0025602,0,0,0,0.03111,4.5268e-05,0.0031155,1.0734,0.011424,0.029649,1.2904e-06,0.34,0.32,0
0.020657,0.0010535,0.031415,0.0002619,0.0031677,0.00047097,0,0,0.062144,-0.0063928,0,0.0020723,0,0,0,0.031422,0.00025478,0.0031677,0.86593,0.011615,0.029818,1.3179e-06,0.36,0.32,0
0.021905,0.0010552,0.031651,0.00063593,0.0032287,0.00030414,0,0,0.06253,-0.0057041,0,0.0013382,0,0,0,0.031654,0.00063295,0.0032287,0.56177,0.011839,0.029808,1.3256e-06,0.38,0.32,0
0.023158,0.0010464,0.031788,0.00124,0.0033028,0.00013084,0,0,0.062667,-0.004538,0,0.00057569,0,0,0,0.031788,0.0012395,0.0033028,0.2454,0.01211,0.029571,1.3063e-06,0.4,0.32,0
0.024412,0.0010356,0.031825,0.0010599,0.0032885,8.5579e-05,0,0,0.04706,-0.0032685,0,0.00020603,0,0,0,0.031825,0.0010596,0.0032885,0.15617,0.012058,0.02972,1.3206e-06,0.42,0.32,0
0.025041,0.0010302,0.031926,0.0012022,0.0033128,0.00013816,0,0,0.031474,-0.0023216,0,0.00030395,0,0,0,0.031926,0.0012016,0.0033128,0.25764,0.012147,0.029725,1.326e-06,0.44,0.32,0
0.025671,0.0010353,0.03208,0.001632,0.0033712,0.00025935,0,0,0.03158,-0.0019132,0,0.00057057,0,0,0,0.032082,0.0016298,0.0033712,0.48798,0.012361,0.02962,1.3192e-06,0.46,0.32,0
0.026304,0.0010491,0.032263,0.0016927,0.0033956,0.00024191,0,0,0.031754,-0.0018732,0,0.0005322,0,0,0,0.032265,0.0016908,0.0033956,0.45335,0.01245,0.029759,1.3385e-06,0.48,0.32,0
0.026941,0.0010667,0.032423,0.0017171,0.003414,0.00017178,0,0,0.03191,-0.0018666,0,0.00037791,0,0,0,0.032424,0.0017161,0.003414,0.32052,0.012518,0.029895,1.3572e-06,0.5,0.32,0
0.02758,0.0010846,0.032503,0.0017346,0.0034238,9.194e-05,0,0,0.031987,-0.001858,0,0.00020227,0,0,0,0.032503,0.0017344,0.0034238,0.17121,0.012554,0.02996,1.3664e-06,0.52,0.32,0
0.02822,0.0011022,0.032541,0.0017656,0.0034307,4.4171e-05,0,0,0.032022,-0.0018316,0,9.7177e-05,0,0,0,0.032541,0.0017655,0.0034307,0.082235,0.012579,0.029978,1.3693e-06,0.54,0.32,0
0.028861,0.0011197,0.032557,0.0017902,0.0034347,3.0991e-05,0,0,0.032034,-0.0018089,0,6.818e-05,0,0,0,0.032557,0.0017902,0.0034347,0.057714,0.012594,0.029978,1.3696e-06,0.56,0.32,0
0.029502,0.0011378,0.032569,0.0017882,0.0034357,4.5496e-05,0,0,0.032046,-0.0018122,0,0.00010009,0,0,0,0.032569,0.0017882,0.0034357,0.084687,0.012598,0.029991,1.3714e-06,0.58,0.32,0
0.030143,0.0011571,0.032589,0.0017452,0.0034334,7.3094e-05,0,0,0.032071,-0.001857,0,0.00016081,0,0,0,0.032589,0.001745,0.0034334,0.13578,0.012589,0.030035,1.3768e-06,0.6,0.32,0
0.030785,0.0011776,0.032618,0.0016609,0.0034279,9.8529e-05,0,0,0.032109,-0.0019436,0,0.00021676,0,0,0,0.032618,0.0016606,0.0034279,0.18236,0.012569,0.030113,1.3862e-06,0.62,0.32,0
0.031427,0.0011989,0.032649,0.0015496,0.0034199,0.00010923,0,0,0.032152,-0.0020573,0,0.0002403,0,0,0,0.032649,0.0015492,0.0034199,0.20123,0.01254,0.030208,1.3975e-06,0.64,0.32,0
0.032071,0.0012206,0.032665,0.0014322,0.0034098,0.00010326,0,0,0.032181,-0.0021754,0,0.00022718,0,0,0,0.032666,0.0014318,0.0034098,0.18943,0.012502,0.030293,1.4073e-06,0.66,0.32,0
0.032715,0.0012426,0.032646,0.0013311,0.0033977,9.3658e-05,0,0,0.032173,-0.0022733,0,0.00020605,0,0,0,0.032647,0.0013308,0.0033977,0.17136,0.012458,0.030335,1.4113e-06,0.68,0.32,0
0.033358,0.0012655,0.032535,0.0012372,0.0033772,0.00014181,0,0,0.032073,-0.002354,0,0.00031199,0,0,0,0.032536,0.0012366,0.0033772,0.2596,0.012383,0.030285,1.4027e-06,0.7,0.32,0
0.033997,0.0012929,0.032216,0.0011401,0.0033356,0.00030646,0,0,0.031768,-0.002415,0,0.0006742,0,0,0,0.032219,0.0011371,0.0033356,0.56496,0.01223,0.030043,1.3675e-06,0.72,0.32,0
0.034628,0.0013261,0.031109,0.00083659,0.0031945,0.00044313,0,0,0.030705,-0.0025937,0,0.00097488,0,0,0,0.031115,0.00083011,0.0031945,0.83847,0.011713,0.029175,1.2472e-06,0.74,0.32,0
0.035226,0.0013349,0.030848,0.00041869,0.0031266,0.00089056,0,0,0.046054,-0.0039717,0,0.003096,0,0,0,0.030875,0.00039189,0.0031266,1.6779,0.011464,0.029222,1.2399e-06,0.76,0.32,0
0.036471,0.0014018,0.03108,0.00069384,0.0031774,-0.00088896,0,0,0.061385,-0.0054637,0,-0.0039114,0,0,0,0.031106,0.00066786,0.0031774,-1.6743,0.01165,0.029264,1.2553e-06,0.78,0.32,0
0.037681,0.0015068,0.031214,0.00013842,0.0031353,-0.00045821,0,0,0.061773,-0.006593,0,-0.0020161,0,0,0,0.031221,0.00013167,0.0031353,-0.84458,0.011496,0.029701,1.2994e-06,0.8,0.32,0
0.038941,0.0015594,0.031799,-0.00051802,0.0031281,-0.00051825,0,0,0.063075,-0.0080214,0,-0.0022803,0,0,0,0.031807,-0.00052633,0.0031281,-0.91851,0.01147,0.03067,1.411e-06,0.82,0.32,0
0.040204,0.0015959,0.031659,-0.00088608,0.0030773,-0.00045541,0,0,0.06288,-0.0087195,0,-0.0020038,0,0,0,0.031666,-0.00089245,0.0030773,-0.80154,0.011284,0.030766,1.4121e-06,0.84,0.32,0
0.041457,0.0016234,0.03137,-0.0011201,0.003025,-0.00038879,0,0,0.062359,-0.0091191,0,-0.0017107,0,0,0,0.031374,-0.0011247,0.003025,-0.6855,0.011092,0.030636,1.3859e-06,0.86,0.32,0
0.042699,0.0016445,0.031092,-0.0012712,0.002982,-0.00032363,0,0,0.061841,-0.0093571,0,-0.001424,0,0,0,0.031095,-0.0012744,0.002982,-0.57288,0.010934,0.030465,1.3571e-06,0.88,0.32,0
0.04393,0.0016609,0.030852,-0.001371,0.0029481,-0.00026069,0,0,0.061389,-0.0095021,0,-0.001147,0,0,0,0.030854,-0.0013731,0.0029481,-0.46349,0.01081,0.030299,1.3311e-06,0.9,0.32,0
0.045154,0.0016735,0.030658,-0.0014373,0.0029221,-0.00020148,0,0,0.06102,-0.0095908,0,-0.00088652,0,0,0,0.03066,-0.0014386,0.0029221,-0.35966,0.010714,0.030155,1.3096e-06,0.92,0.32,0
0.046371,0.001683,0.03051,-0.0014809,0.0029029,-0.00014649,0,0,0.060735,-0.0096444,0,-0.00064457,0,0,0,0.03051,-0.0014816,0.0029029,-0.26237,0.010644,0.030041,1.2929e-06,0.94,0.32,0
0.047584,0.0016895,0.030405,-0.0015084,0.0028897,-9.5313e-05,0,0,0.060534,-0.0096757,0,-0.00041938,0,0,0,0.030405,-0.0015087,0.0028897,-0.17112,0.010595,0.029958,1.2811e-06,0.96,0.32,0
0.048793,0.0016934,0.030343,-0.0015235,0.0028819,-4.6925e-05,0,0,0.060414,-0.009692,0,-0.00020647,0,0,0,0.030343,-0.0015236,0.0028819,-0.084372,0.010567,0.029908,1.2741e-06,0.98,0.32,0
0.05,0.0016947,0.030322,-0.0015283,0.0028794,1.4615e-05,0,0,0.060374,-0.009697,0,6.4306e-05,0,0,0,0.030322,-0.0015283,0.0028794,0.026291,0.010558,0.029891,1.2717e-06,1,0.32,0
0,0,0.027486,0.003054,0.003054,0.00073086,0,0,0.05375,-2.7105e-19,0,0.0032158,0,0,0,0.027508,0.0030322,0.003054,1.7119,0.011198,0.024465,7.5205e-07,0,0.34,0
0.001075,6.4315e-05,0.027544,0.0027285,0.0030272,0.00072696,0,0,0.053936,-0.00065714,0,0.0031986,0,0,0,0.027565,0.0027073,0.0030272,1.6765,0.0111,0.024699,7.7346e-07,0.02,0.34,0
0.0021574,0.00012905,0.027698,0.0024302,0.0030129,0.00072306,0,0,0.054308,-0.0012818,0,0.0031815,0,0,0,0.027719,0.0024095,0.0030129,1.6378,0.011047,0.025013,8.022e-07,0.04,0.34,0
0.0032473,0.00019392,0.027855,0.002146,0.0030001,0.00071474,0,0,0.054682,-0.0018791,0,0.0031449,0,0,0,0.027875,0.0021261,0.0030001,1.5912,0.011,0.025323,8.307e-07,0.06,0.34,0
0.0043447,0.00025855,0.028016,0.0018747,0.0029891,0.00070149,0,0,0.05506,-0.0024517,0,0.0030866,0,0,0,0.028035,0.0018559,0.0029891,1.536,0.01096,0.025632,8.5916e-07,0.08,0.34,0
0.0054497,0.00032256,0.028183,0.0016158,0.0029799,0.00068313,0,0,0.055447,-0.0030009,0,0.0030058,0,0,0,0.0282,0.0015983,0.0029799,1.472,0.010926,0.025939,8.8779e-07,0.1,0.34,0
0.0065626,0.00038551,0.028356,0.0013696,0.0029726,0.00065983,0,0,0.055843,-0.0035265,0,0.0029032,0,0,0,0.028372,0.0013535,0.0029726,1.3998,0.010899,0.026246,9.1672e-07,0.12,0.34,0
0.0076835,0.00044697,0.028537,0.0011366,0.0029674,0.00063207,0,0,0.056253,-0.0040277,0,0.0027811,0,0,0,0.028552,0.001122,0.0029674,1.3208,0.01088,0.026555,9.4612e-07,0.14,0.34,0
0.0088127,0.00050653,0.028728,0.00091775,0.0029646,0.00060062,0,0,0.05668,-0.004503,0,0.0026428,0,0,0,0.028741,0.00090478,0.0029646,1.2367,0.01087,0.026866,9.7619e-07,0.16,0.34,0
0.0099507,0.00056381,0.028931,0.00071422,0.0029645,0.00056643,0,0,0.057126,-0.0049506,0,0.0024923,0,0,0,0.028942,0.00070286,0.0029645,1.1496,0.01087,0.027179,1.0071e-06,0.18,0.34,0
0.011098,0.00061848,0.029147,0.00052758,0.0029675,0.00053054,0,0,0.057596,-0.0053679,0,0.0023344,0,0,0,0.029157,0.00051775,0.0029675,1.0616,0.010881,0.027497,1.0392e-06,0.2,0.34,0
0.012254,0.00067023,0.029381,0.00035995,0.0029741,0.00049399,0,0,0.058095,-0.0057511,0,0.0021735,0,0,0,0.029389,0.00035154,0.0029741,0.97491,0.010905,0.027819,1.0727e-06,0.22,0.34,0
0.013421,0.00071881,0.029633,0.00021445,0.0029847,0.00045769,0,0,0.058626,-0.0060946,0,0.0020139,0,0,0,0.02964,0.00020733,0.0029847,0.89112,0.010944,0.028147,1.1078e-06,0.24,0.34,0
0.014599,0.00076399,0.029906,9.5802e-05,0.0030002,0.00042221,0,0,0.059193,-0.0063896,0,0.0018577,0,0,0,0.029912,8.9823e-05,0.0030002,0.81129,0.011001,0.028479,1.1446e-06,0.26,0.34,0
0.015789,0.00080557,0.0302,1.1468e-05,0.0030211,0.00038744,0,0,0.059793,-0.0066213,0,0.0017047,0,0,0,0.030205,6.4962e-06,0.0030211,0.73517,0.011078,0.02881,1.1829e-06,0.28,0.34,0
0.016991,0.00084326,0.030512,-2.6704e-05,0.0030485,0.00035204,0,0,0.06042,-0.0067655,0,0.001549,0,0,0,0.030516,-3.0761e-05,0.0030485,0.66037,0.011178,0.029129,1.2218e-06,0.3,0.34,0
0.018206,0.00087671,0.030832,4.573e-08,0.0030832,0.00031265,0,0,0.061047,-0.0067829,0,0.0013757,0,0,0,0.030835,-3.1245e-06,0.0030832,0.58094,0.011305,0.029417,1.259e-06,0.32,0.34,0
0.019433,0.00090537,0.031137,0.00012036,0.0031257,0.00026329,0,0,0.061624,-0.0066118,0,0.0011585,0,0,0,0.031139,0.00011812,0.0031257,0.48633,0.011461,0.029632,1.29e-06,0.34,0.34,0
0.020671,0.00092853,0.031392,0.00037359,0.0031766,0.0001984,0,0,0.062074,-0.0061666,0,0.00087298,0,0,0,0.031393,0.00037232,0.0031766,0.36646,0.011647,0.029718,1.3077e-06,0.36,0.34,0
0.021916,0.000946,0.031568,0.00079293,0.003236,0.00012154,0,0,0.062329,-0.0053749,0,0.00053478,0,0,0,0.031568,0.00079245,0.003236,0.22628,0.011865,0.029629,1.3054e-06,0.38,0.34,0
0.023164,0.00095894,0.031659,0.0013407,0.0032999,5.8565e-05,0,0,0.062389,-0.0043103,0,0.00025769,0,0,0,0.031659,0.0013406,0.0032999,0.11068,0.0121,0.029388,1.284e-06,0.4,0.34,0
0.024412,0.00097044,0.031693,0.0010591,0.0032752,2.7525e-05,0,0,0.046853,-0.0032502,0,7.8121e-05,0,0,0,0.031693,0.0010591,0.0032752,0.050949,0.012009,0.029594,1.3041e-06,0.42,0.34,0
0.025038,0.00098226,0.031777,0.0010896,0.0032867,4.2724e-05,0,0,0.03134,-0.0024168,0,9.3992e-05,0,0,0,0.031777,0.0010895,0.0032867,0.079768,0.012051,0.02965,1.314e-06,0.44,0.34,0
0.025665,0.00099645,0.031911,0.0015755,0.0033487,6.1788e-05,0,0,0.031419,-0.0019505,0,0.00013593,0,0,0,0.031911,0.0015754,0.0033487,0.1167,0.012278,0.029489,1.3011e-06,0.46,0.34,0
0.026295,0.001013,0.032097,0.0017536,0.003385,6.7345e-05,0,0,0.031583,-0.0017946,0,0.00014816,0,0,0,0.032097,0.0017534,0.003385,0.12716,0.012412,0.029562,1.3132e-06,0.48,0.34,0
0.026929,0.0010306,0.032277,0.0017815,0.0034059,4.4388e-05,0,0,0.031759,-0.0017868,0,9.7654e-05,0,0,0,0.032277,0.0017814,0.0034059,0.083397,0.012488,0.029717,1.3343e-06,0.5,0.34,0
0.027565,0.0010483,0.032413,0.0017807,0.0034194,2.1563e-05,0,0,0.031893,-0.0018026,0,4.7439e-05,0,0,0,0.032413,0.0017807,0.0034194,0.040332,0.012538,0.029847,1.3517e-06,0.52,0.34,0
0.028204,0.0010659,0.032495,0.001782,0.0034277,9.5307e-06,0,0,0.031974,-0.0018103,0,2.0967e-05,0,0,0,0.032495,0.001782,0.0034277,0.01778,0.012568,0.029924,1.3622e-06,0.54,0.34,0
0.028844,0.0010835,0.032541,0.0017818,0.0034322,1.2437e-05,0,0,0.032019,-0.0018155,0,2.7362e-05,0,0,0,0.032541,0.0017818,0.0034322,0.023167,0.012585,0.029968,1.3681e-06,0.56,0.34,0
0.029485,0.0011013,0.03257,0.0017641,0.0034334,2.6759e-05,0,0,0.03205,-0.0018363,0,5.8869e-05,0,0,0,0.03257,0.001764,0.0034334,0.049768,0.012589,0.030006,1.3731e-06,0.58,0.34,0
0.030126,0.0011196,0.032596,0.001717,0.0034313,4.7218e-05,0,0,0.032081,-0.0018858,0,0.00010388,0,0,0,0.032596,0.0017169,0.0034313,0.087612,0.012582,0.030059,1.3796e-06,0.6,0.34,0
0.030768,0.0011385,0.032622,0.0016398,0.0034262,6.7836e-05,0,0,0.032116,-0.001965,0,0.00014924,0,0,0,0.032623,0.0016397,0.0034262,0.12545,0.012563,0.030129,1.3881e-06,0.62,0.34,0
0.031411,0.0011578,0.032644,0.0015426,0.0034186,8.4294e-05,0,0,0.032148,-0.0020637,0,0.00018545,0,0,0,0.032644,0.0015423,0.0034186,0.15529,0.012535,0.030207,1.3972e-06,0.64,0.34,0
0.032054,0.0011773,0.032653,0.0014394,0.0034092,9.564e-05,0,0,0.032168,-0.0021669,0,0.00021041,0,0,0,0.032653,0.0014391,0.0034092,0.17555,0.0125,0.030277,1.4052e-06,0.66,0.34,0
0.032698,0.0011972,0.032657,0.0013318,0.0033989,0.00011226,0,0,0.032184,-0.0022737,0,0.00024697,0,0,0,0.032657,0.0013314,0.0033989,0.20533,0.012462,0.030345,1.4126e-06,0.68,0.34,0
0.033342,0.0012179,0.03272,0.0011887,0.0033909,0.00015937,0,0,0.032263,-0.0024224,0,0.00035061,0,0,0,0.032721,0.0011879,0.0033909,0.28958,0.012433,0.030492,1.4304e-06,0.7,0.34,0
0.033988,0.0012406,0.03305,0.00090855,0.0033959,0.00032043,0,0,0.03262,-0.0027361,0,0.00070494,0,0,0,0.033054,0.00090536,0.0033959,0.57112,0.012452,0.030978,1.4936e-06,0.72,0.34,0
0.034646,0.001268,0.034007,0.00042082,0.0034428,0.0004155,0,0,0.033621,-0.0033242,0,0.00091409,0,0,0,0.034012,0.00041568,0.0034428,0.70867,0.012623,0.03219,1.6621e-06,0.74,0.34,0
0.035333,0.0012716,0.030215,0.0012663,0.0031482,0.0012967,0,0,0.040772,-0.0028618,0,0.0046588,0,0,0,0.03029,0.0011913,0.0031482,2.9243,0.011543,0.028172,1.3536e-06,0.76,0.34,0
0.036213,0.0013087,0.03743,0.0010805,0.0038511,-0.00041341,0,0,0.051879,-0.004148,0,-0.0024322,0,0,0,0.037466,0.0010442,0.0038511,-0.98879,0.01412,0.035104,2.4144e-06,0.78,0.34,0
0.037566,0.0013714,0.033569,1.5627e-05,0.0033584,-0.00021464,0,0,0.066462,-0.0073541,0,-0.00094442,0,0,0,0.03357,1.4253e-05,0.0033584,-0.36651,0.012314,0.032015,1.6235e-06,0.8,0.34,0
0.038871,0.0013959,0.032579,-0.00056612,0.0032013,-0.00017424,0,0,0.064631,-0.0082883,0,-0.00076665,0,0,0,0.03258,-0.00056704,0.0032013,-0.30119,0.011738,0.031433,1.518e-06,0.82,0.34,0
0.040151,0.0014193,0.032007,-0.00093118,0.0031076,-9.6661e-05,0,0,0.063579,-0.0088853,0,-0.00042531,0,0,0,0.032008,-0.00093146,0.0031076,-0.16814,0.011395,0.031117,1.4599e-06,0.84,0.34,0
0.041414,0.001439,0.031605,-0.0011622,0.0030443,-6.9147e-05,0,0,0.062834,-0.0092544,0,-0.00030425,0,0,0,0.031606,-0.0011624,0.0030443,-0.12091,0.011163,0.03088,1.4182e-06,0.86,0.34,0
0.042665,0.0014555,0.031281,-0.0013114,0.002997,-5.0987e-05,0,0,0.062225,-0.0094784,0,-0.00022435,0,0,0,0.031281,-0.0013115,0.002997,-0.089633,0.010989,0.030666,1.3831e-06,0.88,0.34,0
0.043903,0.0014692,0.031016,-0.0014081,0.0029608,-3.6903e-05,0,0,0.061721,-0.0096116,0,-0.00016237,0,0,0,0.031016,-0.0014081,0.0029608,-0.06521,0.010856,0.030475,1.3535e-06,0.9,0.34,0
0.045133,0.0014801,0.030804,-0.0014709,0.0029334,-2.5642e-05,0,0,0.061317,-0.0096893,0,-0.00011283,0,0,0,0.030804,-0.0014709,0.0029334,-0.045521,0.010756,0.030314,1.3295e-06,0.92,0.34,0
0.046356,0.0014886,0.030643,-0.0015112,0.0029132,-1.6836e-05,0,0,0.061006,-0.0097337,0,-7.4077e-05,0,0,0,0.030643,-0.0015112,0.0029132,-0.029999,0.010682,0.030187,1.311e-06,0.94,0.34,0
0.047574,0.0014946,0.03053,-0.001536,0.0028994,-1.0037e-05,0,0,0.060788,-0.0097579,0,-4.4161e-05,0,0,0,0.03053,-0.001536,0.0028994,-0.017933,0.010631,0.030095,1.298e-06,0.96,0.34,0
0.048788,0.0014983,0.030463,-0.0015494,0.0028914,-4.6537e-06,0,0,0.060658,-0.0097698,0,-2.0476e-05,0,0,0,0.030463,-0.0015494,0.0028914,-0.0083292,0.010602,0.03004,1.2902e-06,0.98,0.34,0
0.05,0.0014995,0.030441,-0.0015537,0.0028887,1.3703e-05,0,0,0.060615,-0.0097733,0,6.0291e-05,0,0,0,0.030441,-0.0015537,0.0028887,0.024539,0.010592,0.030021,1.2877e-06,1,0.34,0
0,0,0.027463,0.0030515,0.0030515,0.00058224,0,0,0.053706,8.1315e-20,0,0.0025619,0,0,0,0.027477,0.0030376,0.0030515,1.3655,0.011189,0.024433,7.4909e-07,0,0.36,0
0.0010741,5.1237e-05,0.02752,0.0027305,0.0030251,0.00057435,0,0,0.053889,-0.00064799,0,0.0025272,0,0,0,0.027534,0.0027172,0.0030251,1.3265,0.011092,0.024664,7.7016e-07,0.02,0.36,0
0.0021556,0.00010356,0.027673,0.0024373,0.003011,0.0005689,0,0,0.054256,-0.0012622,0,0.0025032,0,0,0,0.027686,0.0024245,0.003011,1.2908,0.01104,0.024973,7.9843e-07,0.04,0.36,0
0.0032444,0.00015658,0.027828,0.0021587,0.0029987,0.00055727,0,0,0.054625,-0.001848,0,0.002452,0,0,0,0.02784,0.0021466,0.0029987,1.2431,0.010995,0.025278,8.2643e-07,0.06,0.36,0
0.0043406,0.00020987,0.027988,0.0018932,0.0029881,0.00053926,0,0,0.054999,-0.0024087,0,0.0023727,0,0,0,0.027999,0.0018821,0.0029881,1.1834,0.010956,0.025582,8.544e-07,0.08,0.36,0
0.0054443,0.00026299,0.028153,0.0016402,0.0029793,0.00051481,0,0,0.055382,-0.0029461,0,0.0022652,0,0,0,0.028163,0.0016302,0.0029793,1.112,0.010924,0.025884,8.8255e-07,0.1,0.36,0
0.0065558,0.00031552,0.028325,0.0013995,0.0029724,0.00048406,0,0,0.055776,-0.0034606,0,0.0021299,0,0,0,0.028334,0.0013908,0.0029724,1.0296,0.010899,0.026188,9.1108e-07,0.12,0.36,0
0.0076754,0.00036704,0.028506,0.0011715,0.0029677,0.00044733,0,0,0.056184,-0.0039518,0,0.0019683,0,0,0,0.028513,0.0011641,0.0029677,0.93732,0.010882,0.026493,9.4015e-07,0.14,0.36,0
0.0088032,0.00041715,0.028697,0.00095686,0.0029654,0.00040512,0,0,0.05661,-0.0044188,0,0.0017825,0,0,0,0.028703,0.00095094,0.0029654,0.83652,0.010873,0.026802,9.6998e-07,0.16,0.36,0
0.0099397,0.00046552,0.028901,0.00075671,0.0029657,0.00035807,0,0,0.057057,-0.0048598,0,0.0015755,0,0,0,0.028905,0.00075216,0.0029657,0.7288,0.010874,0.027114,1.0008e-06,0.18,0.36,0
0.011085,0.00051185,0.029119,0.00057249,0.0029691,0.00030693,0,0,0.057529,-0.0052726,0,0.0013505,0,0,0,0.029122,0.00056919,0.0029691,0.61595,0.010887,0.027432,1.0329e-06,0.2,0.36,0
0.012241,0.00055593,0.029354,0.00040629,0.002976,0.0002526,0,0,0.058031,-0.0056533,0,0.0011115,0,0,0,0.029356,0.00040409,0.002976,0.49993,0.010912,0.027755,1.0664e-06,0.22,0.36,0
0.013407,0.00059761,0.029608,0.00026123,0.0029869,0.00019615,0,0,0.058567,-0.0059966,0,0.00086307,0,0,0,0.029609,0.00025991,0.0029869,0.38294,0.010952,0.028085,1.1017e-06,0.24,0.36,0
0.014584,0.00063686,0.029884,0.00014207,0.0030026,0.00013895,0,0,0.059139,-0.0062931,0,0.00061136,0,0,0,0.029884,0.00014142,0.0030026,0.26766,0.01101,0.028421,1.1388e-06,0.26,0.36,0
0.015772,0.00067377,0.030181,5.6326e-05,0.0030237,8.2931e-05,0,0,0.059746,-0.0065283,0,0.0003649,0,0,0,0.030181,5.6098e-05,0.0030237,0.15773,0.011087,0.028756,1.1776e-06,0.28,0.36,0
0.016973,0.00070859,0.030496,1.593e-05,0.0030512,3.1143e-05,0,0,0.060379,-0.0066776,0,0.00013703,0,0,0,0.030496,1.5898e-05,0.0030512,0.058542,0.011188,0.029082,1.217e-06,0.3,0.36,0
0.018187,0.00074182,0.030819,3.9722e-05,0.0030859,-1.1504e-05,0,0,0.061013,-0.0067016,0,-5.0616e-05,0,0,0,0.030819,3.9718e-05,0.0030859,-0.021414,0.011315,0.029375,1.2548e-06,0.32,0.36,0
0.019414,0.00077421,0.031128,0.00015643,0.0031284,-3.7623e-05,0,0,0.061598,-0.0065384,0,-0.00016554,0,0,0,0.031128,0.00015638,0.0031284,-0.069602,0.011471,0.029597,1.2865e-06,0.34,0.36,0
0.020651,0.00080681,0.031386,0.00040541,0.0031792,-4.0325e-05,0,0,0.062056,-0.0061023,0,-0.00017743,0,0,0,0.031387,0.00040535,0.0031792,-0.074577,0.011657,0.029692,1.3049e-06,0.36,0.36,0
0.021896,0.00084026,0.031565,0.0008197,0.0032385,-2.166e-05,0,0,0.062319,-0.0053214,0,-9.5304e-05,0,0,0,0.031565,0.00081969,0.0032385,-0.040364,0.011874,0.029611,1.3034e-06,0.38,0.36,0
0.023144,0.00087396,0.03166,0.0013613,0.0033021,-5.5416e-06,0,0,0.062388,-0.0042699,0,-2.4383e-05,0,0,0,0.03166,0.0013613,0.0033021,-0.010479,0.012108,0.029377,1.2829e-06,0.4,0.36,0
0.024392,0.0009056,0.031698,0.0010784,0.0032777,-1.3756e-05,0,0,0.046858,-0.0032256,0,-9.8038e-06,0,0,0,0.031698,0.0010784,0.0032777,-0.024175,0.012018,0.029588,1.3036e-06,0.42,0.36,0
0.025018,0.00093357,0.031787,0.0011074,0.0032894,-6.6268e-05,0,0,0.031347,-0.0024003,0,-0.00014579,0,0,0,0.031787,0.0011072,0.0032894,-0.12376,0.012061,0.029649,1.3142e-06,0.44,0.36,0
0.025646,0.0009573,0.031925,0.0015855,0.003351,-0.0001132,0,0,0.031431,-0.0019421,0,-0.00024905,0,0,0,0.031925,0.0015851,0.003351,-0.21378,0.012287,0.029497,1.3022e-06,0.46,0.36,0
0.026276,0.0009773,0.032114,0.0017566,0.003387,-0.00013209,0,0,0.031599,-0.0017935,0,-0.00029059,0,0,0,0.032114,0.001756,0.003387,-0.24929,0.012419,0.029576,1.3152e-06,0.48,0.36,0
0.026909,0.00099526,0.032297,0.0017784,0.0034076,-0.0001094,0,0,0.031779,-0.0017921,0,-0.00024069,0,0,0,0.032297,0.001778,0.0034076,-0.20539,0.012494,0.029738,1.3371e-06,0.5,0.36,0
0.027547,0.0010125,0.032435,0.0017724,0.0034208,-7.5574e-05,0,0,0.031916,-0.0018132,0,-0.00016626,0,0,0,0.032436,0.0017722,0.0034208,-0.14122,0.012543,0.029873,1.3552e-06,0.52,0.36,0
0.028186,0.0010298,0.032519,0.0017694,0.0034289,-4.3008e-05,0,0,0.031999,-0.0018254,0,-9.4618e-05,0,0,0,0.032519,0.0017693,0.0034289,-0.080136,0.012573,0.029955,1.3662e-06,0.54,0.36,0
0.028827,0.0010471,0.032567,0.0017658,0.0034333,-1.7644e-05,0,0,0.032047,-0.0018342,0,-3.8817e-05,0,0,0,0.032567,0.0017658,0.0034333,-0.032821,0.012589,0.030002,1.3726e-06,0.56,0.36,0
0.029468,0.0010644,0.032598,0.0017455,0.0034343,2.241e-06,0,0,0.03208,-0.0018577,0,4.9302e-06,0,0,0,0.032598,0.0017455,0.0034343,0.0041617,0.012592,0.030043,1.3779e-06,0.58,0.36,0
0.03011,0.0010817,0.032625,0.0016968,0.0034322,2.011e-05,0,0,0.032112,-0.0019089,0,4.4242e-05,0,0,0,0.032625,0.0016968,0.0034322,0.037255,0.012585,0.030098,1.3847e-06,0.6,0.36,0
0.030752,0.001099,0.032652,0.001619,0.0034271,4.0118e-05,0,0,0.032148,-0.001989,0,8.826e-05,0,0,0,0.032652,0.0016189,0.0034271,0.074068,0.012566,0.03017,1.3933e-06,0.62,0.36,0
0.031396,0.0011163,0.032674,0.001522,0.0034196,6.4703e-05,0,0,0.03218,-0.0020874,0,0.00014235,0,0,0,0.032674,0.0015218,0.0034196,0.119,0.012539,0.030248,1.4026e-06,0.64,0.36,0
0.03204,0.0011339,0.032684,0.00142,0.0034104,9.2818e-05,0,0,0.032201,-0.0021894,0,0.0002042,0,0,0,0.032684,0.0014198,0.0034104,0.1701,0.012505,0.030318,1.4105e-06,0.66,0.36,0
0.032684,0.0011516,0.032687,0.001315,0.0034002,0.00011177,0,0,0.032216,-0.0022938,0,0.0002459,0,0,0,0.032688,0.0013146,0.0034002,0.20413,0.012467,0.030384,1.4178e-06,0.68,0.36,0
0.033328,0.0011686,0.032749,0.001176,0.0033925,9.3654e-05,0,0,0.032292,-0.0024382,0,0.00020604,0,0,0,0.032749,0.0011757,0.0033925,0.16995,0.012439,0.030526,1.4349e-06,0.7,0.36,0
0.033976,0.0011835,0.033071,0.00090123,0.0033973,-4.8377e-05,0,0,0.032642,-0.0027456,0,-0.00010643,0,0,0,0.033071,0.00090115,0.0033973,-0.08616,0.012457,0.030998,1.4963e-06,0.72,0.36,0
0.034634,0.0011931,0.033999,0.00041979,0.0034419,-0.00012894,0,0,0.033613,-0.0033243,0,-0.00028368,0,0,0,0.034,0.0004193,0.0034419,-0.22001,0.01262,0.032176,1.6601e-06,0.74,0.36,0
0.03532,0.0012265,0.030211,0.0012396,0.003145,-0.0010264,0,0,0.040774,-0.002903,0,-0.0038177,0,0,0,0.030263,0.0011875,0.003145,-2.3794,0.011532,0.028148,1.3504e-06,0.76,0.36,0
0.0362,0.0012308,0.037467,0.0011024,0.003857,0.00072579,0,0,0.051937,-0.0041129,0,0.0034014,0,0,0,0.037514,0.001056,0.003857,1.4796,0.014142,0.035141,2.4198e-06,0.78,0.36,0
0.037556,0.0012126,0.033623,2.3241e-05,0.0033646,0.00047583,0,0,0.066568,-0.007351,0,0.0020936,0,0,0,0.033629,1.6504e-05,0.0033646,0.81119,0.012337,0.03207,1.632e-06,0.8,0.36,0
0.038863,0.0012278,0.032613,-0.00055853,0.0032054,0.00041608,0,0,0.064696,-0.0082807,0,0.0018307,0,0,0,0.032618,-0.00056375,0.0032054,0.71853,0.011753,0.031467,1.5231e-06,0.82,0.36,0
0.040144,0.0012405,0.032036,-0.00092274,0.0031113,0.00032266,0,0,0.063634,-0.0088749,0,0.0014197,0,0,0,0.032039,-0.0009259,0.0031113,0.56085,0.011408,0.031143,1.4639e-06,0.84,0.36,0
0.041408,0.0012533,0.031632,-0.0011521,0.003048,0.00027648,0,0,0.062885,-0.0092403,0,0.0012165,0,0,0,0.031635,-0.0011545,0.003048,0.48315,0.011176,0.030903,1.4217e-06,0.86,0.36,0
0.042659,0.0012654,0.031307,-0.0012995,0.0030007,0.00023638,0,0,0.062273,-0.0094605,0,0.0010401,0,0,0,0.031308,-0.0013013,0.0030007,0.41534,0.011003,0.030686,1.3862e-06,0.88,0.36,0
0.043899,0.0012764,0.03104,-0.0013946,0.0029646,0.00019704,0,0,0.061767,-0.0095903,0,0.00086697,0,0,0,0.031042,-0.0013958,0.0029646,0.34805,0.01087,0.030492,1.3562e-06,0.9,0.36,0
0.04513,0.001286,0.030828,-0.001456,0.0029372,0.00015753,0,0,0.06136,-0.0096651,0,0.00069313,0,0,0,0.030829,-0.0014568,0.0029372,0.27956,0.01077,0.030329,1.3319e-06,0.92,0.36,0
0.046354,0.0012936,0.030667,-0.0014952,0.0029171,0.00011798,0,0,0.061049,-0.0097071,0,0.00051911,0,0,0,0.030667,-0.0014956,0.0029171,0.21018,0.010696,0.030199,1.3133e-06,0.94,0.36,0
0.047572,0.0012992,0.030553,-0.0015192,0.0029034,7.8534e-05,0,0,0.06083,-0.0097297,0,0.00034555,0,0,0,0.030553,-0.0015194,0.0029034,0.1403,0.010646,0.030106,1.3001e-06,0.96,0.36,0
0.048787,0.0013026,0.030486,-0.0015322,0.0028954,3.9223e-05,0,0,0.060699,-0.0097406,0,0.00017258,0,0,0,0.030486,-0.0015322,0.0028954,0.070189,0.010616,0.03005,1.2923e-06,0.98,0.36,0
0.05,0.0013038,0.030464,-0.0015363,0.0028927,1.3001e-05,0,0,0.060656,-0.0097438,0,5.7204e-05,0,0,0,0.030464,-0.0015363,0.0028927,0.023278,0.010607,0.030031,1.2897e-06,1,0.36,0
0,0,0.027423,0.003047,0.003047,0.00043632,0,0,0.053627,-8.1315e-20,0,0.0019198,0,0,0,0.027431,0.0030392,0.003047,1.0251,0.011172,0.024387,7.4494e-07,0,0.38,0
0.0010725,3.8396e-05,0.027478,0.0027332,0.0030212,0.0004244,0,0,0.053806,-0.00063347,0,0.0018674,0,0,0,0.027486,0.0027259,0.0030212,0.98228,0.011078,0.024613,7.6548e-07,0.02,0.38,0
0.0021522,7.8564e-05,0.027628,0.002447,0.0030075,0.00041743,0,0,0.054164,-0.001233,0,0.0018367,0,0,0,0.027635,0.0024401,0.0030075,0.94947,0.011027,0.024916,7.9301e-07,0.04,0.38,0
0.0032391,0.00012,0.027779,0.0021755,0.0029955,0.00040249,0,0,0.054524,-0.0018039,0,0.0017709,0,0,0,0.027786,0.0021692,0.0029955,0.90038,0.010983,0.025213,8.2025e-07,0.06,0.38,0
0.0043332,0.0001622,0.027935,0.0019172,0.0029852,0.00037965,0,0,0.05489,-0.0023496,0,0.0016705,0,0,0,0.027941,0.0019117,0.0029852,0.83583,0.010946,0.025509,8.4743e-07,0.08,0.38,0
0.0054347,0.00020472,0.028096,0.0016713,0.0029767,0.00034901,0,0,0.055263,-0.002872,0,0.0015356,0,0,0,0.028101,0.0016667,0.0029767,0.75657,0.010915,0.025804,8.7478e-07,0.1,0.38,0
0.0065437,0.00024709,0.028264,0.0014375,0.0029702,0.00031068,0,0,0.055647,-0.0033719,0,0.001367,0,0,0,0.028268,0.0014339,0.0029702,0.66342,0.010891,0.0261,9.0248e-07,0.12,0.38,0
0.0076606,0.0002889,0.028441,0.0012161,0.0029657,0.00026485,0,0,0.056045,-0.0038491,0,0.0011653,0,0,0,0.028443,0.0012136,0.0029657,0.55732,0.010874,0.026397,9.3071e-07,0.14,0.38,0
0.0087855,0.00032978,0.028627,0.0010077,0.0029635,0.00021178,0,0,0.05646,-0.0043028,0,0.00093182,0,0,0,0.028629,0.0010061,0.0029635,0.43929,0.010866,0.026698,9.5968e-07,0.16,0.38,0
0.009919,0.00036942,0.028826,0.00081315,0.0029639,0.00015183,0,0,0.056896,-0.0047316,0,0.00066805,0,0,0,0.028826,0.00081233,0.0029639,0.31054,0.010868,0.027003,9.896e-07,0.18,0.38,0
0.011061,0.00040757,0.029038,0.00063386,0.0029672,8.5494e-05,0,0,0.057356,-0.0051333,0,0.00037618,0,0,0,0.029038,0.00063361,0.0029672,0.17245,0.01088,0.027313,1.0207e-06,0.2,0.38,0
0.012213,0.00044409,0.029267,0.00047173,0.0029738,1.3474e-05,0,0,0.057844,-0.0055046,0,5.9286e-05,0,0,0,0.029267,0.00047172,0.0029738,0.026811,0.010904,0.027629,1.0533e-06,0.22,0.38,0
0.013375,0.00047894,0.029514,0.00032951,0.0029844,-6.3123e-05,0,0,0.058366,-0.0058407,0,-0.00027774,0,0,0,0.029514,0.00032938,0.0029844,-0.12392,0.010943,0.027952,1.0876e-06,0.24,0.38,0
0.014548,0.00051227,0.029783,0.00021133,0.0029994,-0.0001424,0,0,0.058924,-0.0061339,0,-0.00062655,0,0,0,0.029784,0.00021064,0.0029994,-0.27589,0.010998,0.028282,1.1239e-06,0.26,0.38,0
0.015732,0.00054444,0.030075,0.00012341,0.0030199,-0.00022094,0,0,0.059522,-0.0063722,0,-0.00097215,0,0,0,0.030077,0.00012178,0.0030199,-0.42262,0.011073,0.028616,1.162e-06,0.28,0.38,0
0.016929,0.00057616,0.030391,7.5263e-05,0.0030466,-0.00029252,0,0,0.060157,-0.006537,0,-0.0012871,0,0,0,0.030394,7.244e-05,0.0030466,-0.5528,0.011171,0.028949,1.2018e-06,0.3,0.38,0
0.018138,0.00060865,0.030727,8.1481e-05,0.0030808,-0.00034603,0,0,0.060821,-0.0065985,0,-0.0015225,0,0,0,0.030731,7.7575e-05,0.0030808,-0.64685,0.011296,0.029267,1.242e-06,0.32,0.38,0
0.019362,0.00064384,0.031072,0.00016435,0.0031237,-0.00036307,0,0,0.061487,-0.0065105,0,-0.0015975,0,0,0,0.031076,0.00016009,0.0031237,-0.67291,0.011453,0.029546,1.2799e-06,0.34,0.38,0
0.020598,0.00068444,0.031399,0.00035735,0.0031756,-0.00031981,0,0,0.062091,-0.0062001,0,-0.0014072,0,0,0,0.031402,0.00035405,0.0031756,-0.59021,0.011644,0.029738,1.3097e-06,0.36,0.38,0
0.021845,0.00073315,0.031645,0.00071645,0.0032362,-0.00021141,0,0,0.0625,-0.0055434,0,-0.00093019,0,0,0,0.031647,0.00071501,0.0032362,-0.39161,0.011866,0.029751,1.3198e-06,0.38,0.38,0
0.023098,0.00078815,0.031793,0.0013022,0.0033095,-8.554e-05,0,0,0.062663,-0.0044161,0,-0.00037637,0,0,0,0.031793,0.001302,0.0033095,-0.16074,0.012135,0.029538,1.3031e-06,0.4,0.38,0
0.024352,0.00084142,0.031842,0.001118,0.003296,-8.0098e-05,0,0,0.047073,-0.0031944,0,-0.00016458,0,0,0,0.031842,0.0011175,0.003296,-0.14519,0.012085,0.029702,1.3194e-06,0.42,0.38,0
0.024981,0.00088625,0.031955,0.0012551,0.003321,-0.00016976,0,0,0.031497,-0.0022725,0,-0.00037347,0,0,0,0.031956,0.0012541,0.003321,-0.31681,0.012177,0.029722,1.3266e-06,0.44,0.38,0
0.025612,0.00091876,0.032121,0.0016613,0.0033783,-0.00031792,0,0,0.031617,-0.0018886,0,-0.00069942,0,0,0,0.032125,0.001658,0.0033783,-0.59792,0.012387,0.029644,1.3227e-06,0.46,0.38,0
0.026246,0.00094122,0.032314,0.0017012,0.0034015,-0.00031267,0,0,0.031804,-0.0018703,0,-0.00068788,0,0,0,0.032317,0.001698,0.0034015,-0.58513,0.012472,0.029804,1.3448e-06,0.48,0.38,0
0.026884,0.00095889,0.032482,0.0017075,0.003419,-0.00024205,0,0,0.031969,-0.0018826,0,-0.0005325,0,0,0,0.032484,0.0017056,0.003419,-0.4506,0.012536,0.029958,1.3657e-06,0.5,0.38,0
0.027524,0.00097581,0.03257,0.0017094,0.0034279,-0.00015047,0,0,0.032056,-0.0018903,0,-0.00033104,0,0,0,0.032571,0.0017087,0.0034279,-0.27936,0.012569,0.030039,1.3768e-06,0.52,0.38,0
0.028166,0.00099289,0.032614,0.0017274,0.0034342,-8.1498e-05,0,0,0.032098,-0.0018774,0,-0.0001793,0,0,0,0.032615,0.0017272,0.0034342,-0.15118,0.012592,0.03007,1.3813e-06,0.54,0.38,0
0.028808,0.0010101,0.032635,0.0017419,0.0034377,-3.9393e-05,0,0,0.032117,-0.0018654,0,-8.6665e-05,0,0,0,0.032635,0.0017418,0.0034377,-0.07306,0.012605,0.030081,1.383e-06,0.56,0.38,0
0.029451,0.001027,0.032652,0.0017323,0.0034384,-1.9086e-05,0,0,0.032135,-0.0018767,0,-4.1988e-05,0,0,0,0.032652,0.0017323,0.0034384,-0.035367,0.012608,0.030103,1.3858e-06,0.58,0.38,0
0.030094,0.0010433,0.032675,0.0016845,0.003436,-7.7964e-06,0,0,0.032163,-0.0019266,0,-1.7152e-05,0,0,0,0.032675,0.0016845,0.003436,-0.014414,0.012599,0.030153,1.392e-06,0.6,0.38,0
0.030737,0.0010589,0.032707,0.0015982,0.0034305,7.9023e-06,0,0,0.032204,-0.0020156,0,1.7385e-05,0,0,0,0.032707,0.0015982,0.0034305,0.014554,0.012579,0.030234,1.4019e-06,0.62,0.38,0
0.031382,0.0010743,0.03274,0.0014876,0.0034228,3.8762e-05,0,0,0.032249,-0.0021287,0,8.5276e-05,0,0,0,0.03274,0.0014875,0.0034228,0.071063,0.01255,0.030331,1.4135e-06,0.64,0.38,0
0.032027,0.0010898,0.032757,0.0013739,0.0034131,8.4799e-05,0,0,0.032279,-0.0022432,0,0.00018656,0,0,0,0.032758,0.0013736,0.0034131,0.15481,0.012515,0.030416,1.4232e-06,0.66,0.38,0
0.032673,0.0011055,0.032738,0.0012801,0.0034018,0.00013111,0,0,0.03227,-0.0023339,0,0.00028844,0,0,0,0.032738,0.0012795,0.0034018,0.23879,0.012473,0.030453,1.4268e-06,0.68,0.38,0
0.033318,0.0011204,0.032623,0.0011972,0.0033821,0.00011403,0,0,0.032166,-0.0024034,0,0.00025086,0,0,0,0.032624,0.0011968,0.0033821,0.20789,0.012401,0.030394,1.4169e-06,0.7,0.38,0
0.033959,0.0011308,0.032297,0.0011167,0.0033414,-2.6024e-05,0,0,0.031851,-0.0024471,0,-5.7253e-05,0,0,0,0.032297,0.0011167,0.0033414,-0.047821,0.012252,0.03013,1.379e-06,0.72,0.38,0
0.034592,0.0011351,0.031192,0.00083146,0.0032023,-0.00015468,0,0,0.030788,-0.002608,0,-0.00034031,0,0,0,0.031193,0.00083067,0.0032023,-0.29191,0.011742,0.029248,1.2566e-06,0.74,0.38,0
0.035191,0.001162,0.030932,0.00040344,0.0031336,-0.00060749,0,0,0.046181,-0.0040042,0,-0.0021907,0,0,0,0.030945,0.00039035,0.0031336,-1.1431,0.01149,0.029291,1.2485e-06,0.76,0.38,0
0.036439,0.0011398,0.031164,0.00074227,0.0031906,0.001162,0,0,0.061541,-0.0053863,0,0.0051129,0,0,0,0.031208,0.00069795,0.0031906,2.1843,0.011699,0.029343,1.2661e-06,0.78,0.38,0
0.037653,0.0010774,0.031299,0.00016174,0.0031461,0.00071876,0,0,0.061936,-0.0065655,0,0.0031626,0,0,0,0.031315,0.00014516,0.0031461,1.3217,0.011536,0.029783,1.3106e-06,0.8,0.38,0
0.038917,0.0010647,0.031888,-0.00049577,0.0031392,0.00076532,0,0,0.063248,-0.007997,0,0.0033674,0,0,0,0.031906,-0.00051385,0.0031392,1.353,0.01151,0.030757,1.4235e-06,0.82,0.38,0
0.040183,0.0010643,0.031743,-0.0008604,0.0030883,0.00068474,0,0,0.063041,-0.0086872,0,0.0030129,0,0,0,0.031758,-0.00087478,0.0030883,1.2026,0.011324,0.030843,1.4234e-06,0.84,0.38,0
0.041438,0.0010694,0.031449,-0.0010895,0.003036,0.00059879,0,0,0.06251,-0.0090761,0,0.0026347,0,0,0,0.031461,-0.0011005,0.003036,1.0539,0.011132,0.030703,1.3959e-06,0.86,0.38,0
0.042683,0.0010771,0.031168,-0.0012354,0.0029932,0.00051109,0,0,0.061984,-0.009303,0,0.0022488,0,0,0,0.031176,-0.0012434,0.0029932,0.90342,0.010975,0.030522,1.366e-06,0.88,0.38,0
0.043918,0.0010855,0.030926,-0.0013303,0.0029595,0.00042238,0,0,0.061525,-0.0094377,0,0.0018585,0,0,0,0.030931,-0.0013359,0.0029595,0.75009,0.010852,0.030348,1.3391e-06,0.9,0.38,0
0.045144,0.0010935,0.03073,-0.0013925,0.0029337,0.00033448,0,0,0.061151,-0.0095177,0,0.0014717,0,0,0,0.030733,-0.001396,0.0029337,0.59651,0.010757,0.030198,1.3169e-06,0.92,0.38,0
0.046364,0.0011003,0.030579,-0.0014328,0.0029147,0.00024839,0,0,0.060863,-0.0095645,0,0.0010929,0,0,0,0.030581,-0.0014348,0.0029147,0.44453,0.010687,0.030078,1.2996e-06,0.94,0.38,0
0.047579,0.0011055,0.030474,-0.0014579,0.0029016,0.00016427,0,0,0.060659,-0.0095909,0,0.00072277,0,0,0,0.030475,-0.0014588,0.0029016,0.29474,0.010639,0.029992,1.2874e-06,0.96,0.38,0
0.04879,0.0011087,0.030411,-0.0014716,0.002894,8.171e-05,0,0,0.060538,-0.0096042,0,0.00035952,0,0,0,0.030411,-0.0014718,0.002894,0.14684,0.010611,0.02994,1.2801e-06,0.98,0.38,0
0.05,0.0011097,0.03039,-0.001476,0.0028914,1.2239e-05,0,0,0.060498,-0.0096083,0,5.3852e-05,0,0,0,0.03039,-0.001476,0.0028914,0.022006,0.010602,0.029923,1.2777e-06,1,0.38,0
0,0,0.027364,0.0030405,0.0030405,0.0002943,0,0,0.053512,-1.8973e-19,0,0.0012949,0,0,0,0.027368,0.0030369,0.0030405,0.6931,0.011148,0.024329,7.3962e-07,0,0.4,0
0.0010703,2.5898e-05,0.027418,0.0027365,0.0030155,0.00027849,0,0,0.053686,-0.00061379,0,0.0012254,0,0,0,0.027421,0.0027333,0.0030155,0.64637,0.011057,0.024548,7.5943e-07,0.02,0.4,0
0.0021474,5.4245e-05,0.027563,0.0024592,0.0030022,0.00027018,0,0,0.054033,-0.0011945,0,0.0011888,0,0,0,0.027565,0.0024563,0.0030022,0.61657,0.011008,0.024841,7.8598e-07,0.04,0.4,0
0.0032316,8.4425e-05,0.027709,0.0021964,0.0029905,0.0002522,0,0,0.054381,-0.0017472,0,0.0011097,0,0,0,0.027712,0.0021939,0.0029905,0.56632,0.010965,0.025129,8.122e-07,0.06,0.4,0
0.0043227,0.00011589,0.027859,0.0019466,0.0029806,0.00022491,0,0,0.054733,-0.0022748,0,0.00098962,0,0,0,0.027861,0.0019446,0.0029806,0.49726,0.010929,0.025414,8.3833e-07,0.08,0.4,0
0.0054209,0.00014811,0.028014,0.001709,0.0029723,0.00018852,0,0,0.055092,-0.0027792,0,0.0008295,0,0,0,0.028015,0.0017077,0.0029723,0.4106,0.010898,0.025699,8.6456e-07,0.1,0.4,0
0.0065263,0.00018065,0.028175,0.0014836,0.0029658,0.00014315,0,0,0.05546,-0.003261,0,0.00062987,0,0,0,0.028176,0.0014828,0.0029658,0.30728,0.010875,0.025983,8.9105e-07,0.12,0.4,0
0.0076393,0.00021308,0.028343,0.0012703,0.0029614,8.8889e-05,0,0,0.05584,-0.0037203,0,0.00039111,0,0,0,0.028344,0.00127,0.0029614,0.18812,0.010858,0.026269,9.1797e-07,0.14,0.4,0
0.0087599,0.00024504,0.02852,0.0010698,0.002959,2.5805e-05,0,0,0.056235,-0.0041562,0,0.00011354,0,0,0,0.02852,0.0010698,0.002959,0.05386,0.01085,0.026556,9.455e-07,0.16,0.4,0
0.0098887,0.00027626,0.028708,0.00088298,0.0029591,-4.5996e-05,0,0,0.056647,-0.0045674,0,-0.00020238,0,0,0,0.028708,0.00088291,0.0029591,-0.094713,0.01085,0.026847,9.7383e-07,0.18,0.4,0
0.011026,0.00030652,0.028908,0.000711,0.0029619,-0.00012631,0,0,0.057081,-0.0049519,0,-0.00055579,0,0,0,0.028908,0.00071043,0.0029619,-0.25667,0.01086,0.027142,1.0032e-06,0.2,0.4,0
0.012172,0.00033574,0.029122,0.00055552,0.0029677,-0.00021474,0,0,0.057539,-0.0053069,0,-0.00094484,0,0,0,0.029124,0.00055391,0.0029677,-0.43067,0.010882,0.027443,1.0338e-06,0.22,0.4,0
0.013327,0.00036398,0.029354,0.00041879,0.0029772,-0.00031039,0,0,0.058028,-0.0056286,0,-0.0013657,0,0,0,0.029357,0.00041546,0.0029772,-0.61454,0.010917,0.027749,1.066e-06,0.24,0.4,0
0.014493,0.0003915,0.029605,0.00030388,0.0029909,-0.00041152,0,0,0.058551,-0.0059115,0,-0.0018107,0,0,0,0.029611,0.0002981,0.0029909,-0.80447,0.010967,0.028064,1.1e-06,0.26,0.4,0
0.015669,0.00041888,0.029881,0.00021504,0.0030096,-0.00051463,0,0,0.059117,-0.0061481,0,-0.0022644,0,0,0,0.02989,0.00020612,0.0030096,-0.99353,0.011035,0.028386,1.1362e-06,0.28,0.4,0
0.016858,0.00044711,0.030186,0.00015816,0.0030344,-0.00061312,0,0,0.059734,-0.0063278,0,-0.0026977,0,0,0,0.030199,0.00014564,0.0030344,-1.1692,0.011126,0.028718,1.175e-06,0.3,0.4,0
0.018059,0.00047788,0.030527,0.00014143,0.0030669,-0.00069485,0,0,0.060413,-0.006436,0,-0.0030573,0,0,0,0.030543,0.00012555,0.0030669,-1.3093,0.011245,0.029059,1.2169e-06,0.32,0.4,0
0.019274,0.00051379,0.030915,0.00017682,0.0031092,-0.00073851,0,0,0.061173,-0.0064512,0,-0.0032495,0,0,0,0.030933,0.00015908,0.0031092,-1.3755,0.0114,0.02941,1.2623e-06,0.34,0.4,0
0.020506,0.0005588,0.031358,0.00028521,0.0031643,-0.00070741,0,0,0.062026,-0.006334,0,-0.0031126,0,0,0,0.031374,0.00026911,0.0031643,-1.3035,0.011602,0.029763,1.311e-06,0.36,0.4,0
0.021755,0.00061852,0.031812,0.00051106,0.0032323,-0.00055412,0,0,0.062876,-0.0059868,0,-0.0024381,0,0,0,0.031822,0.00050125,0.0032323,-1.0139,0.011852,0.030048,1.3547e-06,0.38,0.4,0
0.023021,0.00069732,0.03208,0.0010215,0.0033101,-0.00031247,0,0,0.063293,-0.0050349,0,-0.0013749,0,0,0,0.032083,0.0010184,0.0033101,-0.57637,0.012137,0.029984,1.3573e-06,0.4,0.4,0
0.024287,0.00077783,0.032258,0.0011782,0.0033436,-8.6765e-05,0,0,0.047634,-0.003176,0,-0.00012401,0,0,0,0.032259,0.0011772,0.0033436,-0.15254,0.01226,0.030063,1.3694e-06,0.42,0.4,0
0.024926,0.00084267,0.032398,0.001672,0.003407,-0.00044155,0,0,0.03189,-0.0019086,0,-0.0009714,0,0,0,0.032405,0.0016656,0.003407,-0.82313,0.012492,0.029906,1.3581e-06,0.44,0.4,0
0.025563,0.00088175,0.032549,0.0016044,0.0034154,-0.00044136,0,0,0.032047,-0.0019921,0,-0.00097099,0,0,0,0.032555,0.0015981,0.0034154,-0.81698,0.012523,0.03009,1.382e-06,0.46,0.4,0
0.026208,0.00090249,0.03278,0.0016059,0.0034386,-0.00043199,0,0,0.032276,-0.002016,0,-0.00095038,0,0,0,0.032787,0.0015999,0.0034386,-0.79375,0.012608,0.030309,1.4123e-06,0.48,0.4,0
0.026854,0.00091996,0.03279,0.0015739,0.0034363,-0.00028502,0,0,0.032289,-0.0020487,0,-0.00062704,0,0,0,0.032792,0.0015713,0.0034363,-0.52309,0.0126,0.030332,1.4149e-06,0.5,0.4,0
0.027499,0.00093691,0.032781,0.0016116,0.0034393,-0.00016594,0,0,0.032276,-0.0020105,0,-0.00036507,0,0,0,0.032782,0.0016107,0.0034393,-0.30502,0.012611,0.030299,1.411e-06,0.52,0.4,0
0.028145,0.00095467,0.032752,0.0016686,0.003442,-7.8868e-05,0,0,0.032241,-0.0019508,0,-0.00017351,0,0,0,0.032752,0.0016684,0.003442,-0.14538,0.012621,0.030236,1.4032e-06,0.54,0.4,0
0.028789,0.00097245,0.032729,0.0017206,0.003445,-3.83e-05,0,0,0.032213,-0.0018969,0,-8.426e-05,0,0,0,0.032729,0.0017205,0.003445,-0.070767,0.012632,0.030184,1.3968e-06,0.56,0.4,0
0.029433,0.00098932,0.032723,0.0017319,0.0034455,-3.012e-05,0,0,0.032205,-0.0018849,0,-6.6263e-05,0,0,0,0.032723,0.0017319,0.0034455,-0.055685,0.012633,0.03017,1.3952e-06,0.58,0.4,0
0.030077,0.0010046,0.032739,0.0016865,0.0034425,-3.5882e-05,0,0,0.032226,-0.0019317,0,-7.8941e-05,0,0,0,0.032739,0.0016864,0.0034425,-0.066207,0.012623,0.030213,1.4003e-06,0.6,0.4,0
0.030722,0.0010183,0.032778,0.0015846,0.0034363,-3.3747e-05,0,0,0.032276,-0.0020368,0,-7.4243e-05,0,0,0,0.032778,0.0015846,0.0034363,-0.061985,0.0126,0.03031,1.4122e-06,0.62,0.4,0
0.031368,0.0010312,0.032831,0.0014442,0.0034275,-6.403e-06,0,0,0.032344,-0.0021816,0,-1.4087e-05,0,0,0,0.032831,0.0014442,0.0034275,-0.011689,0.012568,0.030443,1.4284e-06,0.64,0.4,0
0.032016,0.0010442,0.032883,0.0013039,0.0034186,5.7948e-05,0,0,0.03241,-0.0023263,0,0.00012748,0,0,0,0.032883,0.0013038,0.0034186,0.10514,0.012535,0.030576,1.4445e-06,0.66,0.4,0
0.032665,0.0010582,0.032888,0.0011951,0.0034083,0.00014325,0,0,0.032427,-0.0024345,0,0.00031516,0,0,0,0.032889,0.0011945,0.0034083,0.25898,0.012497,0.030647,1.4524e-06,0.68,0.4,0
0.033313,0.0010725,0.032802,0.0011798,0.0033982,0.00025189,0,0,0.032345,-0.0024403,0,0.00055415,0,0,0,0.032804,0.0011778,0.0033982,0.45635,0.01246,0.030577,1.4422e-06,0.7,0.4,0
0.033959,0.0010856,0.032357,0.0011801,0.0033537,0.00028583,0,0,0.031903,-0.002391,0,0.00062884,0,0,0,0.032359,0.0011774,0.0033537,0.52524,0.012297,0.030153,1.3833e-06,0.72,0.4,0
0.034589,0.0010888,0.032184,0.0012182,0.0033402,0.00035969,0,0,0.031728,-0.0023342,0,0.00079133,0,0,0,0.032188,0.001214,0.0033402,0.66542,0.012247,0.029968,1.3588e-06,0.74,0.4,0
0.035228,0.0010664,0.032064,9.0269e-05,0.0032154,0.00021541,0,0,0.047504,-0.0045835,0,0.00039347,0,0,0,0.032068,8.6357e-05,0.0032154,0.36675,0.01179,0.030549,1.4089e-06,0.76,0.4,0
0.036489,0.0010153,0.031966,0.00018754,0.0032154,0.00027201,0,0,0.063252,-0.0066612,0,0.0011969,0,0,0,0.031968,0.00018521,0.0032154,0.49038,0.01179,0.030382,1.3921e-06,0.78,0.4,0
0.037758,0.00094997,0.031835,-1.2301e-05,0.0031822,0.00071132,0,0,0.063035,-0.0070279,0,0.0031298,0,0,0,0.03185,-2.8181e-05,0.0031822,1.2789,0.011668,0.030401,1.3889e-06,0.8,0.4,0
0.039011,0.00090797,0.031539,-0.00046242,0.0031076,0.00092268,0,0,0.062549,-0.0078542,0,0.0040598,0,0,0,0.031566,-0.000489,0.0031076,1.6502,0.011395,0.030416,1.3773e-06,0.82,0.4,0
0.04026,0.00089304,0.031355,-0.000781,0.0030574,0.00095652,0,0,0.062255,-0.0084445,0,0.0042087,0,0,0,0.031384,-0.00080944,0.0030574,1.7034,0.01121,0.030444,1.3707e-06,0.84,0.4,0
0.041501,0.00089021,0.031121,-0.0009871,0.0030134,0.00087155,0,0,0.061837,-0.0088011,0,0.0038348,0,0,0,0.031145,-0.0010107,0.0030134,1.5537,0.011049,0.030344,1.3503e-06,0.86,0.4,0
0.042733,0.00089329,0.030888,-0.0011256,0.0029762,0.00075197,0,0,0.061406,-0.009024,0,0.0033087,0,0,0,0.030906,-0.0011432,0.0029762,1.3448,0.010913,0.030201,1.3264e-06,0.88,0.4,0
0.043957,0.00089895,0.030684,-0.0012198,0.0029464,0.00062259,0,0,0.061023,-0.0091657,0,0.0027394,0,0,0,0.030696,-0.0012319,0.0029464,1.1175,0.010804,0.030058,1.3043e-06,0.9,0.4,0
0.045174,0.00090525,0.030517,-0.0012841,0.0029233,0.00049265,0,0,0.060707,-0.0092564,0,0.0021677,0,0,0,0.030525,-0.0012918,0.0029233,0.88731,0.010719,0.029933,1.2858e-06,0.92,0.4,0
0.046386,0.00091104,0.030389,-0.0013274,0.0029061,0.00036537,0,0,0.060462,-0.0093138,0,0.0016076,0,0,0,0.030393,-0.0013316,0.0029061,0.65992,0.010656,0.029832,1.2713e-06,0.94,0.4,0
0.047593,0.00091558,0.030298,-0.0013551,0.0028943,0.00024134,0,0,0.060288,-0.0093487,0,0.0010619,0,0,0,0.0303,-0.001357,0.0028943,0.43682,0.010612,0.02976,1.261e-06,0.96,0.4,0
0.048797,0.00091845,0.030244,-0.0013706,0.0028873,0.00011995,0,0,0.060185,-0.0093674,0,0.0005278,0,0,0,0.030244,-0.001371,0.0028873,0.21739,0.010587,0.029716,1.2549e-06,0.98,0.4,0
0.05,0.00091944,0.030226,-0.0013755,0.0028851,1.1163e-05,0,0,0.06015,-0.0093733,0,4.9116e-05,0,0,0,0.030226,-0.0013755,0.0028851,0.020239,0.010578,0.029701,1.2529e-06,1,0.4,0
0,0,0.027289,0.0030321,0.0030321,0.00015732,0,0,0.053365,0,0,0.00069222,0,0,0,0.02729,0.0030311,0.0030321,0.37158,0.011118,0.024258,7.3318e-07,0,0.42,0
0.0010673,1.3844e-05,0.027341,0.0027401,0.0030081,0.00013792,0,0,0.053532,-0.00058946,0,0.00060685,0,0,0,0.027341,0.0027394,0.0030081,0.32121,0.01103,0.024469,7.5212e-07,0.02,0.42,0
0.0021413,3.0783e-05,0.027479,0.0024735,0.0029952,0.00012858,0,0,0.053864,-0.0011478,0,0.00056577,0,0,0,0.02748,0.0024729,0.0029952,0.29462,0.010982,0.02475,7.7745e-07,0.04,0.42,0
0.0032219,5.0111e-05,0.027619,0.0022208,0.0029839,0.0001081,0,0,0.054196,-0.001679,0,0.00047562,0,0,0,0.027619,0.0022203,0.0029839,0.24385,0.010941,0.025026,8.0244e-07,0.06,0.42,0
0.0043091,7.1214e-05,0.027761,0.0019807,0.0029742,7.7071e-05,0,0,0.054531,-0.0021857,0,0.00033911,0,0,0,0.027761,0.0019804,0.0029742,0.17128,0.010905,0.025299,8.2728e-07,0.08,0.42,0
0.0054031,9.355e-05,0.027907,0.0017527,0.002966,3.5853e-05,0,0,0.054871,-0.0026694,0,0.00015775,0,0,0,0.027907,0.0017526,0.002966,0.078541,0.010875,0.02557,8.5211e-07,0.1,0.42,0
0.0065039,0.00011664,0.028059,0.0015367,0.0029595,-1.5408e-05,0,0,0.055218,-0.0031303,0,-6.7797e-05,0,0,0,0.028059,0.0015366,0.0029595,-0.033287,0.010852,0.02584,8.7708e-07,0.12,0.42,0
0.0076118,0.00014008,0.028216,0.0013329,0.0029548,-7.6698e-05,0,0,0.055574,-0.0035684,0,-0.00033747,0,0,0,0.028216,0.0013326,0.0029548,-0.16347,0.010834,0.02611,9.023e-07,0.14,0.42,0
0.0087269,0.00016353,0.028379,0.0011419,0.0029521,-0.00014809,0,0,0.05594,-0.0039826,0,-0.00065159,0,0,0,0.02838,0.001141,0.0029521,-0.3115,0.010824,0.02638,9.2791e-07,0.16,0.42,0
0.0098494,0.00018672,0.028551,0.0009645,0.0029516,-0.00022969,0,0,0.056319,-0.0043715,0,-0.0010106,0,0,0,0.028553,0.00096259,0.0029516,-0.47701,0.010822,0.026652,9.5405e-07,0.18,0.42,0
0.01098,0.0002095,0.028732,0.00080193,0.0029534,-0.0003216,0,0,0.056714,-0.0047333,0,-0.001415,0,0,0,0.028736,0.00079823,0.0029534,-0.6596,0.010829,0.026925,9.8089e-07,0.2,0.42,0
0.012118,0.00023182,0.028925,0.00065557,0.002958,-0.00042375,0,0,0.057127,-0.0050655,0,-0.0018645,0,0,0,0.028931,0.00064922,0.002958,-0.85859,0.010846,0.027201,1.0086e-06,0.22,0.42,0
0.013265,0.0002538,0.029131,0.00052715,0.0029658,-0.00053578,0,0,0.057564,-0.0053651,0,-0.0023574,0,0,0,0.029141,0.00051712,0.0029658,-1.0727,0.010875,0.027482,1.0375e-06,0.24,0.42,0
0.01442,0.00027581,0.029354,0.0004188,0.0029773,-0.00065665,0,0,0.058029,-0.0056287,0,-0.0028893,0,0,0,0.029369,0.00040391,0.0029773,-1.2994,0.010917,0.027768,1.0679e-06,0.26,0.42,0
0.015586,0.00029851,0.029599,0.00033298,0.0029932,-0.0007841,0,0,0.058532,-0.0058524,0,-0.0034501,0,0,0,0.02962,0.00031198,0.0029932,-1.5336,0.010975,0.028063,1.1003e-06,0.28,0.42,0
0.016762,0.00032305,0.029872,0.00027239,0.0030145,-0.00091379,0,0,0.059088,-0.0060326,0,-0.0040207,0,0,0,0.029901,0.00024421,0.0030145,-1.7666,0.011053,0.028373,1.1355e-06,0.3,0.42,0
0.017949,0.00035121,0.030189,0.00023984,0.0030429,-0.0010379,0,0,0.059721,-0.0061666,0,-0.0045666,0,0,0,0.030225,0.00020391,0.0030429,-1.9824,0.011157,0.028707,1.175e-06,0.32,0.42,0
0.019151,0.00038579,0.030572,0.00023835,0.003081,-0.0011423,0,0,0.06048,-0.0062539,0,-0.0050262,0,0,0,0.030615,0.0001954,0.003081,-2.1536,0.011297,0.029084,1.2217e-06,0.34,0.42,0
0.020369,0.00043108,0.031072,0.00027382,0.0031346,-0.0012022,0,0,0.061462,-0.0062936,0,-0.0052898,0,0,0,0.031119,0.00022696,0.0031346,-2.2321,0.011493,0.029545,1.2815e-06,0.36,0.42,0
0.021609,0.00049367,0.031795,0.00036925,0.0032165,-0.0011536,0,0,0.062873,-0.0062638,0,-0.0050758,0,0,0,0.031837,0.00032697,0.0032165,-2.0995,0.011794,0.03017,1.3669e-06,0.38,0.42,0
0.022884,0.00058675,0.032798,0.00060957,0.0033408,-0.00094444,0,0,0.064807,-0.0060087,0,-0.0041555,0,0,0,0.032826,0.00058188,0.0033408,-1.6792,0.01225,0.030957,1.483e-06,0.4,0.42,0
0.024201,0.00071438,0.032813,0.00087398,0.0033687,-0.0012777,0,0,0.048861,-0.0036589,0,-0.0034803,0,0,0,0.032877,0.0008096,0.0033687,-2.2715,0.012352,0.030877,1.4728e-06,0.42,0.42,0
0.024838,0.0008099,0.033326,0.0018552,0.0035181,0.00025957,0,0,0.032789,-0.0018292,0,0.00057105,0,0,0,0.033328,0.0018531,0.0035181,0.47253,0.0129,0.030677,1.468e-06,0.44,0.42,0
0.025513,0.00083908,0.033803,0.0016689,0.0035472,-0.00047518,0,0,0.033281,-0.0020661,0,-0.0010454,0,0,0,0.03381,0.0016619,0.0035472,-0.84701,0.013006,0.031248,1.5479e-06,0.46,0.42,0
0.026169,0.00086058,0.033273,0.0014322,0.0034705,-0.00029622,0,0,0.032783,-0.0022422,0,-0.00065168,0,0,0,0.033276,0.0014294,0.0034705,-0.53297,0.012725,0.030876,1.4896e-06,0.48,0.42,0
0.026824,0.00087694,0.033133,0.0014472,0.003458,-0.00022415,0,0,0.032642,-0.0022118,0,-0.00049313,0,0,0,0.033134,0.0014457,0.003458,-0.4053,0.012679,0.030732,1.4692e-06,0.5,0.42,0
0.027475,0.00089539,0.032976,0.0014986,0.0034475,-9.8233e-05,0,0,0.032482,-0.0021438,0,-0.00021611,0,0,0,0.032977,0.0014983,0.0034475,-0.1788,0.012641,0.030551,1.4444e-06,0.52,0.42,0
0.028123,0.00091486,0.032887,0.0016198,0.0034507,-3.3647e-05,0,0,0.03238,-0.002014,0,-7.4023e-05,0,0,0,0.032888,0.0016198,0.0034507,-0.061656,0.012653,0.030394,1.4244e-06,0.54,0.42,0
0.02877,0.00093424,0.032826,0.0017163,0.0034542,-1.3255e-05,0,0,0.032309,-0.0019117,0,-2.9161e-05,0,0,0,0.032826,0.0017163,0.0034542,-0.024412,0.012665,0.030278,1.4098e-06,0.56,0.42,0
0.029416,0.00095162,0.032802,0.0017538,0.0034556,-3.0564e-05,0,0,0.032281,-0.001872,0,-6.7241e-05,0,0,0,0.032802,0.0017538,0.0034556,-0.056402,0.01267,0.030233,1.4041e-06,0.58,0.42,0
0.030061,0.00096602,0.032811,0.0017109,0.0034522,-6.0912e-05,0,0,0.032294,-0.0019154,0,-0.00013401,0,0,0,0.032811,0.0017108,0.0034522,-0.11222,0.012658,0.030267,1.4082e-06,0.6,0.42,0
0.030708,0.00097745,0.032851,0.0015883,0.0034439,-8.2778e-05,0,0,0.032348,-0.0020412,0,-0.00018211,0,0,0,0.032851,0.0015881,0.0034439,-0.15171,0.012628,0.030378,1.4217e-06,0.62,0.42,0
0.031355,0.000987,0.032924,0.0014092,0.0034333,-7.094e-05,0,0,0.032439,-0.0022265,0,-0.00015607,0,0,0,0.032924,0.0014091,0.0034333,-0.12897,0.012589,0.030553,1.4431e-06,0.64,0.42,0
0.032005,0.00099673,0.033011,0.0012112,0.0034222,-1.6554e-05,0,0,0.032547,-0.0024321,0,-3.6419e-05,0,0,0,0.033011,0.0012111,0.0034222,-0.029826,0.012548,0.030754,1.4679e-06,0.66,0.42,0
0.032657,0.0010081,0.03314,0.0010921,0.0034233,0.0001036,0,0,0.032689,-0.0025643,0,0.00022791,0,0,0,0.033141,0.0010917,0.0034233,0.18521,0.012552,0.030949,1.4934e-06,0.68,0.42,0
0.033313,0.0010228,0.033224,0.0010219,0.0034246,0.00019642,0,0,0.032779,-0.0026429,0,0.00043213,0,0,0,0.033225,0.0010207,0.0034246,0.34947,0.012557,0.031072,1.5097e-06,0.7,0.42,0
0.033968,0.0010351,0.03372,0.001181,0.0034901,0.00043228,0,0,0.033253,-0.00254,0,0.00095102,0,0,0,0.033726,0.0011752,0.0034901,0.761,0.012797,0.031457,1.5696e-06,0.72,0.42,0
0.034643,0.0010417,0.033251,0.0011201,0.0034371,-0.00023597,0,0,0.032796,-0.0025487,0,-0.00051914,0,0,0,0.033253,0.0011184,0.0034371,-0.42075,0.012603,0.03104,1.5072e-06,0.74,0.42,0
0.03528,0.00097862,0.032803,5.8924e-06,0.0032809,0.0012514,0,0,0.049015,-0.0048033,0,0.0033192,0,0,0,0.032866,-5.7288e-05,0.0032809,2.1574,0.01203,0.031403,1.523e-06,0.76,0.42,0
0.036603,0.00087336,0.032873,-0.00017121,0.0032702,0.00088566,0,0,0.065126,-0.0075711,0,0.0038969,0,0,0,0.032897,-0.00019493,0.0032702,1.5342,0.011991,0.031502,1.5403e-06,0.78,0.42,0
0.037885,0.00079627,0.031933,-0.00038282,0.003155,0.0011029,0,0,0.063312,-0.0077833,0,0.0048528,0,0,0,0.031971,-0.00042042,0.003155,1.9524,0.011569,0.03076,1.4269e-06,0.8,0.42,0
0.039136,0.0007505,0.0313,-0.00050399,0.0030796,0.0012295,0,0,0.062086,-0.007884,0,0.0054098,0,0,0,0.031348,-0.00055145,0.0030796,2.2105,0.011292,0.030248,1.3525e-06,0.82,0.42,0
0.040369,0.00072653,0.030926,-0.00069376,0.0030233,0.0012055,0,0,0.061387,-0.0081774,0,0.0053044,0,0,0,0.030972,-0.00073966,0.0030233,2.1802,0.011085,0.030008,1.3145e-06,0.84,0.42,0
0.041592,0.00071737,0.030687,-0.00085477,0.0029832,0.001098,0,0,0.060948,-0.0084435,0,0.0048313,0,0,0,0.030725,-0.00089295,0.0029832,1.9914,0.010938,0.029869,1.2912e-06,0.86,0.42,0
0.042807,0.00071614,0.030495,-0.00097846,0.0029517,0.00094837,0,0,0.060595,-0.0086462,0,0.0041728,0,0,0,0.030523,-0.001007,0.0029517,1.7244,0.010823,0.029749,1.2719e-06,0.88,0.42,0
0.044015,0.00071891,0.030336,-0.0010707,0.0029265,0.00078581,0,0,0.060301,-0.0087938,0,0.0034576,0,0,0,0.030356,-0.0010903,0.0029265,1.4324,0.010731,0.029642,1.2553e-06,0.9,0.42,0
0.045219,0.00072327,0.030207,-0.0011378,0.0029069,0.00062208,0,0,0.06006,-0.0088984,0,0.0027371,0,0,0,0.030219,-0.0011502,0.0029069,1.1365,0.010659,0.029551,1.2415e-06,0.92,0.42,0
0.046418,0.00072777,0.030107,-0.0011852,0.0028922,0.00046148,0,0,0.059874,-0.0089704,0,0.0020305,0,0,0,0.030114,-0.001192,0.0028922,0.84472,0.010605,0.029477,1.2308e-06,0.94,0.42,0
0.047614,0.00073152,0.030037,-0.0012166,0.002882,0.00030489,0,0,0.059741,-0.0090171,0,0.0013415,0,0,0,0.03004,-0.0012196,0.002882,0.55887,0.010567,0.029424,1.2231e-06,0.96,0.42,0
0.048807,0.00073395,0.029995,-0.0012345,0.002876,0.00015155,0,0,0.059661,-0.0090432,0,0.00066684,0,0,0,0.029996,-0.0012353,0.002876,0.27805,0.010545,0.029392,1.2185e-06,0.98,0.42,0
0.05,0.00073479,0.029981,-0.0012404,0.002874,9.5686e-06,0,0,0.059635,-0.0090517,0,4.2102e-05,0,0,0,0.029981,-0.0012404,0.002874,0.01756,0.010538,0.029381,1.2169e-06,1,0.42,0
0,0,0.027198,0.003022,0.003022,2.6366e-05,0,0,0.053187,-8.1315e-20,0,0.00011601,0,0,0,0.027198,0.003022,0.003022,0.062485,0.011081,0.024176,7.2573e-07,0,0.44,0
0.0010637,2.3202e-06,0.027247,0.002744,0.0029991,3.8147e-06,0,0,0.053345,-0.00056123,0,1.6785e-05,0,0,0,0.027247,0.002744,0.0029991,0.0089199,0.010997,0.024376,7.4366e-07,0.02,0.44,0
0.0021338,8.3341e-06,0.027378,0.0024895,0.0029867,-6.148e-06,0,0,0.05366,-0.001094,0,-2.7051e-05,0,0,0,0.027378,0.0024895,0.0029867,-0.014153,0.010951,0.024643,7.676e-07,0.04,0.44,0
0.0032102,1.7266e-05,0.02751,0.0022479,0.0029758,-2.8417e-05,0,0,0.053975,-0.0016013,0,-0.00012503,0,0,0,0.02751,0.0022479,0.0029758,-0.064451,0.010911,0.024906,7.9119e-07,0.06,0.44,0
0.0042928,2.8456e-05,0.027643,0.0020185,0.0029662,-6.2152e-05,0,0,0.05429,-0.0020849,0,-0.00027347,0,0,0,0.027644,0.0020183,0.0029662,-0.13897,0.010876,0.025165,8.1454e-07,0.08,0.44,0
0.0053818,4.1339e-05,0.027779,0.0018009,0.002958,-0.00010688,0,0,0.054607,-0.0025457,0,-0.00047026,0,0,0,0.02778,0.0018005,0.002958,-0.23572,0.010846,0.02542,8.3778e-07,0.1,0.44,0
0.0064771,5.5435e-05,0.027919,0.0015953,0.0029514,-0.00016239,0,0,0.054928,-0.0029835,0,-0.00071453,0,0,0,0.02792,0.0015943,0.0029514,-0.35345,0.010822,0.025674,8.6097e-07,0.12,0.44,0
0.0075789,7.0342e-05,0.028062,0.0014019,0.0029464,-0.0002287,0,0,0.055254,-0.0033978,0,-0.0010063,0,0,0,0.028064,0.0013999,0.0029464,-0.49147,0.010803,0.025925,8.8419e-07,0.14,0.44,0
0.0086872,8.574e-05,0.028209,0.0012215,0.002943,-0.00030596,0,0,0.055585,-0.0037874,0,-0.0013462,0,0,0,0.028212,0.001218,0.002943,-0.64946,0.010791,0.026174,9.0751e-07,0.16,0.44,0
0.0098023,0.0001014,0.028361,0.001055,0.0029416,-0.00039443,0,0,0.055922,-0.0041505,0,-0.0017355,0,0,0,0.028367,0.0010493,0.0029416,-0.82739,0.010786,0.026422,9.3101e-07,0.18,0.44,0
0.010924,0.00011719,0.028519,0.00090347,0.0029422,-0.00049442,0,0,0.056268,-0.0044853,0,-0.0021755,0,0,0,0.028528,0.00089462,0.0029422,-1.0254,0.010788,0.026668,9.5477e-07,0.2,0.44,0
0.012053,0.00013312,0.028684,0.00076824,0.0029452,-0.00060622,0,0,0.056624,-0.0047892,0,-0.0026674,0,0,0,0.028697,0.00075509,0.0029452,-1.2435,0.010799,0.026913,9.789e-07,0.22,0.44,0
0.013189,0.00014937,0.028857,0.00065075,0.0029507,-0.00072999,0,0,0.056993,-0.0050599,0,-0.0032119,0,0,0,0.028875,0.00063187,0.0029507,-1.4815,0.010819,0.027158,1.0036e-06,0.24,0.44,0
0.014333,0.00016635,0.02904,0.00055251,0.0029593,-0.00086557,0,0,0.057378,-0.0052948,0,-0.0038085,0,0,0,0.029066,0.00052624,0.0029593,-1.7388,0.010851,0.027405,1.029e-06,0.26,0.44,0
0.015484,0.00018478,0.029238,0.00047495,0.0029713,-0.0010124,0,0,0.057786,-0.0054919,0,-0.0044544,0,0,0,0.029273,0.00043936,0.0029713,-2.0133,0.010895,0.027655,1.0557e-06,0.28,0.44,0
0.016644,0.00020581,0.029455,0.0004191,0.0029875,-0.001169,0,0,0.058229,-0.0056504,0,-0.0051437,0,0,0,0.029502,0.00037211,0.0029875,-2.3018,0.010954,0.027915,1.0842e-06,0.3,0.44,0
0.017813,0.00023121,0.029704,0.00038523,0.0030089,-0.0013334,0,0,0.058729,-0.005772,0,-0.0058671,0,0,0,0.029764,0.00032471,0.0030089,-2.5987,0.011033,0.028193,1.1159e-06,0.32,0.44,0
0.018993,0.00026363,0.030002,0.00037254,0.0030374,-0.0015028,0,0,0.059321,-0.0058627,0,-0.0066123,0,0,0,0.030078,0.00029652,0.0030374,-2.8961,0.011137,0.02851,1.1531e-06,0.34,0.44,0
0.020186,0.00030705,0.030386,0.00037975,0.0030766,-0.0016725,0,0,0.060081,-0.005933,0,-0.0073591,0,0,0,0.030479,0.00028681,0.0030766,-3.1805,0.011281,0.028899,1.2007e-06,0.36,0.44,0
0.021396,0.00036797,0.03095,0.00041364,0.0031363,-0.0018405,0,0,0.061189,-0.0059899,0,-0.0080981,0,0,0,0.03106,0.00030311,0.0031363,-3.4368,0.0115,0.029443,1.2701e-06,0.38,0.44,0
0.022634,0.00045697,0.031976,0.00050487,0.0032481,-0.001814,0,0,0.063202,-0.0060351,0,-0.0079815,0,0,0,0.03208,0.00040065,0.0032481,-3.288,0.01191,0.030356,1.3942e-06,0.4,0.44,0
0.023925,0.00063147,0.03744,0.00063247,0.0038072,-0.0029934,0,0,0.051501,-0.0049117,0,-0.0097026,0,0,0,0.037688,0.00038434,0.0038072,-4.7781,0.01396,0.035716,2.5727e-06,0.42,0.44,0
0.024824,0.0007695,0.029903,0.00088907,0.0030792,6.6572e-05,0,0,0.040752,-0.0034507,0,7.6096e-05,0,0,0,0.029904,0.00088843,0.0030792,0.076189,0.011291,0.027985,1.2844e-06,0.44,0.44,0
0.02547,0.00079911,0.03352,0.0017212,0.0035241,0.00040804,0,0,0.032995,-0.0019833,0,0.00089769,0,0,0,0.033525,0.0017159,0.0035241,0.73506,0.012922,0.030945,1.5044e-06,0.46,0.44,0
0.026144,0.0008128,0.033726,0.0014869,0.0035213,-0.0001428,0,0,0.033225,-0.0022379,0,-0.00031416,0,0,0,0.033726,0.0014862,0.0035213,-0.25378,0.012911,0.031273,1.5483e-06,0.48,0.44,0
0.026799,0.00083148,0.033197,0.0012935,0.0034491,-2.1192e-05,0,0,0.032723,-0.0023711,0,-4.6622e-05,0,0,0,0.033197,0.0012935,0.0034491,-0.038058,0.012646,0.030882,1.4879e-06,0.5,0.44,0
0.027453,0.00085116,0.033083,0.0014348,0.0034518,-9.4758e-06,0,0,0.032594,-0.0022187,0,-2.0847e-05,0,0,0,0.033083,0.0014348,0.0034518,-0.017155,0.012656,0.030689,1.4629e-06,0.52,0.44,0
0.028103,0.00087411,0.032962,0.0015961,0.0034558,2.8806e-05,0,0,0.032456,-0.0020456,0,6.3374e-05,0,0,0,0.032962,0.0015961,0.0034558,0.052621,0.012671,0.030478,1.4358e-06,0.54,0.44,0
0.028751,0.00089598,0.032918,0.0017437,0.0034661,7.9577e-06,0,0,0.032397,-0.0018947,0,1.7507e-05,0,0,0,0.032918,0.0017437,0.0034661,0.014626,0.012709,0.030349,1.4201e-06,0.56,0.44,0
0.029399,0.00091444,0.0329,0.0017937,0.0034693,-3.0109e-05,0,0,0.032373,-0.0018432,0,-6.6241e-05,0,0,0,0.0329,0.0017937,0.0034693,-0.05546,0.012721,0.030303,1.4145e-06,0.58,0.44,0
0.030046,0.000928,0.032903,0.0017528,0.0034656,-7.3879e-05,0,0,0.032381,-0.0018841,0,-0.00016253,0,0,0,0.032903,0.0017526,0.0034656,-0.13589,0.012707,0.03033,1.4176e-06,0.6,0.44,0
0.030694,0.00093669,0.032925,0.001621,0.0034546,-0.00011411,0,0,0.032418,-0.002017,0,-0.00025103,0,0,0,0.032926,0.0016205,0.0034546,-0.20885,0.012667,0.030429,1.4294e-06,0.62,0.44,0
0.031343,0.00094214,0.032969,0.0013925,0.0034362,-0.00013713,0,0,0.032487,-0.0022481,0,-0.00030169,0,0,0,0.03297,0.0013919,0.0034362,-0.24882,0.012599,0.030607,1.4505e-06,0.64,0.44,0
0.031993,0.00094691,0.033083,0.0011514,0.0034234,-9.7372e-05,0,0,0.032625,-0.0024992,0,-0.00021422,0,0,0,0.033083,0.0011511,0.0034234,-0.17472,0.012552,0.030859,1.4816e-06,0.66,0.44,0
0.032648,0.00095568,0.033182,0.00093328,0.0034115,-7.145e-05,0,0,0.032747,-0.002726,0,-0.00015719,0,0,0,0.033182,0.00093312,0.0034115,-0.12695,0.012509,0.031084,1.5095e-06,0.68,0.44,0
0.033303,0.00096676,0.033696,0.0010349,0.0034731,7.8143e-05,0,0,0.033246,-0.002682,0,0.00017191,0,0,0,0.033697,0.0010347,0.0034731,0.13708,0.012735,0.031514,1.575e-06,0.7,0.44,0
0.033978,0.000984,0.033503,0.0011539,0.0034657,-0.00042159,0,0,0.033041,-0.0025429,0,-0.0009275,0,0,0,0.033508,0.0011485,0.0034657,-0.74655,0.012708,0.031266,1.5407e-06,0.72,0.44,0
0.034625,0.00098682,0.029945,0.00025204,0.0030197,-9.72e-05,0,0,0.040916,-0.0043224,0,-0.0001911,0,0,0,0.029946,0.0002514,0.0030197,-0.1428,0.011072,0.028412,1.3281e-06,0.74,0.44,0
0.035529,0.00087423,0.037534,-0.0002491,0.0037285,0.0029062,0,0,0.051775,-0.006141,0,0.0093866,0,0,0,0.037761,-0.00047636,0.0037285,4.5135,0.013671,0.036318,2.6661e-06,0.76,0.44,0
0.036828,0.00071251,0.032118,-0.00024939,0.0031869,0.0016813,0,0,0.063648,-0.0075597,0,0.0073975,0,0,0,0.032205,-0.00033648,0.0031869,2.9655,0.011685,0.030931,1.4536e-06,0.78,0.44,0
0.038075,0.00063864,0.031135,-0.00038298,0.0030753,0.0017345,0,0,0.061733,-0.0076081,0,0.0076319,0,0,0,0.031231,-0.00047814,0.0030753,3.1404,0.011276,0.03009,1.3337e-06,0.8,0.44,0
0.039297,0.00059261,0.030634,-0.00046609,0.0030167,0.0015869,0,0,0.060757,-0.0076622,0,0.0069823,0,0,0,0.030714,-0.00054685,0.0030167,2.9135,0.011061,0.029641,1.2725e-06,0.82,0.44,0
0.040505,0.00056594,0.030337,-0.00056989,0.0029767,0.0014414,0,0,0.060193,-0.0078025,0,0.0063419,0,0,0,0.030404,-0.00063696,0.0029767,2.6643,0.010915,0.029401,1.2391e-06,0.84,0.44,0
0.041705,0.00055247,0.030145,-0.00069148,0.0029453,0.0012748,0,0,0.059839,-0.008001,0,0.0056089,0,0,0,0.030197,-0.00074409,0.0029453,2.3632,0.0108,0.029272,1.2194e-06,0.86,0.44,0
0.042899,0.00054744,0.030009,-0.00080156,0.0029208,0.0010925,0,0,0.059594,-0.0081891,0,0.0048069,0,0,0,0.030048,-0.00084025,0.0029208,2.0282,0.010709,0.02919,1.2062e-06,0.88,0.44,0
0.044088,0.00054719,0.029903,-0.00089216,0.0029011,0.00090377,0,0,0.059404,-0.0083451,0,0.0039766,0,0,0,0.029929,-0.00091866,0.0029011,1.6796,0.010637,0.029127,1.1958e-06,0.9,0.44,0
0.045275,0.00054931,0.029818,-0.00096268,0.0028856,0.00071575,0,0,0.059252,-0.0084661,0,0.0031493,0,0,0,0.029835,-0.00097931,0.0028856,1.3313,0.01058,0.029075,1.1875e-06,0.92,0.44,0
0.046458,0.00055222,0.029753,-0.0010148,0.0028738,0.00053145,0,0,0.059134,-0.0085548,0,0.0023384,0,0,0,0.029762,-0.0010239,0.0028738,0.98928,0.010537,0.029034,1.181e-06,0.94,0.44,0
0.04764,0.0005549,0.029706,-0.0010504,0.0028656,0.00035141,0,0,0.059049,-0.008615,0,0.0015462,0,0,0,0.02971,-0.0010544,0.0028656,0.65453,0.010507,0.029004,1.1763e-06,0.96,0.44,0
0.04882,0.00055672,0.029678,-0.0010711,0.0028607,0.00017478,0,0,0.058997,-0.0086498,0,0.00076902,0,0,0,0.029679,-0.001072,0.0028607,0.32566,0.010489,0.028985,1.1734e-06,0.98,0.44,0
0.05,0.00055737,0.029668,-0.0010778,0.002859,7.3282e-06,0,0,0.05898,-0.0086611,0,3.2244e-05,0,0,0,0.029668,-0.0010778,0.002859,0.013656,0.010483,0.028979,1.1725e-06,1,0.44,0
0,0,0.027093,0.0030103,0.0030103,-9.7782e-05,0,0,0.052982,-1.3552e-19,0,-0.00043024,0,0,0,0.027093,0.0030099,0.0030103,-0.23263,0.011038,0.024083,7.1742e-07,0,0.46,0
0.0010596,-8.6048e-06,0.027139,0.0027477,0.0029887,-0.00012294,0,0,0.053131,-0.00053006,0,-0.00054092,0,0,0,0.02714,0.0027471,0.0029887,-0.28877,0.010958,0.024273,7.3423e-07,0.02,0.46,0
0.0021252,-1.2977e-05,0.027262,0.0025064,0.0029768,-0.00013305,0,0,0.053427,-0.001035,0,-0.0005854,0,0,0,0.027263,0.0025057,0.0029768,-0.30792,0.010915,0.024525,7.5666e-07,0.04,0.46,0
0.0031967,-1.3941e-05,0.027385,0.0022768,0.0029662,-0.00015622,0,0,0.053721,-0.0015166,0,-0.00068738,0,0,0,0.027386,0.0022759,0.0029662,-0.35647,0.010876,0.024772,7.7872e-07,0.06,0.46,0
0.0042741,-1.2183e-05,0.027509,0.0020588,0.0029568,-0.00019143,0,0,0.054015,-0.0019756,0,-0.00084229,0,0,0,0.02751,0.0020573,0.0029568,-0.43094,0.010841,0.025015,8.0047e-07,0.08,0.46,0
0.0053573,-8.2766e-06,0.027633,0.0018522,0.0029486,-0.00023806,0,0,0.054307,-0.002412,0,-0.0010475,0,0,0,0.027636,0.00185,0.0029486,-0.529,0.010811,0.025254,8.2197e-07,0.1,0.46,0
0.0064464,-2.6971e-06,0.027759,0.0016574,0.0029417,-0.00029583,0,0,0.054599,-0.0028254,0,-0.0013017,0,0,0,0.027763,0.001654,0.0029417,-0.64927,0.010786,0.025489,8.4322e-07,0.12,0.46,0
0.0075413,4.1716e-06,0.027886,0.001475,0.0029361,-0.00036471,0,0,0.054891,-0.0032145,0,-0.0016047,0,0,0,0.027891,0.00147,0.0029361,-0.79099,0.010766,0.02572,8.6425e-07,0.14,0.46,0
0.008642,1.2037e-05,0.028015,0.0013058,0.0029321,-0.00044486,0,0,0.055182,-0.0035777,0,-0.0019574,0,0,0,0.028022,0.0012984,0.0029321,-0.95397,0.010751,0.025946,8.8506e-07,0.16,0.46,0
0.0097485,2.0703e-05,0.028144,0.0011509,0.0029295,-0.0005366,0,0,0.055473,-0.003913,0,-0.002361,0,0,0,0.028155,0.0011402,0.0029295,-1.1384,0.010742,0.026166,9.0563e-07,0.18,0.46,0
0.010861,3.0088e-05,0.028276,0.0010114,0.0029287,-0.00064033,0,0,0.055763,-0.0042182,0,-0.0028174,0,0,0,0.028291,0.00099632,0.0029287,-1.3447,0.010739,0.026381,9.2596e-07,0.2,0.46,0
0.011979,4.0246e-05,0.028408,0.00088849,0.0029297,-0.00075652,0,0,0.056053,-0.0044906,0,-0.0033287,0,0,0,0.028429,0.00086771,0.0029297,-1.5735,0.010742,0.02659,9.4605e-07,0.22,0.46,0
0.013103,5.1405e-05,0.028543,0.00078364,0.0029326,-0.00088562,0,0,0.056342,-0.0047278,0,-0.0038967,0,0,0,0.028571,0.00075541,0.0029326,-1.8255,0.010753,0.026793,9.6591e-07,0.24,0.46,0
0.014233,6.4017e-05,0.028679,0.0006981,0.0029377,-0.0010281,0,0,0.056631,-0.0049272,0,-0.0045235,0,0,0,0.028717,0.00066038,0.0029377,-2.1014,0.010772,0.02699,9.8559e-07,0.26,0.46,0
0.015368,7.8838e-05,0.028819,0.00063296,0.0029452,-0.0011842,0,0,0.056922,-0.0050868,0,-0.0052106,0,0,0,0.028868,0.00058329,0.0029452,-2.4016,0.010799,0.027181,1.0052e-06,0.28,0.46,0
0.01651,9.7032e-05,0.028962,0.0005889,0.0029551,-0.0013545,0,0,0.057216,-0.0052057,0,-0.0059597,0,0,0,0.029027,0.00052438,0.0029551,-2.7269,0.010835,0.027368,1.0249e-06,0.3,0.46,0
0.017657,0.00012033,0.029112,0.0005659,0.0029678,-0.0015395,0,0,0.057517,-0.0052841,0,-0.0067737,0,0,0,0.029195,0.00048311,0.0029678,-3.078,0.010882,0.027553,1.045e-06,0.32,0.46,0
0.01881,0.00015128,0.029267,0.00056305,0.002983,-0.0017404,0,0,0.057826,-0.005324,0,-0.0076575,0,0,0,0.029372,0.00045791,0.002983,-3.457,0.010938,0.027738,1.0656e-06,0.34,0.46,0
0.01997,0.00019376,0.02942,0.0005789,0.0029999,-0.0019582,0,0,0.058124,-0.0053262,0,-0.0086162,0,0,0,0.029552,0.00044655,0.0029999,-3.8666,0.011,0.027917,1.086e-06,0.36,0.46,0
0.021135,0.00025408,0.029497,0.00060402,0.0030101,-0.0021816,0,0,0.058272,-0.0052934,0,-0.0095989,0,0,0,0.029661,0.00044023,0.0030101,-4.2937,0.011037,0.028024,1.0984e-06,0.38,0.46,0
0.022301,0.00034534,0.029239,0.00062884,0.0029867,-0.002322,0,0,0.057754,-0.0051874,0,-0.010217,0,0,0,0.029426,0.00044161,0.0029867,-4.61,0.010951,0.027799,1.0722e-06,0.4,0.46,0
0.023445,0.00050258,0.030054,5.5899e-05,0.003011,-0.0027757,0,0,0.059494,-0.0065012,0,-0.012213,0,0,0,0.030309,-0.00019878,0.003011,-5.2423,0.01104,0.029036,1.2056e-06,0.42,0.46,0
0.024681,0.00068618,0.034711,8.5534e-05,0.0034797,-0.00209,0,0,0.048085,-0.005384,0,-0.0074435,0,0,0,0.034861,-6.3798e-05,0.0034797,-3.7237,0.012759,0.033296,2.0262e-06,0.44,0.46,0
0.025506,0.00075975,0.027867,0.00080731,0.0028675,-0.00018883,0,0,0.037812,-0.0032323,0,-0.0011324,0,0,0,0.027879,0.00079584,0.0028675,-0.67573,0.010514,0.02611,1.0573e-06,0.46,0.46,0
0.026124,0.00077107,0.032451,0.0014951,0.0033946,0.00044447,0,0,0.031962,-0.0020894,0,0.00097784,0,0,0,0.032457,0.0014888,0.0033946,0.82245,0.012447,0.030061,1.3763e-06,0.48,0.46,0
0.026784,0.0007821,0.033159,0.0013443,0.0034503,-3.8535e-05,0,0,0.032679,-0.0023167,0,-8.4776e-05,0,0,0,0.033159,0.0013442,0.0034503,-0.069398,0.012651,0.030816,1.4793e-06,0.5,0.46,0
0.027432,0.00080664,0.032908,0.0013551,0.0034263,6.2746e-05,0,0,0.03243,-0.0022784,0,0.00013804,0,0,0,0.032908,0.0013549,0.0034263,0.11394,0.012563,0.030571,1.4446e-06,0.52,0.46,0
0.028081,0.00083304,0.032987,0.0016491,0.0034636,2.3821e-06,0,0,0.032476,-0.001996,0,5.2406e-06,0,0,0,0.032987,0.0016491,0.0034636,0.0043552,0.0127,0.030471,1.4357e-06,0.54,0.46,0
0.02873,0.00085846,0.033026,0.0017854,0.0034811,-3.5425e-05,0,0,0.032499,-0.0018653,0,-7.7936e-05,0,0,0,0.033026,0.0017853,0.0034811,-0.064971,0.012764,0.030428,1.4318e-06,0.56,0.46,0
0.029381,0.0008779,0.033083,0.0018125,0.0034896,-5.3336e-05,0,0,0.032553,-0.0018448,0,-0.00011734,0,0,0,0.033083,0.0018124,0.0034896,-0.097725,0.012795,0.030467,1.4376e-06,0.58,0.46,0
0.030033,0.00089065,0.033082,0.0017727,0.0034855,-5.3363e-05,0,0,0.032556,-0.0018841,0,-0.0001174,0,0,0,0.033082,0.0017726,0.0034855,-0.097652,0.01278,0.030489,1.4402e-06,0.6,0.46,0
0.030683,0.00089677,0.033023,0.0016652,0.0034688,-7.1766e-05,0,0,0.032509,-0.0019839,0,-0.00015788,0,0,0,0.033023,0.0016651,0.0034688,-0.13113,0.012719,0.030496,1.4395e-06,0.62,0.46,0
0.031333,0.00089708,0.03298,0.0014453,0.0034425,-0.00010857,0,0,0.032491,-0.002197,0,-0.00023886,0,0,0,0.032981,0.0014449,0.0034425,-0.19726,0.012623,0.030586,1.4484e-06,0.64,0.46,0
0.031983,0.00089676,0.032897,0.0010655,0.0033963,-0.00016059,0,0,0.032451,-0.0025638,0,-0.00035329,0,0,0,0.032898,0.0010647,0.0033963,-0.28904,0.012453,0.030734,1.4621e-06,0.66,0.46,0
0.032631,0.00089905,0.033142,0.00095856,0.0034101,-4.5458e-05,0,0,0.032705,-0.0026967,0,-0.00010001,0,0,0,0.033142,0.00095849,0.0034101,-0.080927,0.012504,0.031031,1.5023e-06,0.68,0.46,0
0.033291,0.00091549,0.03244,0.0010202,0.003346,-0.0004956,0,0,0.032004,-0.0025584,0,-0.0010903,0,0,0,0.032448,0.0010124,0.003346,-0.90345,0.012269,0.030336,1.4053e-06,0.7,0.46,0
0.033911,0.00093342,0.027895,0.0002892,0.0028185,0.00014102,0,0,0.037936,-0.0039457,0,0.00098196,0,0,0,0.027906,0.00027873,0.0028185,0.55999,0.010334,0.02645,1.0878e-06,0.72,0.46,0
0.034739,0.00088459,0.034778,-0.00069324,0.0034085,0.0019823,0,0,0.04831,-0.006468,0,0.0070827,0,0,0,0.03491,-0.00082551,0.0034085,3.4575,0.012498,0.03382,2.092e-06,0.74,0.46,0
0.035982,0.00071455,0.030173,-0.00066873,0.0029505,0.0026312,0,0,0.059891,-0.0079623,0,0.011577,0,0,0,0.030396,-0.00089158,0.0029505,4.8413,0.010818,0.029555,1.2507e-06,0.76,0.46,0
0.037135,0.00057097,0.029391,-0.00011464,0.0029276,0.0021709,0,0,0.058219,-0.006693,0,0.009552,0,0,0,0.02955,-0.00027352,0.0029276,4.1856,0.010735,0.028358,1.1212e-06,0.78,0.46,0
0.03831,0.00049195,0.029687,-0.00020005,0.0029487,0.0020228,0,0,0.058825,-0.0069273,0,0.0089001,0,0,0,0.029823,-0.00033633,0.0029487,3.8543,0.010812,0.028659,1.1555e-06,0.8,0.46,0
0.039488,0.00044401,0.029666,-0.00028824,0.0029377,0.0018022,0,0,0.058801,-0.0070972,0,0.0079296,0,0,0,0.029774,-0.00039628,0.0029377,3.4307,0.010772,0.028649,1.1527e-06,0.82,0.46,0
0.040662,0.00041443,0.029582,-0.00039062,0.0029192,0.0015863,0,0,0.058659,-0.0072815,0,0.0069797,0,0,0,0.029666,-0.00047434,0.0029192,3.0211,0.010704,0.028595,1.144e-06,0.84,0.46,0
0.041834,0.00039733,0.029511,-0.00049912,0.0029011,0.0013795,0,0,0.058541,-0.0074806,0,0.0060698,0,0,0,0.029574,-0.0005624,0.0029011,2.6264,0.010638,0.028563,1.1377e-06,0.86,0.46,0
0.043004,0.00038858,0.029455,-0.00060378,0.0028851,0.0011745,0,0,0.058453,-0.0076755,0,0.0051678,0,0,0,0.029501,-0.0006496,0.0028851,2.2342,0.010579,0.028547,1.1334e-06,0.88,0.46,0
0.044173,0.0003851,0.02941,-0.00069503,0.0028715,0.0009707,0,0,0.058385,-0.0078465,0,0.0042711,0,0,0,0.029442,-0.0007263,0.0028715,1.8449,0.010529,0.02854,1.1302e-06,0.9,0.46,0
0.04534,0.00038463,0.029374,-0.00076931,0.0028605,0.00076961,0,0,0.058329,-0.0079855,0,0.0033863,0,0,0,0.029393,-0.00078894,0.0028605,1.4616,0.010488,0.028533,1.1276e-06,0.92,0.46,0
0.046506,0.00038558,0.029344,-0.00082598,0.0028518,0.00057237,0,0,0.058284,-0.0080912,0,0.0025184,0,0,0,0.029355,-0.00083683,0.0028518,1.0864,0.010457,0.028527,1.1254e-06,0.94,0.46,0
0.047671,0.00038692,0.029323,-0.00086561,0.0028457,0.00037901,0,0,0.058249,-0.0081649,0,0.0016676,0,0,0,0.029327,-0.00087037,0.0028457,0.71919,0.010434,0.028522,1.1238e-06,0.96,0.46,0
0.048836,0.00038796,0.029309,-0.00088898,0.002842,0.00018868,0,0,0.058228,-0.0082082,0,0.00083021,0,0,0,0.02931,-0.00089016,0.002842,0.35798,0.010421,0.028518,1.1227e-06,0.98,0.46,0
0.05,0.00038835,0.029305,-0.0008967,0.0028408,4.4003e-06,0,0,0.05822,-0.0082225,0,1.9361e-05,0,0,0,0.029305,-0.0008967,0.0028408,0.0083479,0.010416,0.028517,1.1224e-06,1,0.46,0
0,0,0.026977,0.0029974,0.0029974,-0.00021457,0,0,0.052754,1.8973e-19,0,-0.00094411,0,0,0,0.026978,0.0029955,0.0029974,-0.51264,0.01099,0.023982,7.084e-07,0,0.48,0
0.0010551,-1.8882e-05,0.027019,0.0027511,0.0029771,-0.00024171,0,0,0.052893,-0.00049705,0,-0.0010635,0,0,0,0.027022,0.0027487,0.0029771,-0.57059,0.010916,0.02416,7.2406e-07,0.02,0.48,0
0.0021157,-3.3066e-05,0.027134,0.0025235,0.0029657,-0.00025145,0,0,0.05317,-0.00097281,0,-0.0011064,0,0,0,0.027136,0.002521,0.0029657,-0.58533,0.010874,0.024396,7.449e-07,0.04,0.48,0
0.0031819,-4.3397e-05,0.027248,0.0023065,0.0029554,-0.00027458,0,0,0.053443,-0.0014277,0,-0.0012081,0,0,0,0.027251,0.0023034,0.0029554,-0.63067,0.010837,0.024628,7.6536e-07,0.06,0.48,0
0.0042534,-5.0567e-05,0.027361,0.0021,0.0029461,-0.0003099,0,0,0.053712,-0.0018613,0,-0.0013636,0,0,0,0.027365,0.0020962,0.0029461,-0.70276,0.010802,0.024854,7.8545e-07,0.08,0.48,0
0.0053304,-5.5143e-05,0.027473,0.0019046,0.0029378,-0.00035667,0,0,0.053978,-0.0022731,0,-0.0015693,0,0,0,0.027478,0.0018996,0.0029378,-0.79903,0.010772,0.025076,8.0514e-07,0.1,0.48,0
0.0064126,-5.7581e-05,0.027585,0.0017208,0.0029306,-0.00041449,0,0,0.05424,-0.0026616,0,-0.0018238,0,0,0,0.027592,0.0017141,0.0029306,-0.91789,0.010745,0.025291,8.2439e-07,0.12,0.48,0
0.0075,-5.8238e-05,0.027695,0.0015494,0.0029245,-0.00048325,0,0,0.054496,-0.0030252,0,-0.0021263,0,0,0,0.027704,0.0015405,0.0029245,-1.0585,0.010723,0.0255,8.4316e-07,0.14,0.48,0
0.0085924,-5.7368e-05,0.027804,0.0013915,0.0029195,-0.00056304,0,0,0.054746,-0.0033618,0,-0.0024774,0,0,0,0.027816,0.0013794,0.0029195,-1.2207,0.010705,0.025701,8.6136e-07,0.16,0.48,0
0.0096898,-5.5124e-05,0.02791,0.0012481,0.0029158,-0.00065409,0,0,0.054987,-0.0036689,0,-0.002878,0,0,0,0.027926,0.0012321,0.0029158,-1.4045,0.010691,0.025893,8.7892e-07,0.18,0.48,0
0.010792,-5.1538e-05,0.028013,0.0011206,0.0029134,-0.00075676,0,0,0.055219,-0.0039441,0,-0.0033297,0,0,0,0.028034,0.0010993,0.0029134,-1.6106,0.010682,0.026075,8.9572e-07,0.2,0.48,0
0.011898,-4.6503e-05,0.028112,0.0010102,0.0029122,-0.00087145,0,0,0.055439,-0.0041844,0,-0.0038344,0,0,0,0.02814,0.00098223,0.0029122,-1.8398,0.010678,0.026246,9.1165e-07,0.22,0.48,0
0.01301,-3.9737e-05,0.028206,0.00091831,0.0029124,-0.00099857,0,0,0.055645,-0.004387,0,-0.0043937,0,0,0,0.028242,0.00088181,0.0029124,-2.093,0.010679,0.026404,9.2656e-07,0.24,0.48,0
0.014124,-3.0734e-05,0.028292,0.00084609,0.0029138,-0.0011385,0,0,0.055833,-0.0045491,0,-0.0050094,0,0,0,0.02834,0.00079894,0.0029138,-2.3712,0.010684,0.026546,9.4029e-07,0.26,0.48,0
0.015243,-1.8693e-05,0.02837,0.00079456,0.0029165,-0.0012915,0,0,0.055999,-0.0046683,0,-0.0056826,0,0,0,0.028431,0.0007342,0.0029165,-2.6756,0.010694,0.026672,9.526e-07,0.28,0.48,0
0.016364,-2.4178e-06,0.028422,0.000724,0.0029146,-0.0014606,0,0,0.056115,-0.0048192,0,-0.0064268,0,0,0,0.028498,0.00064719,0.0029146,-3.0104,0.010687,0.02679,9.6365e-07,0.3,0.48,0
0.017488,1.9845e-05,0.028485,0.0007128,0.0029198,-0.0016132,0,0,0.056244,-0.0048554,0,-0.007098,0,0,0,0.028579,0.00061941,0.0029198,-3.3132,0.010706,0.026883,9.7323e-07,0.32,0.48,0
0.018614,5.0674e-05,0.028502,0.00076582,0.0029268,-0.0018251,0,0,0.056265,-0.0047541,0,-0.0080303,0,0,0,0.028621,0.00064624,0.0029268,-3.7486,0.010731,0.026907,9.7635e-07,0.34,0.48,0
0.019739,9.4008e-05,0.028465,0.00079025,0.0029255,-0.002014,0,0,0.056186,-0.0046975,0,-0.0088617,0,0,0,0.02861,0.00064444,0.0029255,-4.1407,0.010727,0.026898,9.753e-07,0.36,0.48,0
0.020861,0.00015623,0.028346,0.0008119,0.0029158,-0.0021654,0,0,0.055946,-0.0046285,0,-0.009528,0,0,0,0.028515,0.00064264,0.0029158,-4.4695,0.010691,0.026808,9.6558e-07,0.38,0.48,0
0.021977,0.00024948,0.028291,0.00072724,0.0029018,-0.002297,0,0,0.055856,-0.0047841,0,-0.010107,0,0,0,0.028481,0.00053713,0.0029018,-4.7312,0.01064,0.02684,9.6708e-07,0.4,0.48,0
0.023095,0.00037142,0.027964,9.5808e-05,0.002806,-0.0023244,0,0,0.055348,-0.0059624,0,-0.010227,0,0,0,0.028157,-9.6727e-05,0.002806,-4.7352,0.010289,0.02692,9.6274e-07,0.42,0.48,0
0.024191,0.00052978,0.028714,-0.00059713,0.0028117,-0.0030499,0,0,0.056985,-0.0074994,0,-0.013419,0,0,0,0.029028,-0.00091112,0.0028117,-5.8779,0.010309,0.028262,1.0919e-06,0.44,0.48,0
0.025375,0.00068246,0.03314,9.3726e-05,0.0033233,-0.0024064,0,0,0.045941,-0.0051728,0,-0.008484,0,0,0,0.033341,-0.00010764,0.0033233,-4.4399,0.012186,0.031875,1.7673e-06,0.46,0.48,0
0.026161,0.00072922,0.026706,0.00064715,0.0027353,-0.00062027,0,0,0.036195,-0.0032567,0,-0.0026443,0,0,0,0.02674,0.00061268,0.0027353,-1.7594,0.010029,0.025134,9.4419e-07,0.48,0.48,0
0.02676,0.00073882,0.031611,0.0011509,0.0032762,9.7057e-05,0,0,0.031168,-0.0023378,0,0.00021352,0,0,0,0.031611,0.0011506,0.0032762,0.18256,0.012013,0.029455,1.2895e-06,0.5,0.48,0
0.027408,0.00076002,0.03277,0.0014938,0.0034264,-0.00025084,0,0,0.032278,-0.0021258,0,-0.00055184,0,0,0,0.032772,0.0014918,0.0034264,-0.45947,0.012564,0.030359,1.4175e-06,0.52,0.48,0
0.028051,0.00079427,0.032911,0.0017255,0.0034637,-0.00026226,0,0,0.032392,-0.001912,0,-0.00057698,0,0,0,0.032914,0.0017233,0.0034637,-0.48179,0.0127,0.030357,1.421e-06,0.54,0.48,0
0.028703,0.00082137,0.03329,0.0017491,0.0035039,-0.00024093,0,0,0.032764,-0.0019303,0,-0.00053004,0,0,0,0.033292,0.0017472,0.0035039,-0.43763,0.012847,0.030704,1.4702e-06,0.56,0.48,0
0.029362,0.00084065,0.033509,0.0017304,0.003524,-0.00012468,0,0,0.032984,-0.0019729,0,-0.00027431,0,0,0,0.03351,0.0017299,0.003524,-0.2248,0.012921,0.030922,1.5013e-06,0.58,0.48,0
0.030023,0.00085263,0.033506,0.0016912,0.0035197,2.1482e-05,0,0,0.032985,-0.0020114,0,4.7259e-05,0,0,0,0.033506,0.0016912,0.0035197,0.038686,0.012906,0.030941,1.5034e-06,0.6,0.48,0
0.030681,0.00085733,0.03328,0.0016298,0.003491,0.00013726,0,0,0.032768,-0.0020473,0,0.00030196,0,0,0,0.033281,0.0016292,0.003491,0.24846,0.0128,0.030763,1.4768e-06,0.62,0.48,0
0.031333,0.00085426,0.032899,0.0015213,0.003442,0.00016037,0,0,0.032402,-0.0021128,0,0.00035281,0,0,0,0.0329,0.0015205,0.003442,0.29283,0.012621,0.030464,1.4326e-06,0.64,0.48,0
0.031977,0.00084436,0.032754,0.0011887,0.0033943,0.00015317,0,0,0.032296,-0.0024261,0,0.00033697,0,0,0,0.032755,0.0011879,0.0033943,0.27802,0.012446,0.030523,1.4349e-06,0.66,0.48,0
0.032625,0.00084781,0.0316,0.00075828,0.0032358,-0.00017196,0,0,0.0312,-0.0027253,0,-0.00037831,0,0,0,0.031601,0.00075732,0.0032358,-0.31945,0.011865,0.029682,1.3115e-06,0.68,0.48,0
0.033225,0.00086443,0.02672,0.0002166,0.0026937,0.00055413,0,0,0.036285,-0.003849,0,0.0024442,0,0,0,0.026751,0.00018563,0.0026937,1.5869,0.0098769,0.025405,9.6624e-07,0.7,0.48,0
0.034014,0.00084034,0.033178,-0.00056255,0.0032616,0.002284,0,0,0.046105,-0.0060861,0,0.0080878,0,0,0,0.033358,-0.00074216,0.0032616,4.1428,0.011959,0.032287,1.8135e-06,0.72,0.48,0
0.035203,0.00070097,0.028799,-0.0012362,0.0027562,0.0029043,0,0,0.057293,-0.0087835,0,0.012779,0,0,0,0.029077,-0.0015145,0.0027562,5.4728,0.010106,0.028695,1.1235e-06,0.74,0.48,0
0.036305,0.00055574,0.02808,-0.00058266,0.0027497,0.0021603,0,0,0.055726,-0.0073312,0,0.0095053,0,0,0,0.028242,-0.00074456,0.0027497,4.2861,0.010082,0.027407,9.9959e-07,0.76,0.48,0
0.037432,0.00044479,0.028436,-1.0851e-05,0.0028425,0.0021093,0,0,0.056305,-0.0062773,0,0.0092809,0,0,0,0.028591,-0.0001664,0.0028425,4.2177,0.010422,0.027377,1.0111e-06,0.78,0.48,0
0.038558,0.00036155,0.028529,1.6246e-05,0.0028545,0.0019638,0,0,0.056483,-0.0062441,0,0.0086406,0,0,0,0.028663,-0.00011837,0.0028545,3.9215,0.010467,0.027416,1.0166e-06,0.8,0.48,0
0.039692,0.00030872,0.028693,-7.5249e-05,0.0028618,0.0018003,0,0,0.056829,-0.0064615,0,0.0079215,0,0,0,0.028806,-0.00018748,0.0028618,3.567,0.010493,0.027595,1.0349e-06,0.82,0.48,0
0.040831,0.00027468,0.028788,-0.00018299,0.0028605,0.0015995,0,0,0.057041,-0.0066958,0,0.007038,0,0,0,0.028876,-0.00027104,0.0028605,3.1506,0.010489,0.027715,1.0464e-06,0.84,0.48,0
0.041973,0.00025325,0.028839,-0.0002936,0.0028545,0.0013937,0,0,0.057166,-0.0069259,0,0.0061321,0,0,0,0.028906,-0.00036011,0.0028545,2.7326,0.010467,0.027798,1.0537e-06,0.86,0.48,0
0.043118,0.00024042,0.028869,-0.00039847,0.002847,0.0011884,0,0,0.057248,-0.0071401,0,0.005229,0,0,0,0.028917,-0.00044665,0.002847,2.3214,0.010439,0.027863,1.0589e-06,0.88,0.48,0
0.044263,0.00023334,0.028887,-0.00049158,0.0028396,0.00098462,0,0,0.057305,-0.0073285,0,0.0043323,0,0,0,0.02892,-0.00052454,0.0028396,1.9174,0.010412,0.027915,1.0627e-06,0.9,0.48,0
0.04541,0.0002299,0.028898,-0.00056908,0.0028329,0.00078294,0,0,0.057343,-0.0074843,0,0.0034449,0,0,0,0.028919,-0.00058986,0.0028329,1.5209,0.010387,0.027955,1.0655e-06,0.92,0.48,0
0.046557,0.00022857,0.028897,-0.00067143,0.0028226,0.00057843,0,0,0.057364,-0.0076869,0,0.0025451,0,0,0,0.028909,-0.00068274,0.0028226,1.1203,0.010349,0.028004,1.0686e-06,0.94,0.48,0
0.047704,0.0002283,0.028902,-0.00071311,0.0028189,0.00038572,0,0,0.057384,-0.0077705,0,0.0016971,0,0,0,0.028907,-0.00071813,0.0028189,0.74606,0.010336,0.028025,1.07e-06,0.96,0.48,0
0.048852,0.0002284,0.028907,-0.00069775,0.0028209,0.00019316,0,0,0.057389,-0.0077411,0,0.0008499,0,0,0,0.028908,-0.00069901,0.0028209,0.37381,0.010343,0.028014,1.0692e-06,0.98,0.48,0
0.05,0.00022847,0.028907,-0.00070622,0.0028201,8.3296e-07,0,0,0.057391,-0.0077579,0,3.665e-06,0,0,0,0.028907,-0.00070622,0.0028201,0.0016116,0.01034,0.028017,1.0694e-06,1,0.48,0
0,0,0.026851,0.0029834,0.0029834,-0.00032371,0,0,0.052508,-8.1315e-20,0,-0.0014243,0,0,0,0.026855,0.002979,0.0029834,-0.77691,0.010939,0.023874,6.9887e-07,0,0.5,0
0.0010502,-2.8487e-05,0.026891,0.0027538,0.0029644,-0.00035218,0,0,0.052637,-0.00046334,0,-0.0015496,0,0,0,0.026896,0.0027487,0.0029644,-0.83576,0.01087,0.02404,7.1335e-07,0.02,0.5,0
0.0021055,-5.189e-05,0.026996,0.0025402,0.0029536,-0.00036103,0,0,0.052894,-0.00090956,0,-0.0015885,0,0,0,0.027002,0.0025349,0.0029536,-0.84558,0.01083,0.02426,7.3259e-07,0.04,0.5,0
0.0031659,-7.1047e-05,0.0271,0.0023356,0.0029436,-0.00038313,0,0,0.053145,-0.0013376,0,-0.0016858,0,0,0,0.027106,0.0023297,0.0029436,-0.88613,0.010793,0.024476,7.5145e-07,0.06,0.5,0
0.0042313,-8.6637e-05,0.027203,0.0021406,0.0029344,-0.00041717,0,0,0.053391,-0.0017462,0,-0.0018355,0,0,0,0.02721,0.0021337,0.0029344,-0.95334,0.010759,0.024686,7.6987e-07,0.08,0.5,0
0.0053016,-9.9201e-05,0.027282,0.0019421,0.0029224,-0.00046491,0,0,0.053591,-0.0021568,0,-0.0020456,0,0,0,0.02729,0.0019335,0.0029224,-1.0507,0.010715,0.024877,7.8653e-07,0.1,0.5,0
0.0063765,-0.00010916,0.027418,0.0017712,0.002919,-0.00051091,0,0,0.053899,-0.0025251,0,-0.002248,0,0,0,0.027429,0.001761,0.002919,-1.1408,0.010703,0.025109,8.0718e-07,0.12,0.5,0
0.007456,-0.00011684,0.027494,0.0016221,0.0029116,-0.00058382,0,0,0.054082,-0.0028371,0,-0.0025688,0,0,0,0.027507,0.0016089,0.0029116,-1.292,0.010676,0.025272,8.2159e-07,0.14,0.5,0
0.0085398,-0.00012243,0.027583,0.0014748,0.0029058,-0.00065996,0,0,0.05429,-0.0031482,0,-0.0029038,0,0,0,0.0276,0.0014581,0.0029058,-1.4471,0.010655,0.025449,8.3725e-07,0.16,0.5,0
0.0096276,-0.00012605,0.027666,0.0013423,0.0029008,-0.0007464,0,0,0.054483,-0.0034286,0,-0.0032842,0,0,0,0.027687,0.0013212,0.0029008,-1.6229,0.010636,0.025612,8.5188e-07,0.18,0.5,0
0.010719,-0.00012767,0.027741,0.001226,0.0028967,-0.00084326,0,0,0.054658,-0.0036756,0,-0.0037104,0,0,0,0.027768,0.0011992,0.0028967,-1.8197,0.010621,0.025762,8.6529e-07,0.2,0.5,0
0.011814,-0.00012713,0.027807,0.0011271,0.0028934,-0.00095068,0,0,0.05481,-0.003886,0,-0.004183,0,0,0,0.027841,0.0010933,0.0028934,-2.0381,0.010609,0.025895,8.7726e-07,0.22,0.5,0
0.012911,-0.00012407,0.027862,0.0010468,0.0028909,-0.0010687,0,0,0.054936,-0.0040569,0,-0.0047022,0,0,0,0.027904,0.0010043,0.0028909,-2.2786,0.0106,0.026008,8.8753e-07,0.24,0.5,0
0.014011,-0.00011795,0.027902,0.00098631,0.0028888,-0.0011971,0,0,0.055029,-0.0041855,0,-0.0052671,0,0,0,0.027955,0.00093318,0.0028888,-2.5415,0.010592,0.026099,8.9578e-07,0.26,0.5,0
0.015113,-0.00010789,0.027923,0.00094623,0.002887,-0.0013352,0,0,0.05508,-0.0042696,0,-0.0058751,0,0,0,0.027989,0.0008803,0.002887,-2.8267,0.010585,0.026163,9.016e-07,0.28,0.5,0
0.016214,-9.2673e-05,0.027927,0.0009618,0.0028889,-0.0014924,0,0,0.055084,-0.0042396,0,-0.0065665,0,0,0,0.028009,0.00087945,0.0028889,-3.1582,0.010593,0.026183,9.0362e-07,0.3,0.5,0
0.017316,-7.0515e-05,0.02788,0.0009618,0.0028842,-0.0016089,0,0,0.054992,-0.0042293,0,-0.007079,0,0,0,0.027976,0.00086598,0.0028842,-3.4083,0.010575,0.02616,9.01e-07,0.32,0.5,0
0.018415,-3.8883e-05,0.027808,0.0009393,0.0028747,-0.0017835,0,0,0.054852,-0.0042579,0,-0.0078475,0,0,0,0.027925,0.00082143,0.0028747,-3.7812,0.01054,0.026138,8.9809e-07,0.34,0.5,0
0.01951,5.86e-06,0.027679,0.00095305,0.0028632,-0.0019176,0,0,0.054594,-0.0042022,0,-0.0084374,0,0,0,0.027815,0.00081617,0.0028632,-4.0832,0.010498,0.026036,8.8761e-07,0.36,0.5,0
0.020599,6.8936e-05,0.02752,0.0009262,0.0028446,-0.0020267,0,0,0.054286,-0.0042205,0,-0.0089176,0,0,0,0.027674,0.00077263,0.0028446,-4.3332,0.01043,0.025927,8.7587e-07,0.38,0.5,0
0.021681,0.00015398,0.027321,0.00073333,0.0028054,-0.0021091,0,0,0.053934,-0.0045586,0,-0.0092802,0,0,0,0.027487,0.00056706,0.0028054,-4.5076,0.010287,0.025874,8.6718e-07,0.4,0.5,0
0.022756,0.00026409,0.027209,0.00039703,0.0027606,-0.0023106,0,0,0.053785,-0.0051998,0,-0.010166,0,0,0,0.027406,0.00019937,0.0027606,-4.8896,0.010122,0.026021,8.7539e-07,0.42,0.5,0
0.023833,0.00038621,0.026806,-0.00024399,0.0026562,-0.0024857,0,0,0.05313,-0.0063804,0,-0.010937,0,0,0,0.027033,-0.00047052,0.0026562,-5.207,0.0097394,0.026081,8.6714e-07,0.44,0.5,0
0.024881,0.00052667,0.027079,-0.0007908,0.0026288,-0.003571,0,0,0.05379,-0.0075231,0,-0.015713,0,0,0,0.027529,-0.0012411,0.0026288,-7.1869,0.0096389,0.027044,9.4608e-07,0.46,0.5,0
0.026012,0.00065244,0.030825,0.00010661,0.0030932,-0.002686,0,0,0.042259,-0.004651,0,-0.0089935,0,0,0,0.031075,-0.00014331,0.0030932,-5.2529,0.011342,0.029734,1.4863e-06,0.48,0.5,0
0.026762,0.00068859,0.026497,0.00070591,0.0027203,-0.00057798,0,0,0.035531,-0.0031759,0,-0.0034483,0,0,0,0.026611,0.00059253,0.0027203,-2.2548,0.0099745,0.025025,9.5826e-07,0.5,0.5,0
0.027354,0.00072161,0.031787,0.0015558,0.0033343,-0.0010436,0,0,0.031298,-0.0019563,0,-0.0022958,0,0,0,0.031823,0.0015198,0.0033343,-1.9747,0.012226,0.029438,1.2934e-06,0.52,0.5,0
0.027997,0.00075656,0.033036,0.0015998,0.0034636,-0.00078417,0,0,0.03253,-0.0020502,0,-0.0017252,0,0,0,0.033056,0.0015802,0.0034636,-1.428,0.0127,0.030578,1.4496e-06,0.54,0.5,0
0.028663,0.00078124,0.034154,0.0016011,0.0035755,-0.00057989,0,0,0.033636,-0.0021718,0,-0.0012758,0,0,0,0.034164,0.0015908,0.0035755,-1.0202,0.01311,0.031628,1.6034e-06,0.56,0.5,0
0.029339,0.00079898,0.034362,0.001545,0.0035907,-0.000197,0,0,0.033849,-0.0022504,0,-0.0004334,0,0,0,0.034363,0.0015438,0.0035907,-0.34392,0.013166,0.031846,1.6356e-06,0.58,0.5,0
0.030018,0.0008102,0.034359,0.001506,0.0035865,9.2767e-05,0,0,0.03385,-0.0022886,0,0.00020409,0,0,0,0.034359,0.0015057,0.0035865,0.16179,0.013151,0.031864,1.6377e-06,0.6,0.5,0
0.030694,0.00081488,0.034143,0.0014823,0.0035625,0.00047539,0,0,0.033638,-0.0022882,0,0.0010459,0,0,0,0.03415,0.0014754,0.0035625,0.83373,0.013062,0.031682,1.6094e-06,0.62,0.5,0
0.03136,0.00081257,0.033018,0.0013956,0.0034414,0.00067537,0,0,0.032534,-0.0022503,0,0.0014858,0,0,0,0.033032,0.0013812,0.0034414,1.2229,0.012618,0.030673,1.4596e-06,0.64,0.5,0
0.032003,0.00079972,0.031338,0.0011859,0.0032524,0.001265,0,0,0.030894,-0.0022731,0,0.0027831,0,0,0,0.031391,0.0011329,0.0032524,2.3982,0.011925,0.029256,1.2633e-06,0.66,0.5,0
0.032596,0.00079004,0.025801,4.6912e-05,0.0025848,0.0013079,0,0,0.034932,-0.003889,0,0.0049933,0,0,0,0.025905,-5.6488e-05,0.0025848,3.4617,0.0094777,0.024747,8.9563e-07,0.68,0.5,0
0.033347,0.00077449,0.031633,-0.00049178,0.0031141,0.0028068,0,0,0.043952,-0.0056845,0,0.0096863,0,0,0,0.031902,-0.00076122,0.0031141,5.253,0.011418,0.03091,1.5885e-06,0.7,0.5,0
0.034481,0.00066133,0.027485,-0.0012305,0.0026255,0.0032048,0,0,0.054692,-0.0084832,0,0.014101,0,0,0,0.027839,-0.0015838,0.0026255,6.2913,0.0096268,0.02756,9.9112e-07,0.72,0.5,0
0.035535,0.00053325,0.026884,-0.00083668,0.0026047,0.0023202,0,0,0.053415,-0.0075711,0,0.010209,0,0,0,0.027077,-0.0010295,0.0026047,4.7514,0.0095508,0.026477,8.9306e-07,0.74,0.5,0
0.036618,0.0004213,0.027311,-0.00026072,0.002705,0.0021164,0,0,0.054133,-0.0065246,0,0.0093122,0,0,0,0.027472,-0.00042223,0.002705,4.364,0.0099183,0.02647,9.0785e-07,0.76,0.5,0
0.0377,0.00031988,0.027452,1.7079e-05,0.0027469,0.0018913,0,0,0.054352,-0.0060057,0,0.0083215,0,0,0,0.027582,-0.00011268,0.0027469,3.925,0.010072,0.026381,9.0576e-07,0.78,0.5,0
0.038792,0.00024218,0.027684,0.00014638,0.002783,0.0017863,0,0,0.054782,-0.0058006,0,0.0078596,0,0,0,0.027799,3.0999e-05,0.002783,3.6959,0.010204,0.0265,9.2108e-07,0.8,0.5,0
0.039892,0.00018555,0.027882,0.00010284,0.0027985,0.0016563,0,0,0.055184,-0.0059304,0,0.0072876,0,0,0,0.02798,4.4412e-06,0.0027985,3.4001,0.010261,0.026689,9.4039e-07,0.82,0.5,0
0.041,0.0001466,0.028059,7.9736e-06,0.0028067,0.0015,0,0,0.055554,-0.0061571,0,0.0066,0,0,0,0.028139,-7.201e-05,0.0028067,3.0523,0.010291,0.026887,9.5981e-07,0.84,0.5,0
0.042114,0.00012029,0.028192,-9.8277e-05,0.0028094,0.0013235,0,0,0.055843,-0.0063969,0,0.0058235,0,0,0,0.028254,-0.00016006,0.0028094,2.6727,0.010301,0.027052,9.7559e-07,0.86,0.5,0
0.043233,0.00010298,0.028291,-0.00020154,0.0028089,0.0011383,0,0,0.05606,-0.006623,0,0.0050085,0,0,0,0.028336,-0.00024694,0.0028089,2.2842,0.010299,0.027184,9.8793e-07,0.88,0.5,0
0.044356,9.1961e-05,0.028363,-0.00029451,0.0028068,0.00094922,0,0,0.056223,-0.0068229,0,0.0041766,0,0,0,0.028394,-0.00032592,0.0028068,1.8951,0.010292,0.027289,9.9748e-07,0.9,0.5,0
0.045482,8.5253e-05,0.028415,-0.00037311,0.0028042,0.00075874,0,0,0.056343,-0.00699,0,0.0033384,0,0,0,0.028435,-0.00039309,0.0028042,1.5087,0.010282,0.02737,1.0047e-06,0.92,0.5,0
0.04661,8.1383e-05,0.028433,-0.00043716,0.0027996,0.000558,0,0,0.056394,-0.0071208,0,0.0024552,0,0,0,0.028444,-0.00044794,0.0027996,1.1068,0.010265,0.027413,1.0081e-06,0.94,0.5,0
0.047739,7.9302e-05,0.028486,-0.00047847,0.0028008,0.0003844,0,0,0.056508,-0.0072143,0,0.0016914,0,0,0,0.028491,-0.00048357,0.0028008,0.76021,0.01027,0.02748,1.0147e-06,0.96,0.5,0
0.048869,7.8318e-05,0.028482,-0.00054651,0.0027936,0.00018751,0,0,0.056515,-0.0073482,0,0.00082506,0,0,0,0.028483,-0.00054772,0.0027936,0.37009,0.010243,0.027513,1.0167e-06,0.98,0.5,0
0.05,7.8032e-05,0.02848,-0.00063454,0.0027845,-3.2423e-06,0,0,0.056529,-0.0075219,0,-1.4266e-05,0,0,0,0.02848,-0.00063454,0.0027845,-0.0063807,0.01021,0.027564,1.02e-06,1,0.5,0
0,0,0.026718,0.0029687,0.0029687,-0.00042518,0,0,0.052249,-2.7105e-20,0,-0.0018708,0,0,0,0.026726,0.0029611,0.0029687,-1.0253,0.010885,0.023761,6.8901e-07,0,0.52,0
0.001045,-3.7416e-05,0.026734,0.0027505,0.0029485,-0.0004642,0,0,0.052329,-0.00043556,0,-0.0020425,0,0,0,0.026743,0.0027415,0.0029485,-1.1084,0.010811,0.023899,7.009e-07,0.02,0.52,0
0.0020947,-6.9448e-05,0.026871,0.0025526,0.0029424,-0.00045255,0,0,0.052644,-0.00085758,0,-0.0019912,0,0,0,0.02688,0.0025442,0.0029424,-1.0657,0.010789,0.024139,7.2175e-07,0.04,0.52,0
0.0031492,-9.6902e-05,0.026947,0.002363,0.002931,-0.00048192,0,0,0.052836,-0.0012495,0,-0.0021205,0,0,0,0.026957,0.0023536,0.002931,-1.1226,0.010747,0.02432,7.3733e-07,0.06,0.52,0
0.0042082,-0.00012042,0.027039,0.0021791,0.0029219,-0.00051333,0,0,0.053059,-0.0016341,0,-0.0022587,0,0,0,0.02705,0.0021685,0.0029219,-1.1824,0.010713,0.024514,7.5415e-07,0.08,0.52,0
0.0052715,-0.00014049,0.027111,0.002014,0.0029125,-0.00056187,0,0,0.053237,-0.0019768,0,-0.0024722,0,0,0,0.027124,0.0020014,0.0029125,-1.2819,0.010679,0.02468,7.6849e-07,0.1,0.52,0
0.0063391,-0.0001575,0.02723,0.0018563,0.0029086,-0.00060211,0,0,0.053506,-0.0023151,0,-0.0026493,0,0,0,0.027244,0.001842,0.0029086,-1.3586,0.010665,0.024886,7.8664e-07,0.12,0.52,0
0.0074105,-0.00017172,0.027289,0.0016902,0.0028979,-0.00066685,0,0,0.05366,-0.0026571,0,-0.0029341,0,0,0,0.027306,0.0016728,0.0028979,-1.4912,0.010626,0.025043,8.0018e-07,0.14,0.52,0
0.0084855,-0.0001833,0.027359,0.0015524,0.0028911,-0.00073631,0,0,0.053829,-0.0029452,0,-0.0032397,0,0,0,0.02738,0.0015314,0.0028911,-1.633,0.010601,0.025196,8.1348e-07,0.16,0.52,0
0.0095636,-0.00019227,0.02742,0.0014295,0.0028849,-0.00081454,0,0,0.053977,-0.0032019,0,-0.003584,0,0,0,0.027446,0.001404,0.0028849,-1.7933,0.010578,0.025333,8.2543e-07,0.18,0.52,0
0.010645,-0.00019856,0.02747,0.0013227,0.0028793,-0.00090136,0,0,0.054099,-0.0034244,0,-0.003966,0,0,0,0.027501,0.0012917,0.0028793,-1.972,0.010557,0.025453,8.3577e-07,0.2,0.52,0
0.011728,-0.00020194,0.027506,0.0012332,0.002874,-0.0009965,0,0,0.054191,-0.0036096,0,-0.0043846,0,0,0,0.027544,0.0011955,0.002874,-2.169,0.010538,0.025551,8.4425e-07,0.22,0.52,0
0.012812,-0.00020201,0.027526,0.0011621,0.0028688,-0.0010994,0,0,0.054246,-0.0037549,0,-0.0048375,0,0,0,0.027572,0.0011163,0.0028688,-2.3838,0.010519,0.025625,8.5053e-07,0.24,0.52,0
0.013898,-0.00019815,0.027526,0.0011099,0.0028636,-0.0012092,0,0,0.054258,-0.0038581,0,-0.0053205,0,0,0,0.027581,0.0010547,0.0028636,-2.6154,0.0105,0.02567,8.5424e-07,0.26,0.52,0
0.014982,-0.00018948,0.027502,0.0010769,0.0028578,-0.0013242,0,0,0.054216,-0.0039181,0,-0.0058263,0,0,0,0.027568,0.0010107,0.0028578,-2.8616,0.010479,0.025683,8.5495e-07,0.28,0.52,0
0.016066,-0.00017473,0.027446,0.0010617,0.0028508,-0.0014415,0,0,0.05411,-0.0039361,0,-0.0063425,0,0,0,0.027525,0.00098318,0.0028508,-3.1179,0.010453,0.025659,8.5217e-07,0.3,0.52,0
0.017147,-0.00015222,0.027355,0.0010607,0.0028416,-0.0015565,0,0,0.053929,-0.0039178,0,-0.0068487,0,0,0,0.027447,0.00096891,0.0028416,-3.376,0.010419,0.025593,8.4543e-07,0.32,0.52,0
0.018223,-0.00011964,0.027221,0.0010653,0.0028287,-0.0016621,0,0,0.053664,-0.0038795,0,-0.0073134,0,0,0,0.027327,0.00096006,0.0028287,-3.6216,0.010372,0.025484,8.3459e-07,0.34,0.52,0
0.019294,-7.4082e-05,0.027048,0.0010557,0.0028103,-0.0017516,0,0,0.053322,-0.0038602,0,-0.0077068,0,0,0,0.027165,0.00093819,0.0028103,-3.8379,0.010305,0.025343,8.206e-07,0.36,0.52,0
0.020356,-1.259e-05,0.026837,0.00099002,0.0027827,-0.0018241,0,0,0.05292,-0.003944,0,-0.0080261,0,0,0,0.026965,0.00086192,0.0027827,-4.017,0.010203,0.025198,8.0563e-07,0.38,0.52,0
0.02141,6.7135e-05,0.02661,0.00083359,0.0027444,-0.001912,0,0,0.052505,-0.0042037,0,-0.008413,0,0,0,0.026751,0.00069253,0.0027444,-4.2193,0.010063,0.025096,7.9347e-07,0.4,0.52,0
0.022456,0.00016343,0.026325,0.00053481,0.0026859,-0.0020373,0,0,0.052005,-0.0047325,0,-0.0089642,0,0,0,0.026485,0.00037486,0.0026859,-4.4891,0.0098484,0.025034,7.8268e-07,0.42,0.52,0
0.023491,0.00027457,0.026062,0.00021922,0.0026282,-0.0023332,0,0,0.051555,-0.0052997,0,-0.010266,0,0,0,0.026271,1.0259e-05,0.0026282,-5.1177,0.0096366,0.025055,7.7814e-07,0.44,0.52,0
0.024519,0.00038686,0.025605,-8.8516e-05,0.0025516,-0.0025655,0,0,0.050717,-0.0058083,0,-0.011288,0,0,0,0.025859,-0.00034218,0.0025516,-5.6468,0.009356,0.02488,7.5507e-07,0.46,0.52,0
0.025505,0.0005107,0.025875,-0.00037492,0.0025501,-0.0033399,0,0,0.051316,-0.006435,0,-0.014695,0,0,0,0.026294,-0.00079319,0.0025501,-7.1383,0.0093502,0.02558,8.1034e-07,0.48,0.52,0
0.026551,0.00061178,0.023265,0.00020893,0.0023474,-0.0035611,0,0,0.046018,-0.0047046,0,-0.015669,0,0,0,0.023802,-0.00032859,0.0023474,-8.5834,0.008607,0.02291,5.893e-07,0.5,0.52,0
0.027221,0.00068106,0.02602,0.00094935,0.0026969,-0.0026307,0,0,0.034131,-0.0028309,0,-0.0089348,0,0,0,0.02634,0.00062922,0.0026969,-6.6993,0.0098887,0.02475,9.8755e-07,0.52,0.52,0
0.027908,0.00070896,0.026215,0.000985,0.00272,-0.0016153,0,0,0.034509,-0.002627,0,-0.0055758,0,0,0,0.026342,0.00085812,0.00272,-4.2318,0.0099732,0.024606,9.8196e-07,0.54,0.52,0
0.028607,0.00073118,0.026788,0.0010309,0.0027819,-0.00096326,0,0,0.035184,-0.0026007,0,-0.0032387,0,0,0,0.02683,0.00098884,0.0027819,-2.4464,0.0102,0.024993,1.0491e-06,0.56,0.52,0
0.029312,0.0007473,0.026833,0.00099923,0.0027833,-0.00029802,0,0,0.035281,-0.0026328,0,-0.0010406,0,0,0,0.026838,0.00099481,0.0027833,-0.7852,0.010205,0.024997,1.0492e-06,0.58,0.52,0
0.030019,0.00075775,0.026832,0.0009606,0.0027793,0.00020634,0,0,0.035285,-0.0026899,0,0.00076049,0,0,0,0.026835,0.0009581,0.0027793,0.57273,0.010191,0.025016,1.0508e-06,0.6,0.52,0
0.030724,0.0007625,0.026779,0.00091298,0.0027692,0.00087217,0,0,0.03519,-0.0027742,0,0.0029598,0,0,0,0.026814,0.00087792,0.0027692,2.2248,0.010154,0.025044,1.053e-06,0.62,0.52,0
0.031424,0.00076094,0.026204,0.00078216,0.0026986,0.0015207,0,0,0.034524,-0.0029255,0,0.0052895,0,0,0,0.026317,0.00066842,0.0026986,3.9798,0.0098948,0.024698,9.8888e-07,0.64,0.52,0
0.032111,0.00075344,0.025771,0.00062687,0.0026398,0.002287,0,0,0.033925,-0.0032713,0,0.0080929,0,0,0,0.026037,0.00036049,0.0026398,5.9999,0.0096791,0.024626,9.5705e-07,0.66,0.52,0
0.032781,0.00070225,0.0285,-0.00041847,0.0028081,0.0032375,0,0,0.039784,-0.0049039,0,0.010904,0,0,0,0.02888,-0.0007986,0.0028081,6.5933,0.010297,0.02805,1.1718e-06,0.68,0.52,0
0.033829,0.00061329,0.025632,-0.000946,0.0024686,0.0034467,0,0,0.050959,-0.0075121,0,0.015165,0,0,0,0.026072,-0.0013857,0.0024686,7.27,0.0090515,0.025747,8.1083e-07,0.7,0.52,0
0.034819,0.00050101,0.025457,-0.00076407,0.0024693,0.0024396,0,0,0.050573,-0.0071134,0,0.010734,0,0,0,0.025682,-0.00098912,0.0024693,5.2705,0.0090541,0.025121,7.6246e-07,0.72,0.52,0
0.035852,0.00039812,0.026127,-0.00035068,0.0025776,0.0021419,0,0,0.051808,-0.0064422,0,0.0094244,0,0,0,0.026299,-0.00052283,0.0025776,4.5952,0.0094511,0.025413,8.0084e-07,0.74,0.52,0
0.036891,0.00029476,0.026412,-9.457e-05,0.0026317,0.0018195,0,0,0.052316,-0.0059978,0,0.0080057,0,0,0,0.026536,-0.00021888,0.0026317,3.9085,0.0096496,0.02545,8.1088e-07,0.76,0.52,0
0.037944,0.00020457,0.026721,0.00014233,0.0026863,0.0016663,0,0,0.052876,-0.0055968,0,0.0073318,0,0,0,0.026825,3.8272e-05,0.0026863,3.5735,0.0098499,0.025566,8.2727e-07,0.78,0.52,0
0.039006,0.00012952,0.026976,0.00023429,0.002721,0.0015511,0,0,0.053361,-0.0054708,0,0.006825,0,0,0,0.027066,0.00014462,0.002721,3.3086,0.0099771,0.02573,8.4534e-07,0.8,0.52,0
0.040079,7.1503e-05,0.027219,0.00022951,0.0027448,0.0014508,0,0,0.053843,-0.0055337,0,0.0063834,0,0,0,0.027297,0.00015175,0.0027448,3.0681,0.010064,0.025946,8.6692e-07,0.82,0.52,0
0.04116,2.8398e-05,0.027431,0.00016074,0.0027592,0.0013317,0,0,0.054278,-0.0057166,0,0.0058595,0,0,0,0.027496,9.5867e-05,0.0027592,2.7891,0.010117,0.02617,8.8849e-07,0.84,0.52,0
0.04225,-2.6318e-06,0.027609,6.8843e-05,0.0027678,0.0011925,0,0,0.054651,-0.0059377,0,0.005247,0,0,0,0.027661,1.7305e-05,0.0027678,2.4747,0.010149,0.026376,9.0798e-07,0.86,0.52,0
0.043346,-2.4503e-05,0.027751,-2.632e-05,0.0027725,0.0010379,0,0,0.054954,-0.0061574,0,0.0045669,0,0,0,0.02779,-6.5049e-05,0.0027725,2.1369,0.010166,0.02655,9.2433e-07,0.88,0.52,0
0.044448,-3.958e-05,0.027861,-0.00011474,0.0027747,0.00087363,0,0,0.055191,-0.0063567,0,0.003844,0,0,0,0.027889,-0.000142,0.0027747,1.7869,0.010174,0.026692,9.3752e-07,0.9,0.52,0
0.045554,-4.9702e-05,0.027945,-0.000191,0.0027754,0.00070336,0,0,0.055372,-0.006526,0,0.0030948,0,0,0,0.027962,-0.00020858,0.0027754,1.4311,0.010176,0.026804,9.4781e-07,0.92,0.52,0
0.046663,-5.6262e-05,0.028,-0.00021533,0.0027784,0.00052105,0,0,0.055487,-0.0065863,0,0.0022926,0,0,0,0.028009,-0.00022495,0.0027784,1.0576,0.010188,0.026859,9.5331e-07,0.94,0.52,0
0.047774,-6.0272e-05,0.028056,-0.00025804,0.0027798,0.00035516,0,0,0.055608,-0.0066832,0,0.0015627,0,0,0,0.02806,-0.00026249,0.0027798,0.71854,0.010193,0.026931,9.6016e-07,0.96,0.52,0
0.048887,-6.2414e-05,0.028071,-0.00028594,0.0027785,0.00017329,0,0,0.055643,-0.0067417,0,0.00076249,0,0,0,0.028072,-0.000287,0.0027785,0.35013,0.010188,0.026957,9.6237e-07,0.98,0.52,0
0.05,-6.3086e-05,0.02809,-0.00021928,0.0027871,-7.6286e-06,0,0,0.055666,-0.0066139,0,-3.3566e-05,0,0,0,0.02809,-0.00021928,0.0027871,-0.01544,0.010219,0.026932,9.6127e-07,1,0.52,0
0,0,0.026582,0.0029536,0.0029536,-0.00051921,0,0,0.051983,-2.7105e-20,0,-0.0022846,0,0,0,0.026593,0.0029422,0.0029536,-1.2582,0.01083,0.023646,6.7901e-07,0,0.54,0
0.0010397,-4.5691e-05,0.026597,0.0027566,0.0029354,-0.00055907,0,0,0.052056,-0.00039333,0,-0.0024599,0,0,0,0.02661,0.0027435,0.0029354,-1.3426,0.010763,0.023771,6.8976e-07,0.02,0.54,0
0.0020837,-8.5786e-05,0.026724,0.0025759,0.0029299,-0.00054499,0,0,0.052346,-0.0007789,0,-0.0023979,0,0,0,0.026736,0.0025636,0.0029299,-1.2922,0.010743,0.023991,7.0866e-07,0.04,0.54,0
0.003132,-0.00012103,0.026791,0.0023877,0.0029179,-0.00057136,0,0,0.052521,-0.0011663,0,-0.002514,0,0,0,0.026804,0.0023744,0.0029179,-1.3405,0.010699,0.024163,7.2332e-07,0.06,0.54,0
0.0041845,-0.000152,0.026874,0.0022138,0.0029087,-0.00059892,0,0,0.052723,-0.0015288,0,-0.0026353,0,0,0,0.026888,0.0021993,0.0029087,-1.3905,0.010665,0.024342,7.3865e-07,0.08,0.54,0
0.005241,-0.00017915,0.026951,0.0020488,0.0029,-0.00063564,0,0,0.052912,-0.0018727,0,-0.0027968,0,0,0,0.026967,0.0020326,0.0029,-1.4612,0.010633,0.024512,7.5326e-07,0.1,0.54,0
0.006301,-0.00020279,0.027022,0.001894,0.0028916,-0.00068072,0,0,0.053087,-0.0021946,0,-0.0029951,0,0,0,0.02704,0.0018756,0.0028916,-1.5506,0.010603,0.024672,7.6696e-07,0.12,0.54,0
0.0073644,-0.00022312,0.027085,0.0017511,0.0028836,-0.00073357,0,0,0.053243,-0.0024915,0,-0.0032277,0,0,0,0.027106,0.0017299,0.0028836,-1.6572,0.010573,0.02482,7.7952e-07,0.14,0.54,0
0.0084307,-0.00024024,0.027138,0.0016214,0.0028759,-0.00079374,0,0,0.053377,-0.0027601,0,-0.0034925,0,0,0,0.027163,0.0015967,0.0028759,-1.78,0.010545,0.024951,7.9073e-07,0.16,0.54,0
0.0094995,-0.00025413,0.02718,0.0015061,0.0028686,-0.00086079,0,0,0.053485,-0.0029974,0,-0.0037875,0,0,0,0.027209,0.0014773,0.0028686,-1.9181,0.010518,0.025065,8.0035e-07,0.18,0.54,0
0.01057,-0.00026465,0.027208,0.0014067,0.0028614,-0.0009342,0,0,0.053562,-0.0032005,0,-0.0041105,0,0,0,0.027241,0.0013729,0.0028614,-2.0709,0.010492,0.025157,8.081e-07,0.2,0.54,0
0.011642,-0.00027151,0.027219,0.0013239,0.0028543,-0.0010133,0,0,0.053602,-0.0033668,0,-0.0044584,0,0,0,0.027259,0.0012844,0.0028543,-2.2374,0.010466,0.025226,8.1369e-07,0.22,0.54,0
0.012714,-0.00027427,0.027211,0.0012586,0.0028469,-0.0010969,0,0,0.053601,-0.0034943,0,-0.0048266,0,0,0,0.027257,0.0012124,0.0028469,-2.416,0.010439,0.025267,8.1682e-07,0.24,0.54,0
0.013786,-0.00027227,0.027179,0.0012108,0.002839,-0.0011836,0,0,0.053549,-0.003582,0,-0.005208,0,0,0,0.027233,0.001157,0.002839,-2.6043,0.01041,0.025277,8.1712e-07,0.26,0.54,0
0.014856,-0.00026462,0.027121,0.0011797,0.0028301,-0.001271,0,0,0.05344,-0.0036307,0,-0.0055922,0,0,0,0.027183,0.0011176,0.0028301,-2.7982,0.010377,0.025253,8.1426e-07,0.28,0.54,0
0.015924,-0.00025012,0.02703,0.0011628,0.0028193,-0.0013555,0,0,0.053265,-0.0036445,0,-0.0059642,0,0,0,0.027101,0.0010919,0.0028193,-2.9914,0.010337,0.02519,8.0795e-07,0.3,0.54,0
0.016987,-0.00022723,0.026905,0.0011545,0.0028059,-0.0014327,0,0,0.053017,-0.003633,0,-0.0063038,0,0,0,0.026984,0.0010751,0.0028059,-3.1748,0.010288,0.025088,7.9803e-07,0.32,0.54,0
0.018044,-0.00019406,0.026741,0.0011446,0.0027885,-0.0014977,0,0,0.052695,-0.0036168,0,-0.0065901,0,0,0,0.026828,0.0010572,0.0027885,-3.3374,0.010225,0.024951,7.848e-07,0.34,0.54,0
0.019095,-0.00014855,0.02654,0.0011143,0.0027654,-0.0015483,0,0,0.052304,-0.0036326,0,-0.0068125,0,0,0,0.026634,0.0010203,0.0027654,-3.4719,0.01014,0.024787,7.6912e-07,0.36,0.54,0
0.020136,-8.8822e-05,0.026305,0.0010405,0.0027346,-0.0015911,0,0,0.051855,-0.0037269,0,-0.0070011,0,0,0,0.026405,0.00094071,0.0027346,-3.5896,0.010027,0.024616,7.5241e-07,0.38,0.54,0
0.021169,-1.4166e-05,0.026029,0.00089795,0.0026927,-0.0016416,0,0,0.05134,-0.0039485,0,-0.0072231,0,0,0,0.026136,0.00079117,0.0026927,-3.7216,0.0098733,0.02445,7.3536e-07,0.4,0.54,0
0.02219,7.479e-05,0.025707,0.00069546,0.0026403,-0.001737,0,0,0.050748,-0.0042786,0,-0.007643,0,0,0,0.025827,0.0005754,0.0026403,-3.9538,0.009681,0.024286,7.1773e-07,0.42,0.54,0
0.023199,0.00017422,0.025262,0.00042619,0.0025688,-0.0018771,0,0,0.049925,-0.0047138,0,-0.0082594,0,0,0,0.025403,0.00028511,0.0025688,-4.298,0.009419,0.024057,6.9343e-07,0.44,0.54,0
0.024187,0.00028252,0.024722,0.00022283,0.0024945,-0.0021554,0,0,0.0489,-0.0049976,0,-0.0094836,0,0,0,0.02491,3.4648e-05,0.0024945,-4.9897,0.0091463,0.023741,6.6245e-07,0.46,0.54,0
0.025155,0.00038853,0.023521,-0.00010578,0.0023415,-0.00232,0,0,0.046595,-0.0053841,0,-0.010208,0,0,0,0.023747,-0.00033144,0.0023415,-5.5555,0.0085856,0.022859,5.853e-07,0.48,0.54,0
0.026051,0.00050905,0.022273,-0.00015607,0.0022117,-0.0030606,0,0,0.044135,-0.0052091,0,-0.013467,0,0,0,0.022683,-0.00056622,0.0022117,-7.6326,0.0081095,0.021992,5.1704e-07,0.5,0.54,0
0.02692,0.00060837,0.021084,-1.4215e-05,0.002107,-0.0022299,0,0,0.041749,-0.0046666,0,-0.0098114,0,0,0,0.021317,-0.00024732,0.002107,-5.9678,0.0077255,0.020489,4.2215e-07,0.52,0.54,0
0.027721,0.00065148,0.019956,0.00028637,0.0020243,-0.0016178,0,0,0.039451,-0.0038234,0,-0.0071185,0,0,0,0.020089,0.00015419,0.0020243,-4.6707,0.0074224,0.019068,3.4457e-07,0.54,0.54,0
0.028498,0.00067722,0.019579,0.00040284,0.0019982,-0.00095198,0,0,0.038678,-0.0035098,0,-0.0041887,0,0,0,0.019627,0.0003557,0.0019982,-2.835,0.0073268,0.018504,3.1679e-07,0.56,0.54,0
0.029268,0.00069367,0.019465,0.00043069,0.0019895,-0.00033885,0,0,0.038446,-0.0034295,0,-0.001491,0,0,0,0.019471,0.00042466,0.0019895,-1.0196,0.007295,0.018314,3.0772e-07,0.58,0.54,0
0.030036,0.0007026,0.019463,0.00039237,0.0019855,0.00025183,0,0,0.03845,-0.003505,0,0.001108,0,0,0,0.019466,0.00038904,0.0019855,0.75641,0.0072803,0.018331,3.0829e-07,0.6,0.54,0
0.030806,0.00070391,0.019575,0.00028641,0.0019861,0.00086338,0,0,0.038695,-0.0037393,0,0.0037989,0,0,0,0.019613,0.00024784,0.0019861,2.5579,0.0072824,0.018558,3.1854e-07,0.62,0.54,0
0.031584,0.00069554,0.019953,8.7548e-05,0.002004,0.0015246,0,0,0.039487,-0.0042163,0,0.0067083,0,0,0,0.020069,-2.8781e-05,0.002004,4.3632,0.0073481,0.019162,3.4772e-07,0.64,0.54,0
0.032385,0.00066886,0.021088,-0.00030639,0.0020782,0.0021233,0,0,0.041823,-0.0052461,0,0.0093426,0,0,0,0.021297,-0.00051509,0.0020782,5.6133,0.0076201,0.020638,4.2754e-07,0.66,0.54,0
0.033257,0.00058359,0.022287,-0.00053652,0.002175,0.0029308,0,0,0.044246,-0.0059654,0,0.012895,0,0,0,0.022657,-0.00090685,0.002175,7.2017,0.0079752,0.022184,5.2444e-07,0.68,0.54,0
0.034155,0.000474,0.023544,-0.00052769,0.0023017,0.0021631,0,0,0.046734,-0.0062246,0,0.0095176,0,0,0,0.023737,-0.00072052,0.0023017,5.0941,0.0084395,0.023096,5.9634e-07,0.7,0.54,0
0.035126,0.0003768,0.024757,-0.00026043,0.0024496,0.0019724,0,0,0.049076,-0.0059622,0,0.0086786,0,0,0,0.024911,-0.00041498,0.0024496,4.4804,0.0089821,0.024023,6.7799e-07,0.72,0.54,0
0.036118,0.00027556,0.025313,-0.00011478,0.0025199,0.001668,0,0,0.050146,-0.0057963,0,0.007339,0,0,0,0.025423,-0.00022372,0.0025199,3.7369,0.0092395,0.02439,7.1352e-07,0.74,0.54,0
0.037132,0.00018138,0.025775,9.4478e-05,0.002587,0.0014988,0,0,0.051015,-0.0054836,0,0.0065948,0,0,0,0.025863,7.2985e-06,0.002587,3.3289,0.0094857,0.024667,7.425e-07,0.76,0.54,0
0.038159,9.6002e-05,0.026117,0.0002359,0.0026352,0.0013734,0,0,0.051659,-0.0052785,0,0.0060428,0,0,0,0.026189,0.00016323,0.0026352,3.0291,0.0096625,0.024882,7.6493e-07,0.78,0.54,0
0.039198,2.335e-05,0.026414,0.00031415,0.0026728,0.0012916,0,0,0.052231,-0.0051891,0,0.0056831,0,0,0,0.026478,0.00025039,0.0026728,2.8262,0.0098003,0.025104,7.871e-07,0.8,0.54,0
0.040248,-3.5804e-05,0.026675,0.0003188,0.0026993,0.001216,0,0,0.052745,-0.0052372,0,0.0053504,0,0,0,0.026731,0.00026281,0.0026993,2.6361,0.0098975,0.025337,8.0944e-07,0.82,0.54,0
0.041308,-8.2061e-05,0.026905,0.00027362,0.0027179,0.0011302,0,0,0.053212,-0.0053774,0,0.0049731,0,0,0,0.026953,0.00022574,0.0027179,2.4258,0.0099656,0.025573,8.3147e-07,0.84,0.54,0
0.042377,-0.00011721,0.027103,0.00020102,0.0027304,0.0010262,0,0,0.053621,-0.0055647,0,0.0045152,0,0,0,0.027142,0.00016194,0.0027304,2.1813,0.010012,0.025792,8.5185e-07,0.86,0.54,0
0.043453,-0.00014332,0.027268,0.00011953,0.0027388,0.00090485,0,0,0.053964,-0.0057623,0,0.0039814,0,0,0,0.027298,8.9405e-05,0.0027388,1.9068,0.010042,0.025986,8.6969e-07,0.88,0.54,0
0.044535,-0.00016231,0.027401,4.0376e-05,0.0027441,0.00076992,0,0,0.054244,-0.0059482,0,0.0033877,0,0,0,0.027422,1.8727e-05,0.0027441,1.6106,0.010062,0.026148,8.846e-07,0.9,0.54,0
0.045623,-0.00017579,0.027503,-2.9799e-05,0.0027474,0.0006252,0,0,0.054463,-0.0061098,0,0.0027509,0,0,0,0.027518,-4.3988e-05,0.0027474,1.3001,0.010074,0.026277,8.9654e-07,0.92,0.54,0
0.046714,-0.00018503,0.02758,-8.7079e-05,0.0027493,0.00047377,0,0,0.054628,-0.00624,0,0.0020846,0,0,0,0.027588,-9.5189e-05,0.0027493,0.98076,0.010081,0.026376,9.0561e-07,0.94,0.54,0
0.047808,-0.00019098,0.027633,-0.00012919,0.0027503,0.00031798,0,0,0.054741,-0.006335,0,0.0013991,0,0,0,0.027636,-0.00013283,0.0027503,0.65614,0.010085,0.026446,9.1196e-07,0.96,0.54,0
0.048903,-0.0001943,0.027664,-0.00015486,0.0027509,0.00015959,0,0,0.054808,-0.0063926,0,0.00070219,0,0,0,0.027664,-0.00015578,0.0027509,0.32868,0.010086,0.026487,9.1572e-07,0.98,0.54,0
0.05,-0.00019536,0.027674,-0.00016349,0.002751,-1.2093e-05,0,0,0.05483,-0.0064119,0,-5.321e-05,0,0,0,0.027674,-0.00016349,0.002751,-0.024891,0.010087,0.0265,9.1696e-07,1,0.54,0
0,0,0.026444,0.0029382,0.0029382,-0.00060629,0,0,0.051713,-1.3552e-19,0,-0.0026677,0,0,0,0.02646,0.0029226,0.0029382,-1.4765,0.010774,0.023529,6.6905e-07,0,0.56,0
0.0010343,-5.3353e-05,0.026475,0.0027552,0.002923,-0.00063485,0,0,0.051814,-0.00036932,0,-0.0027933,0,0,0,0.026492,0.0027382,0.002923,-1.532,0.010718,0.023662,6.8028e-07,0.02,0.56,0
0.0020726,-0.00010098,0.026557,0.0025798,0.0029136,-0.00063833,0,0,0.052014,-0.00073437,0,-0.0028087,0,0,0,0.026574,0.0025629,0.0029136,-1.5239,0.010683,0.023837,6.9515e-07,0.04,0.56,0
0.0031148,-0.00014355,0.026635,0.0024087,0.0029044,-0.00065215,0,0,0.052207,-0.0010905,0,-0.0028695,0,0,0,0.026653,0.0023911,0.0029044,-1.5409,0.010649,0.024009,7.097e-07,0.06,0.56,0
0.0041609,-0.00018157,0.026709,0.0022436,0.0028952,-0.00067484,0,0,0.05239,-0.0014336,0,-0.0029693,0,0,0,0.026728,0.002225,0.0028952,-1.5788,0.010616,0.024174,7.237e-07,0.08,0.56,0
0.0052104,-0.0002154,0.026777,0.0020865,0.0028863,-0.00070525,0,0,0.052559,-0.0017596,0,-0.0031031,0,0,0,0.026797,0.0020664,0.0028863,-1.6348,0.010583,0.024331,7.3692e-07,0.1,0.56,0
0.0062632,-0.00024529,0.026836,0.001939,0.0028775,-0.0007425,0,0,0.052709,-0.0020648,0,-0.003267,0,0,0,0.026859,0.0019169,0.0028775,-1.7067,0.010551,0.024475,7.4913e-07,0.12,0.56,0
0.0073188,-0.00027138,0.026887,0.0018027,0.0028689,-0.00078586,0,0,0.052839,-0.0023458,0,-0.0034578,0,0,0,0.026911,0.0017781,0.0028689,-1.7927,0.010519,0.024606,7.6008e-07,0.14,0.56,0
0.0083768,-0.0002937,0.026926,0.0016791,0.0028605,-0.00083469,0,0,0.052943,-0.0025991,0,-0.0036726,0,0,0,0.026953,0.0016515,0.0028605,-1.8915,0.010488,0.024719,7.6953e-07,0.16,0.56,0
0.0094366,-0.00031216,0.026951,0.0015695,0.0028521,-0.00088831,0,0,0.053018,-0.0028218,0,-0.0039086,0,0,0,0.026982,0.0015384,0.0028521,-2.002,0.010458,0.024813,7.7723e-07,0.18,0.56,0
0.010497,-0.00032658,0.026961,0.0014749,0.0028436,-0.00094594,0,0,0.053059,-0.0030112,0,-0.0041621,0,0,0,0.026996,0.0014398,0.0028436,-2.1227,0.010427,0.024884,7.8291e-07,0.2,0.56,0
0.011559,-0.00033661,0.026953,0.001396,0.0028349,-0.0010065,0,0,0.053059,-0.0031655,0,-0.0044287,0,0,0,0.026992,0.0013564,0.0028349,-2.2519,0.010395,0.02493,7.8631e-07,0.22,0.56,0
0.01262,-0.00034178,0.026923,0.0013332,0.0028256,-0.0010686,0,0,0.053015,-0.0032835,0,-0.0047021,0,0,0,0.026968,0.0012886,0.0028256,-2.3871,0.010361,0.024946,7.8714e-07,0.24,0.56,0
0.01368,-0.00034144,0.02687,0.0012858,0.0028155,-0.0011303,0,0,0.052919,-0.0033656,0,-0.0049734,0,0,0,0.02692,0.0012359,0.0028155,-2.5248,0.010324,0.024931,7.8515e-07,0.26,0.56,0
0.014737,-0.00033471,0.026789,0.0012521,0.0028041,-0.0011889,0,0,0.052767,-0.0034144,0,-0.0052312,0,0,0,0.026844,0.0011969,0.0028041,-2.6599,0.010282,0.024883,7.8012e-07,0.28,0.56,0
0.01579,-0.00032051,0.026678,0.0012288,0.0027906,-0.0012411,0,0,0.052551,-0.0034361,0,-0.0054608,0,0,0,0.026738,0.0011684,0.0027906,-2.7854,0.010232,0.024798,7.7194e-07,0.3,0.56,0
0.016839,-0.00029754,0.026534,0.0012094,0.0027743,-0.0012832,0,0,0.052271,-0.0034428,0,-0.0056462,0,0,0,0.026599,0.0011446,0.0027743,-2.8934,0.010173,0.02468,7.6071e-07,0.32,0.56,0
0.017881,-0.00026431,0.026357,0.0011842,0.0027541,-0.0013123,0,0,0.051926,-0.0034538,0,-0.0057743,0,0,0,0.026425,0.001116,0.0027541,-2.9763,0.010098,0.024531,7.4678e-07,0.34,0.56,0
0.018916,-0.00021938,0.026146,0.0011393,0.0027285,-0.0013285,0,0,0.051519,-0.0034963,0,-0.0058453,0,0,0,0.026217,0.0010689,0.0027285,-3.0324,0.010005,0.02436,7.3083e-07,0.36,0.56,0
0.019942,-0.00016167,0.0259,0.0010593,0.002696,-0.0013364,0,0,0.05105,-0.0036008,0,-0.00588,0,0,0,0.025972,0.00098757,0.002696,-3.0705,0.0098852,0.024176,7.135e-07,0.38,0.56,0
0.020958,-9.0805e-05,0.025615,0.00093497,0.002655,-0.0013478,0,0,0.050512,-0.0037841,0,-0.0059302,0,0,0,0.025689,0.00086159,0.002655,-3.1166,0.0097351,0.023981,6.9494e-07,0.4,0.56,0
0.021962,-7.7117e-06,0.02527,0.00076368,0.0026033,-0.0013722,0,0,0.049866,-0.0040472,0,-0.0060379,0,0,0,0.025346,0.00068707,0.0026033,-3.1951,0.0095455,0.023759,6.7374e-07,0.42,0.56,0
0.022952,8.6016e-05,0.024845,0.00057187,0.0025417,-0.001425,0,0,0.049067,-0.0043336,0,-0.0062698,0,0,0,0.024928,0.0004885,0.0025417,-3.3483,0.0093194,0.023481,6.4777e-07,0.44,0.56,0
0.023925,0.00018695,0.024258,0.00034801,0.0024606,-0.0014658,0,0,0.047955,-0.0046477,0,-0.0064495,0,0,0,0.024348,0.00025848,0.0024606,-3.495,0.0090223,0.023067,6.1105e-07,0.46,0.56,0
0.024871,0.00029534,0.023608,0.00019714,0.0023805,-0.0015206,0,0,0.046701,-0.0048035,0,-0.0066906,0,0,0,0.023707,9.8783e-05,0.0023805,-3.7007,0.0087286,0.022554,5.6893e-07,0.48,0.56,0
0.025793,0.00040342,0.022897,-0.00018138,0.0022715,-0.0014023,0,0,0.045375,-0.0053964,0,-0.00617,0,0,0,0.022981,-0.00026628,0.0022715,-3.4644,0.0083289,0.022089,5.2895e-07,0.5,0.56,0
0.026686,0.00049439,0.022185,-0.00045836,0.0021727,-0.0013831,0,0,0.044027,-0.0057883,0,-0.0060855,0,0,0,0.022269,-0.00054252,0.0021727,-3.4824,0.0079665,0.021583,4.889e-07,0.52,0.56,0
0.027554,0.00055603,0.021579,-0.00027883,0.0021301,-0.0011235,0,0,0.042788,-0.0052995,0,-0.0049434,0,0,0,0.021637,-0.00033643,0.0021301,-2.9347,0.0078102,0.02085,4.4362e-07,0.54,0.56,0
0.028397,0.00059079,0.021107,-0.00014256,0.0020965,-0.00073385,0,0,0.041823,-0.0049258,0,-0.0032289,0,0,0,0.021132,-0.00016787,0.0020965,-1.9755,0.007687,0.020263,4.0938e-07,0.56,0.56,0
0.029227,0.00061012,0.020898,-9.777e-05,0.00208,-0.00027617,0,0,0.0414,-0.0047912,0,-0.0012151,0,0,0,0.020902,-0.0001014,0.00208,-0.75347,0.0076267,0.020002,3.9455e-07,0.58,0.56,0
0.030053,0.00061755,0.020898,-0.00013508,0.0020763,0.00019126,0,0,0.041407,-0.004865,0,0.00084152,0,0,0,0.0209,-0.00013682,0.0020763,0.52094,0.007613,0.020022,3.9529e-07,0.6,0.56,0
0.030883,0.00061292,0.021108,-0.00025546,0.0020852,0.00064559,0,0,0.041849,-0.0051495,0,0.0028406,0,0,0,0.021127,-0.00027496,0.0020852,1.7294,0.0076458,0.020325,4.1169e-07,0.62,0.56,0
0.031727,0.00059229,0.021584,-0.00047043,0.0021113,0.0010268,0,0,0.042839,-0.0056798,0,0.0045181,0,0,0,0.021631,-0.00051813,0.0021113,2.66,0.0077415,0.020959,4.4786e-07,0.64,0.56,0
0.032597,0.00054359,0.022195,-0.00073091,0.0021464,0.0012699,0,0,0.044108,-0.0063302,0,0.0055876,0,0,0,0.022266,-0.00080103,0.0021464,3.1608,0.0078703,0.021743,4.954e-07,0.66,0.56,0
0.033491,0.00046364,0.022913,-0.00052554,0.0022387,0.0012636,0,0,0.045483,-0.0060814,0,0.00556,0,0,0,0.022981,-0.00059347,0.0022387,3.0771,0.0082087,0.022294,5.3823e-07,0.68,0.56,0
0.034416,0.00036431,0.02363,-0.00020366,0.0023426,0.0013539,0,0,0.046832,-0.0056019,0,0.0059573,0,0,0,0.023707,-0.00028033,0.0023426,3.241,0.0085897,0.022789,5.808e-07,0.7,0.56,0
0.035365,0.00026252,0.024286,-0.00010753,0.0024179,0.001272,0,0,0.04811,-0.0055558,0,0.0055968,0,0,0,0.024352,-0.00017367,0.0024179,2.9769,0.0088655,0.023338,6.2581e-07,0.72,0.56,0
0.036341,0.00016627,0.024881,5.9376e-05,0.0024941,0.0012025,0,0,0.049252,-0.0053563,0,0.0052909,0,0,0,0.024939,1.2584e-06,0.0024941,2.767,0.0091449,0.02379,6.6597e-07,0.74,0.56,0
0.037335,7.5419e-05,0.025317,0.00019344,0.0025511,0.0011193,0,0,0.050085,-0.0051868,0,0.0049251,0,0,0,0.025367,0.00014367,0.0025511,2.546,0.0093539,0.02411,6.9565e-07,0.76,0.56,0
0.038344,-6.5764e-06,0.025676,0.00030489,0.0025981,0.0010624,0,0,0.050771,-0.005045,0,0.0046746,0,0,0,0.02572,0.00026048,0.0025981,2.3937,0.0095262,0.024375,7.2079e-07,0.78,0.56,0
0.039366,-7.8039e-05,0.025977,0.00036637,0.0026343,0.0010167,0,0,0.051353,-0.0049895,0,0.0044733,0,0,0,0.026017,0.00032607,0.0026343,2.2698,0.0096591,0.024618,7.436e-07,0.8,0.56,0
0.040398,-0.00013798,0.026241,0.00037934,0.002662,0.00097227,0,0,0.051873,-0.0050218,0,0.004278,0,0,0,0.026277,0.00034284,0.002662,2.15,0.0097607,0.024856,7.6561e-07,0.82,0.56,0
0.04144,-0.0001867,0.026473,0.00035187,0.0026825,0.00091683,0,0,0.052339,-0.0051274,0,0.004034,0,0,0,0.026505,0.00031973,0.0026825,2.0077,0.0098358,0.025088,7.8677e-07,0.84,0.56,0
0.042492,-0.00022522,0.026676,0.00029887,0.0026974,0.00084476,0,0,0.052752,-0.0052768,0,0.0037169,0,0,0,0.026703,0.00027184,0.0026974,1.8325,0.0098906,0.025305,8.0652e-07,0.86,0.56,0
0.043551,-0.00025499,0.026847,0.00023389,0.0027081,0.00075516,0,0,0.053106,-0.0054433,0,0.0033227,0,0,0,0.026869,0.00021248,0.0027081,1.624,0.0099298,0.0255,8.2419e-07,0.88,0.56,0
0.044616,-0.00027751,0.026989,0.00016738,0.0027156,0.00065021,0,0,0.053401,-0.0056061,0,0.0028609,0,0,0,0.027005,0.00015163,0.0027156,1.3879,0.0099573,0.025667,8.3933e-07,0.9,0.56,0
0.045687,-0.00029409,0.027101,0.00010638,0.0027208,0.00053309,0,0,0.053637,-0.0057517,0,0.0023456,0,0,0,0.027112,9.5861e-05,0.0027208,1.1309,0.0099762,0.025804,8.5172e-07,0.92,0.56,0
0.046761,-0.00030586,0.027186,5.5458e-05,0.0027242,0.00040695,0,0,0.053817,-0.0058712,0,0.0017906,0,0,0,0.027193,4.9355e-05,0.0027242,0.85914,0.0099887,0.02591,8.613e-07,0.94,0.56,0
0.047839,-0.00031367,0.027246,1.7449e-05,0.0027263,0.00027454,0,0,0.053943,-0.0059596,0,0.001208,0,0,0,0.027249,1.4681e-05,0.0027263,0.57762,0.0099966,0.025985,8.6809e-07,0.96,0.56,0
0.048919,-0.00031812,0.027281,-5.9459e-06,0.0027275,0.00013821,0,0,0.054018,-0.0060136,0,0.00060811,0,0,0,0.027282,-6.6459e-06,0.0027275,0.29019,0.010001,0.026029,8.7214e-07,0.98,0.56,0
0.05,-0.00031956,0.027293,-1.3836e-05,0.0027279,-1.6403e-05,0,0,0.054042,-0.0060318,0,-7.2171e-05,0,0,0,0.027293,-1.3846e-05,0.0027279,-0.034417,0.010002,0.026044,8.7349e-07,1,0.56,0
0,0,0.026307,0.002923,0.002923,-0.00068709,0,0,0.051445,9.4868e-20,0,-0.0030232,0,0,0,0.026327,0.0029028,0.002923,-1.6816,0.010718,0.023414,6.5929e-07,0,0.58,0
0.0010289,-6.0464e-05,0.026336,0.0027527,0.0029088,-0.00071454,0,0,0.051539,-0.00034359,0,-0.003144,0,0,0,0.026357,0.002731,0.0029088,-1.7339,0.010666,0.023538,6.6964e-07,0.02,0.58,0
0.0020616,-0.00011516,0.026411,0.0025876,0.0028998,-0.00071557,0,0,0.051724,-0.0006869,0,-0.0031485,0,0,0,0.026432,0.0025661,0.0028998,-1.7189,0.010633,0.023701,6.8333e-07,0.04,0.58,0
0.0030979,-0.00016465,0.026482,0.0024251,0.0028907,-0.00072529,0,0,0.051901,-0.0010244,0,-0.0031913,0,0,0,0.026504,0.0024032,0.0028907,-1.7253,0.010599,0.023861,6.9674e-07,0.06,0.58,0
0.0041376,-0.00020935,0.026549,0.0022674,0.0028816,-0.00074226,0,0,0.052067,-0.0013513,0,-0.0032659,0,0,0,0.026571,0.0022447,0.0028816,-1.7493,0.010566,0.024014,7.0959e-07,0.08,0.58,0
0.0051805,-0.00024953,0.026608,0.0021166,0.0028724,-0.00076531,0,0,0.052218,-0.0016628,0,-0.0033674,0,0,0,0.026632,0.0020927,0.0028724,-1.7881,0.010532,0.024159,7.2163e-07,0.1,0.58,0
0.0062263,-0.00028538,0.026658,0.0019747,0.0028633,-0.0007935,0,0,0.052349,-0.001955,0,-0.0034914,0,0,0,0.026684,0.0019492,0.0028633,-1.8393,0.010499,0.024291,7.3259e-07,0.12,0.58,0
0.0072745,-0.00031695,0.026698,0.0018432,0.0028542,-0.00082599,0,0,0.052457,-0.0022241,0,-0.0036344,0,0,0,0.026726,0.0018158,0.0028542,-1.9013,0.010465,0.024407,7.4222e-07,0.14,0.58,0
0.0083246,-0.0003442,0.026726,0.0017238,0.002845,-0.00086201,0,0,0.052538,-0.0024666,0,-0.0037928,0,0,0,0.026756,0.0016941,0.002845,-1.9723,0.010431,0.024506,7.5026e-07,0.16,0.58,0
0.009376,-0.000367,0.026739,0.0016175,0.0028356,-0.00090074,0,0,0.052587,-0.0026798,0,-0.0039633,0,0,0,0.026771,0.0015853,0.0028356,-2.0509,0.010397,0.024584,7.5648e-07,0.18,0.58,0
0.010428,-0.0003851,0.026735,0.0015254,0.002826,-0.00094121,0,0,0.0526,-0.0028614,0,-0.0041413,0,0,0,0.02677,0.0014903,0.002826,-2.1352,0.010362,0.024639,7.6063e-07,0.2,0.58,0
0.01148,-0.00039813,0.026712,0.0014477,0.002816,-0.00098218,0,0,0.052572,-0.0030102,0,-0.0043216,0,0,0,0.02675,0.0014096,0.002816,-2.2229,0.010325,0.024668,7.6248e-07,0.22,0.58,0
0.012531,-0.00040561,0.026668,0.0013843,0.0028053,-0.001022,0,0,0.052499,-0.0031261,0,-0.004497,0,0,0,0.02671,0.001343,0.0028053,-2.311,0.010286,0.024668,7.6182e-07,0.24,0.58,0
0.01358,-0.00040689,0.026601,0.001334,0.0027935,-0.0010587,0,0,0.052376,-0.0032108,0,-0.0046584,0,0,0,0.026645,0.0012898,0.0027935,-2.3952,0.010243,0.024638,7.5849e-07,0.26,0.58,0
0.014626,-0.00040119,0.026507,0.0012946,0.0027802,-0.0010897,0,0,0.0522,-0.0032682,0,-0.0047948,0,0,0,0.026555,0.0012476,0.0027802,-2.4703,0.010194,0.024576,7.524e-07,0.28,0.58,0
0.015668,-0.00038756,0.026387,0.0012621,0.0027649,-0.0011122,0,0,0.051968,-0.0033061,0,-0.0048935,0,0,0,0.026436,0.0012129,0.0027649,-2.5297,0.010138,0.024484,7.436e-07,0.3,0.58,0
0.016705,-0.00036494,0.026237,0.0012302,0.0027467,-0.0011233,0,0,0.051679,-0.0033364,0,-0.0049425,0,0,0,0.026288,0.0011798,0.0027467,-2.5668,0.010071,0.024362,7.3227e-07,0.32,0.58,0
0.017735,-0.00033221,0.026059,0.0011904,0.0027249,-0.0011213,0,0,0.051335,-0.003376,0,-0.0049338,0,0,0,0.02611,0.00114,0.0027249,-2.5765,0.0099915,0.024216,7.1881e-07,0.34,0.58,0
0.018758,-0.0002884,0.025852,0.0011324,0.0026984,-0.0011065,0,0,0.050938,-0.0034453,0,-0.0048686,0,0,0,0.025901,0.001083,0.0026984,-2.5579,0.0098943,0.024051,7.0372e-07,0.36,0.58,0
0.019773,-0.00023285,0.025615,0.0010463,0.0026661,-0.001082,0,0,0.050488,-0.0035636,0,-0.0047609,0,0,0,0.025663,0.00099873,0.0026661,-2.5169,0.0097758,0.023874,6.8738e-07,0.38,0.58,0
0.020778,-0.00016553,0.025343,0.00092513,0.0026269,-0.0010526,0,0,0.049976,-0.0037438,0,-0.0046315,0,0,0,0.025389,0.00087984,0.0026269,-2.4638,0.0096318,0.023684,6.6979e-07,0.4,0.58,0
0.021772,-8.7099e-05,0.02503,0.00076978,0.00258,-0.0010234,0,0,0.04939,-0.0039824,0,-0.0045029,0,0,0,0.025073,0.00072669,0.00258,-2.4112,0.0094599,0.023475,6.5045e-07,0.42,0.58,0
0.022753,8.7923e-07,0.024661,0.00058082,0.0025242,-0.0009892,0,0,0.048701,-0.0042754,0,-0.0043525,0,0,0,0.024701,0.00054025,0.0025242,-2.3484,0.0092553,0.023233,6.2825e-07,0.44,0.58,0
0.02372,9.6605e-05,0.024251,0.00037242,0.0024623,-0.00094639,0,0,0.047934,-0.0045977,0,-0.0041641,0,0,0,0.024288,0.00033497,0.0024623,-2.2661,0.0090284,0.022963,6.0395e-07,0.46,0.58,0
0.024671,0.00019639,0.023814,9.3353e-05,0.0023907,-0.00087225,0,0,0.047131,-0.0050542,0,-0.0038379,0,0,0,0.023846,6.1322e-05,0.0023907,-2.1031,0.008766,0.02271,5.8025e-07,0.48,0.58,0
0.025605,0.00029319,0.023377,-0.00023056,0.0023146,-0.00082104,0,0,0.046336,-0.0055994,0,-0.0036126,0,0,0,0.023405,-0.00025908,0.0023146,-1.9895,0.0084869,0.022488,5.5838e-07,0.5,0.58,0
0.026524,0.00037684,0.022949,-0.00047308,0.0022476,-0.00075955,0,0,0.045542,-0.0059854,0,-0.003342,0,0,0,0.022973,-0.00049769,0.0022476,-1.8555,0.008241,0.022226,5.35e-07,0.52,0.58,0
0.027427,0.00043949,0.022551,-0.00054669,0.0022004,-0.00066564,0,0,0.04477,-0.0060435,0,-0.0029288,0,0,0,0.02257,-0.00056586,0.0022004,-1.6494,0.0080681,0.021884,5.0939e-07,0.54,0.58,0
0.028315,0.00048018,0.02224,-0.00050663,0.0021734,-0.00046552,0,0,0.044147,-0.005896,0,-0.0020483,0,0,0,0.02225,-0.00051615,0.0021734,-1.1719,0.0079691,0.021548,4.8695e-07,0.56,0.58,0
0.029193,0.00050202,0.022066,-0.00048911,0.0021577,-0.00019161,0,0,0.043798,-0.0058229,0,-0.00084309,0,0,0,0.022068,-0.00049073,0.0021577,-0.4867,0.0079115,0.021358,4.7452e-07,0.58,0.58,0
0.030067,0.000508,0.022066,-0.00052463,0.0021542,0.00010679,0,0,0.043807,-0.0058934,0,0.00046988,0,0,0,0.022067,-0.00052514,0.0021542,0.27084,0.0078986,0.021379,4.7537e-07,0.6,0.58,0
0.030945,0.00049793,0.022242,-0.00061369,0.0021629,0.0003758,0,0,0.044175,-0.0061084,0,0.0016535,0,0,0,0.022249,-0.00061987,0.0021629,0.94172,0.0079305,0.021612,4.8959e-07,0.62,0.58,0
0.031834,0.00046835,0.022555,-0.00072605,0.0021829,0.00056507,0,0,0.044819,-0.0063997,0,0.0024863,0,0,0,0.022569,-0.00073976,0.0021829,1.3896,0.008004,0.021993,5.1401e-07,0.64,0.58,0
0.032738,0.00041566,0.022957,-0.00072312,0.0022233,0.00064105,0,0,0.045613,-0.0064822,0,0.0028206,0,0,0,0.022974,-0.00074046,0.0022233,1.5496,0.0081523,0.02238,5.4184e-07,0.66,0.58,0
0.033658,0.00034033,0.023388,-0.00054551,0.0022842,0.00067843,0,0,0.046427,-0.0062254,0,0.0029851,0,0,0,0.023407,-0.00056473,0.0022842,1.6224,0.0083754,0.022682,5.6756e-07,0.68,0.58,0
0.034595,0.00024993,0.023827,-0.00027965,0.0023548,0.00070198,0,0,0.04724,-0.0057957,0,0.0030887,0,0,0,0.023848,-0.00030008,0.0023548,1.6665,0.0086341,0.022936,5.9179e-07,0.7,0.58,0
0.035548,0.00015456,0.024266,-5.5084e-05,0.0024211,0.00074699,0,0,0.048059,-0.0054477,0,0.0032868,0,0,0,0.024289,-7.8005e-05,0.0024211,1.7575,0.0088774,0.023219,6.1785e-07,0.72,0.58,0
0.036517,6.1309e-05,0.02468,9.8819e-05,0.0024779,0.00075939,0,0,0.048845,-0.005234,0,0.0033413,0,0,0,0.024703,7.5381e-05,0.0024779,1.7678,0.0090856,0.023519,6.4472e-07,0.74,0.58,0
0.037502,-2.6088e-05,0.025055,0.00023197,0.0025287,0.00076122,0,0,0.049557,-0.0050527,0,0.0033494,0,0,0,0.025078,0.00020865,0.0025287,1.7549,0.0092718,0.023794,6.6977e-07,0.76,0.58,0
0.038499,-0.0001058,0.025375,0.00032953,0.0025705,0.00075597,0,0,0.050171,-0.0049301,0,0.0033263,0,0,0,0.025398,0.00030674,0.0025705,1.7273,0.0094252,0.02404,6.9224e-07,0.78,0.58,0
0.039509,-0.00017623,0.025656,0.00038998,0.0026047,0.00074857,0,0,0.050714,-0.0048723,0,0.0032937,0,0,0,0.025679,0.00036783,0.0026047,1.6955,0.0095504,0.02427,7.1323e-07,0.8,0.58,0
0.040528,-0.00023668,0.025905,0.00041154,0.0026317,0.00073371,0,0,0.051202,-0.0048843,0,0.0032283,0,0,0,0.025926,0.00039044,0.0026317,1.6471,0.0096495,0.024492,7.3332e-07,0.82,0.58,0
0.041557,-0.00028716,0.026126,0.00040038,0.0026527,0.00070623,0,0,0.051642,-0.0049551,0,0.0031074,0,0,0,0.026146,0.00038101,0.0026527,1.5713,0.0097265,0.024707,7.5261e-07,0.84,0.58,0
0.042594,-0.00032829,0.026321,0.00036582,0.0026687,0.00066243,0,0,0.052035,-0.0050663,0,0.0029147,0,0,0,0.026338,0.00034893,0.0026687,1.461,0.0097852,0.02491,7.7073e-07,0.86,0.58,0
0.043638,-0.00036105,0.026489,0.00031808,0.0026807,0.00060152,0,0,0.052378,-0.0051978,0,0.0026467,0,0,0,0.026503,0.00030426,0.0026807,1.316,0.0098293,0.025095,7.8718e-07,0.88,0.58,0
0.044689,-0.00038655,0.02663,0.00026591,0.0026896,0.00052487,0,0,0.052669,-0.0053321,0,0.0023094,0,0,0,0.02664,0.00025547,0.0026896,1.1401,0.0098618,0.025256,8.0154e-07,0.9,0.58,0
0.045745,-0.00040585,0.026744,0.00021605,0.002696,0.00043501,0,0,0.052905,-0.0054558,0,0.001914,0,0,0,0.026751,0.00020892,0.002696,0.93921,0.0098852,0.02539,8.135e-07,0.92,0.58,0
0.046805,-0.00041988,0.026831,0.00017326,0.0027004,0.00033484,0,0,0.053087,-0.0055598,0,0.0014733,0,0,0,0.026835,0.00016906,0.0027004,0.71952,0.0099016,0.025495,8.2288e-07,0.94,0.58,0
0.047868,-0.00042936,0.026893,0.00014074,0.0027033,0.00022721,0,0,0.053216,-0.0056377,0,0.00099972,0,0,0,0.026895,0.00013881,0.0027033,0.48658,0.0099122,0.02557,8.2961e-07,0.96,0.58,0
0.048934,-0.00043484,0.026929,0.0001205,0.002705,0.00011478,0,0,0.053294,-0.0056859,0,0.00050502,0,0,0,0.02693,0.00012,0.002705,0.2453,0.0099182,0.025615,8.3365e-07,0.98,0.58,0
0.05,-0.00043663,0.026941,0.00011363,0.0027055,-2.0354e-05,0,0,0.053319,-0.0057021,0,-8.9556e-05,0,0,0,0.026941,0.00011362,0.0027055,-0.043469,0.0099202,0.02563,8.35e-07,1,0.58,0
0,0,0.026173,0.0029081,0.0029081,-0.00076247,0,0,0.051183,2.7105e-20,0,-0.0033548,0,0,0,0.026198,0.0028832,0.0029081,-1.8751,0.010663,0.023303,6.4988e-07,0,0.6,0
0.0010237,-6.7097e-05,0.0262,0.0027485,0.0028948,-0.00078834,0,0,0.051271,-0.00032192,0,-0.0034687,0,0,0,0.026226,0.002722,0.0028948,-1.9232,0.010614,0.023418,6.5949e-07,0.02,0.6,0
0.0020508,-0.00012846,0.026269,0.0025919,0.0028861,-0.00078673,0,0,0.051443,-0.00064728,0,-0.0034616,0,0,0,0.026295,0.0025658,0.0028861,-1.901,0.010582,0.023571,6.7219e-07,0.04,0.6,0
0.0030814,-0.00018453,0.026335,0.0024363,0.0028771,-0.00079194,0,0,0.051608,-0.00096986,0,-0.0034845,0,0,0,0.026361,0.0024101,0.0028771,-1.8958,0.010549,0.023721,6.8464e-07,0.06,0.6,0
0.0041151,-0.00023562,0.026395,0.0022843,0.002868,-0.00080257,0,0,0.05176,-0.0012841,0,-0.0035313,0,0,0,0.026422,0.0022576,0.002868,-1.9044,0.010516,0.023865,6.9655e-07,0.08,0.6,0
0.0051518,-0.00028191,0.026448,0.0021381,0.0028586,-0.00081748,0,0,0.051896,-0.001585,0,-0.0035969,0,0,0,0.026475,0.0021107,0.0028586,-1.9238,0.010481,0.023999,7.0762e-07,0.1,0.6,0
0.006191,-0.00032349,0.026491,0.0019999,0.0028491,-0.00083572,0,0,0.052012,-0.0018682,0,-0.0036772,0,0,0,0.02652,0.0019715,0.0028491,-1.9521,0.010447,0.024121,7.1759e-07,0.12,0.6,0
0.0072323,-0.00036034,0.026523,0.0018715,0.0028394,-0.0008564,0,0,0.052104,-0.0021295,0,-0.0037682,0,0,0,0.026553,0.0018418,0.0028394,-1.9873,0.010411,0.024227,7.262e-07,0.14,0.6,0
0.0082751,-0.00039236,0.026542,0.0017542,0.0028296,-0.00087873,0,0,0.052166,-0.0023658,0,-0.0038664,0,0,0,0.026573,0.0017231,0.0028296,-2.0278,0.010375,0.024315,7.3319e-07,0.16,0.6,0
0.0093189,-0.00041936,0.026545,0.0016493,0.0028194,-0.0009018,0,0,0.052197,-0.0025743,0,-0.0039679,0,0,0,0.026578,0.0016167,0.0028194,-2.0718,0.010338,0.024382,7.3834e-07,0.18,0.6,0
0.010363,-0.00044104,0.026532,0.0015574,0.0028089,-0.00092458,0,0,0.052191,-0.0027534,0,-0.0040682,0,0,0,0.026566,0.0015232,0.0028089,-2.1173,0.010299,0.024425,7.4144e-07,0.2,0.6,0
0.011407,-0.00045702,0.0265,0.0014785,0.0027978,-0.00094582,0,0,0.052145,-0.0029025,0,-0.0041616,0,0,0,0.026536,0.0014428,0.0027978,-2.1617,0.010259,0.024443,7.4232e-07,0.22,0.6,0
0.012449,-0.00046683,0.026447,0.0014122,0.002786,-0.00096392,0,0,0.052055,-0.0030223,0,-0.0042413,0,0,0,0.026484,0.0013751,0.002786,-2.2017,0.010215,0.024434,7.4083e-07,0.24,0.6,0
0.013489,-0.00046987,0.026386,0.0013526,0.0027738,-0.0010084,0,0,0.051946,-0.0031266,0,-0.0044369,0,0,0,0.026426,0.0013121,0.0027738,-2.303,0.010171,0.024416,7.3853e-07,0.26,0.6,0
0.014526,-0.00046544,0.026256,0.0013034,0.002756,-0.00098774,0,0,0.051701,-0.0031956,0,-0.0043461,0,0,0,0.026295,0.0012644,0.002756,-2.2633,0.010105,0.02432,7.2938e-07,0.28,0.6,0
0.015558,-0.00045276,0.026152,0.0012666,0.0027419,-0.00097908,0,0,0.051503,-0.0032456,0,-0.004308,0,0,0,0.026191,0.0012282,0.0027419,-2.2496,0.010054,0.024241,7.2203e-07,0.3,0.6,0
0.016586,-0.00043099,0.026006,0.001222,0.0027228,-0.00096384,0,0,0.051224,-0.0033019,0,-0.0042409,0,0,0,0.026044,0.0011845,0.0027228,-2.2237,0.0099837,0.024127,7.1144e-07,0.32,0.6,0
0.017607,-0.00039935,0.025836,0.0011684,0.0027005,-0.00093591,0,0,0.050899,-0.0033706,0,-0.004118,0,0,0,0.025872,0.001133,0.0027005,-2.1696,0.0099018,0.023994,6.9924e-07,0.34,0.6,0
0.018622,-0.0003572,0.025644,0.001098,0.0026742,-0.00089553,0,0,0.050533,-0.0034677,0,-0.0039403,0,0,0,0.025676,0.0010653,0.0026742,-2.0867,0.0098053,0.023847,6.8586e-07,0.36,0.6,0
0.019628,-0.00030421,0.025428,0.001003,0.0026431,-0.00084436,0,0,0.050127,-0.0036083,0,-0.0037152,0,0,0,0.025457,0.00097385,0.0026431,-1.9775,0.0096915,0.023693,6.7168e-07,0.38,0.6,0
0.020627,-0.00024056,0.02519,0.00087816,0.0026068,-0.00078498,0,0,0.049682,-0.0038029,0,-0.0034539,0,0,0,0.025215,0.00085284,0.0026068,-1.8474,0.0095581,0.023534,6.5692e-07,0.4,0.6,0
0.021616,-0.00016701,0.024927,0.00072003,0.0025646,-0.00071874,0,0,0.049196,-0.0040582,0,-0.0031625,0,0,0,0.024948,0.0006987,0.0025646,-1.6992,0.0094037,0.023372,6.4164e-07,0.42,0.6,0
0.022595,-8.4999e-05,0.024644,0.00052813,0.0025172,-0.00064641,0,0,0.048678,-0.0043759,0,-0.0028442,0,0,0,0.024661,0.00051081,0.0025172,-1.5343,0.0092296,0.023212,6.2618e-07,0.44,0.6,0
0.023563,3.0431e-06,0.024349,0.0002938,0.0024643,-0.00056744,0,0,0.048147,-0.0047751,0,-0.0024967,0,0,0,0.024363,0.00028042,0.0024643,-1.3505,0.0090358,0.023068,6.1145e-07,0.46,0.6,0
0.024521,9.317e-05,0.024057,1.8111e-05,0.0024075,-0.00049586,0,0,0.047629,-0.0052566,0,-0.0021818,0,0,0,0.024067,7.8869e-06,0.0024075,-1.1812,0.0088275,0.022954,5.983e-07,0.48,0.6,0
0.025468,0.00017944,0.023772,-0.00026982,0.0023502,-0.00044056,0,0,0.047128,-0.0057641,0,-0.0019385,0,0,0,0.02378,-0.00027789,0.0023502,-1.0495,0.0086175,0.022858,5.8611e-07,0.5,0.6,0
0.026406,0.00025498,0.023499,-0.00050558,0.0022993,-0.00040343,0,0,0.046639,-0.0061708,0,-0.0017751,0,0,0,0.023506,-0.00051236,0.0022993,-0.96258,0.0084309,0.022743,5.7316e-07,0.52,0.6,0
0.027334,0.00031428,0.02325,-0.00064289,0.0022607,-0.00035069,0,0,0.046177,-0.0063879,0,-0.0015431,0,0,0,0.023255,-0.00064803,0.0022607,-0.84073,0.0082893,0.02259,5.591e-07,0.54,0.6,0
0.028253,0.00035495,0.023052,-0.00069992,0.0022352,-0.00025747,0,0,0.045797,-0.0064573,0,-0.0011329,0,0,0,0.023055,-0.00070271,0.0022352,-0.62099,0.0081958,0.022433,5.4646e-07,0.56,0.6,0
0.029165,0.0003772,0.022941,-0.00072559,0.0022216,-0.00011949,0,0,0.045583,-0.0064837,0,-0.00052574,0,0,0,0.022942,-0.0007262,0.0022216,-0.28926,0.0081457,0.02234,5.392e-07,0.58,0.6,0
0.030076,0.00038182,0.022941,-0.00075868,0.0022183,3.4381e-05,0,0,0.045591,-0.0065493,0,0.00015128,0,0,0,0.022941,-0.00075873,0.0022183,0.083117,0.0081336,0.022361,5.4007e-07,0.6,0.6,0
0.030989,0.00036859,0.023053,-0.00079915,0.0022254,0.00016667,0,0,0.04582,-0.0066539,0,0.00073335,0,0,0,0.023054,-0.00080032,0.0022254,0.40034,0.0081596,0.022494,5.491e-07,0.62,0.6,0
0.031909,0.0003363,0.023251,-0.00080771,0.0022444,0.00024814,0,0,0.046215,-0.0067145,0,0.0010918,0,0,0,0.023254,-0.00081027,0.0022444,0.59086,0.0082293,0.022692,5.636e-07,0.64,0.6,0
0.032838,0.0002843,0.023501,-0.00073396,0.0022767,0.000283,0,0,0.046693,-0.0066234,0,0.0012452,0,0,0,0.023504,-0.00073727,0.0022767,0.66895,0.0083478,0.022884,5.7963e-07,0.66,0.6,0
0.033777,0.00021462,0.023774,-0.00055809,0.0023216,0.00029689,0,0,0.047195,-0.0063353,0,0.0013063,0,0,0,0.023777,-0.00056172,0.0023216,0.69898,0.0085124,0.023033,5.9459e-07,0.68,0.6,0
0.034725,0.00013248,0.024058,-0.00032604,0.0023732,0.00032508,0,0,0.047706,-0.0059383,0,0.0014303,0,0,0,0.024062,-0.00033037,0.0023732,0.76367,0.0087017,0.023159,6.0877e-07,0.7,0.6,0
0.035685,4.4617e-05,0.024349,-0.00010361,0.0024246,0.00036698,0,0,0.048235,-0.005562,0,0.0016147,0,0,0,0.024355,-0.00010912,0.0024246,0.8596,0.0088902,0.023301,6.2391e-07,0.72,0.6,0
0.036655,-4.3083e-05,0.024643,7.8063e-05,0.0024721,0.0004142,0,0,0.048777,-0.005267,0,0.0018225,0,0,0,0.02465,7.1081e-05,0.0024721,0.9657,0.0090645,0.023471,6.407e-07,0.74,0.6,0
0.037636,-0.00012669,0.024927,0.0002164,0.0025143,0.00045265,0,0,0.049307,-0.0050554,0,0.0019917,0,0,0,0.024935,0.00020812,0.0025143,1.0491,0.0092192,0.023658,6.5836e-07,0.76,0.6,0
0.038627,-0.00020378,0.025192,0.00031906,0.0025511,0.00048266,0,0,0.04981,-0.0049105,0,0.0021237,0,0,0,0.025201,0.0003097,0.0025511,1.1113,0.009354,0.02385,6.7605e-07,0.78,0.6,0
0.039628,-0.00027293,0.025434,0.00038567,0.002582,0.00050331,0,0,0.050275,-0.0048319,0,0.0022146,0,0,0,0.025444,0.00037556,0.002582,1.1506,0.0094673,0.024042,6.9346e-07,0.8,0.6,0
0.040638,-0.00033336,0.025655,0.00041883,0.0026074,0.00051303,0,0,0.050705,-0.0048148,0,0.0022573,0,0,0,0.025666,0.0004084,0.0026074,1.1641,0.0095604,0.024233,7.1059e-07,0.82,0.6,0
0.041656,-0.0003849,0.025855,0.00042325,0.0026278,0.00050897,0,0,0.0511,-0.0048501,0,0.0022394,0,0,0,0.025865,0.00041307,0.0026278,1.1461,0.0096354,0.02442,7.2724e-07,0.84,0.6,0
0.042682,-0.00042787,0.026034,0.00040607,0.002644,0.00048917,0,0,0.051457,-0.0049234,0,0.0021523,0,0,0,0.026043,0.00039674,0.002644,1.0931,0.0096946,0.0246,7.4309e-07,0.86,0.6,0
0.043715,-0.00046291,0.02619,0.00037509,0.0026565,0.00045314,0,0,0.051774,-0.0050191,0,0.0019938,0,0,0,0.026198,0.00036714,0.0026565,1.0053,0.0097405,0.024766,7.577e-07,0.88,0.6,0
0.044753,-0.00049079,0.026323,0.00033762,0.0026661,0.00040187,0,0,0.052045,-0.0051226,0,0.0017683,0,0,0,0.026329,0.00033141,0.0026661,0.88582,0.0097755,0.024913,7.7064e-07,0.9,0.6,0
0.045796,-0.00051233,0.026432,0.00029971,0.0026732,0.0003374,0,0,0.052269,-0.0052216,0,0.0014846,0,0,0,0.026436,0.00029536,0.0026732,0.7396,0.0098016,0.025037,7.8158e-07,0.92,0.6,0
0.046844,-0.00052825,0.026516,0.00026599,0.0026782,0.00026226,0,0,0.052444,-0.0053069,0,0.0011539,0,0,0,0.026519,0.00026337,0.0026782,0.57235,0.0098202,0.025135,7.9027e-07,0.94,0.6,0
0.047894,-0.00053918,0.026577,0.00023977,0.0026816,0.00017919,0,0,0.052569,-0.0053721,0,0.00078842,0,0,0,0.026578,0.00023855,0.0026816,0.3898,0.0098327,0.025207,7.9657e-07,0.96,0.6,0
0.048947,-0.00054555,0.026613,0.00022322,0.0026836,9.0887e-05,0,0,0.052644,-0.0054128,0,0.0003999,0,0,0,0.026613,0.00022291,0.0026836,0.19733,0.0098398,0.02525,8.0037e-07,0.98,0.6,0
0.05,-0.00054765,0.026625,0.00021757,0.0026842,-2.3795e-05,0,0,0.052669,-0.0054266,0,-0.0001047,0,0,0,0.026625,0.00021755,0.0026842,-0.051629,0.0098421,0.025264,8.0165e-07,1,0.6,0
0,0,0.026044,0.0028938,0.0028938,-0.00083342,0,0,0.050931,4.0658e-20,0,-0.003667,0,0,0,0.026074,0.0028638,0.0028938,-2.0591,0.010611,0.023195,6.4095e-07,0,0.62,0
0.0010186,-7.3341e-05,0.026069,0.0027426,0.0028812,-0.00085733,0,0,0.051013,-0.00030483,0,-0.0037723,0,0,0,0.0261,0.0027111,0.0028812,-2.1021,0.010564,0.023305,6.4996e-07,0.02,0.62,0
0.0020405,-0.00014105,0.026134,0.0025925,0.0028727,-0.00085298,0,0,0.051175,-0.00061646,0,-0.0037531,0,0,0,0.026165,0.0025616,0.0028727,-2.0724,0.010533,0.02345,6.6187e-07,0.04,0.62,0
0.0030656,-0.00020344,0.026196,0.0024419,0.0028638,-0.00085339,0,0,0.05133,-0.00092814,0,-0.0037549,0,0,0,0.026226,0.0024113,0.0028638,-2.0549,0.0105,0.023592,6.7357e-07,0.06,0.62,0
0.0040937,-0.00026071,0.026251,0.0022936,0.0028545,-0.00085726,0,0,0.051473,-0.0012338,0,-0.0037719,0,0,0,0.026282,0.002263,0.0028545,-2.0467,0.010466,0.023729,6.8475e-07,0.08,0.62,0
0.0051246,-0.00031293,0.026299,0.0021503,0.0028449,-0.00086351,0,0,0.051598,-0.0015281,0,-0.0037994,0,0,0,0.02633,0.0021195,0.0028449,-2.0453,0.010431,0.023856,6.9509e-07,0.1,0.62,0
0.0061577,-0.0003601,0.026336,0.002014,0.002835,-0.00087121,0,0,0.051703,-0.0018062,0,-0.0038333,0,0,0,0.026368,0.0019829,0.002835,-2.0488,0.010395,0.02397,7.0433e-07,0.12,0.62,0
0.0071927,-0.00040213,0.026362,0.0018867,0.0028249,-0.00087956,0,0,0.051783,-0.002064,0,-0.00387,0,0,0,0.026394,0.0018552,0.0028249,-2.0554,0.010358,0.024069,7.1219e-07,0.14,0.62,0
0.008229,-0.00043883,0.026375,0.0017698,0.0028145,-0.00088775,0,0,0.051833,-0.0022982,0,-0.0039061,0,0,0,0.026407,0.0017378,0.0028145,-2.0636,0.01032,0.024149,7.1845e-07,0.16,0.62,0
0.009266,-0.00046998,0.026373,0.0016644,0.0028037,-0.00089495,0,0,0.051851,-0.0025065,0,-0.0039378,0,0,0,0.026405,0.001632,0.0028037,-2.0717,0.01028,0.024208,7.2289e-07,0.18,0.62,0
0.010303,-0.00049524,0.026353,0.0015708,0.0027924,-0.00090021,0,0,0.051834,-0.0026875,0,-0.0039609,0,0,0,0.026386,0.0015382,0.0027924,-2.0776,0.010239,0.024245,7.2536e-07,0.2,0.62,0
0.011339,-0.00051423,0.026316,0.001489,0.0027805,-0.00090235,0,0,0.051778,-0.0028412,0,-0.0039703,0,0,0,0.026349,0.0014563,0.0027805,-2.0788,0.010195,0.024258,7.2574e-07,0.22,0.62,0
0.012374,-0.0005265,0.02626,0.0014181,0.0027678,-0.0009,0,0,0.051682,-0.0029693,0,-0.00396,0,0,0,0.026292,0.0013855,0.0027678,-2.0722,0.010148,0.024245,7.2395e-07,0.24,0.62,0
0.013407,-0.00053151,0.026197,0.0013589,0.0027556,-0.00088838,0,0,0.051571,-0.0030726,0,-0.0039089,0,0,0,0.026228,0.0013272,0.0027556,-2.0458,0.010104,0.024219,7.2104e-07,0.26,0.62,0
0.014436,-0.00052868,0.026069,0.0012982,0.0027367,-0.00083821,0,0,0.051331,-0.0031647,0,-0.0036881,0,0,0,0.026097,0.0012699,0.0027367,-1.9359,0.010035,0.024127,7.1239e-07,0.28,0.62,0
0.015461,-0.00051739,0.025969,0.0012468,0.0027216,-0.0008493,0,0,0.051144,-0.0032446,0,-0.0037369,0,0,0,0.025998,0.0012176,0.0027216,-1.9652,0.009979,0.024064,7.0624e-07,0.3,0.62,0
0.016482,-0.00049701,0.025832,0.0011899,0.0027022,-0.00081248,0,0,0.050885,-0.0033269,0,-0.0035749,0,0,0,0.025859,0.0011632,0.0027022,-1.8864,0.009908,0.023963,6.969e-07,0.32,0.62,0
0.017497,-0.00046704,0.025677,0.0011238,0.00268,-0.00076408,0,0,0.050592,-0.0034238,0,-0.0033619,0,0,0,0.0257,0.0011,0.00268,-1.7808,0.0098268,0.023849,6.8642e-07,0.34,0.62,0
0.018505,-0.00042711,0.025504,0.0010416,0.0026546,-0.00070442,0,0,0.05027,-0.0035486,0,-0.0030994,0,0,0,0.025525,0.0010214,0.0026546,-1.648,0.0097336,0.023729,6.7526e-07,0.36,0.62,0
0.019507,-0.00037718,0.025317,0.00093727,0.0026255,-0.00063481,0,0,0.049923,-0.0037141,0,-0.0027932,0,0,0,0.025334,0.00092075,0.0026255,-1.4905,0.0096267,0.023607,6.6383e-07,0.38,0.62,0
0.020502,-0.00031765,0.025118,0.00080548,0.0025923,-0.00055727,0,0,0.049556,-0.0039311,0,-0.002452,0,0,0,0.025131,0.00079271,0.0025923,-1.3124,0.0095052,0.02349,6.5252e-07,0.4,0.62,0
0.02149,-0.00024943,0.024909,0.00064253,0.0025552,-0.00047437,0,0,0.049178,-0.0042078,0,-0.0020872,0,0,0,0.024918,0.00063326,0.0025552,-1.1195,0.0093689,0.023383,6.4173e-07,0.42,0.62,0
0.022469,-0.00017416,0.024696,0.00044508,0.0025142,-0.0003895,0,0,0.048801,-0.004552,0,-0.0017138,0,0,0,0.024703,0.00043882,0.0025142,-0.9199,0.0092186,0.023296,6.3196e-07,0.44,0.62,0
0.023442,-9.4401e-05,0.024487,0.00021296,0.00247,-0.00030974,0,0,0.048438,-0.0049655,0,-0.0013629,0,0,0,0.024491,0.00020901,0.00247,-0.73094,0.0090568,0.023234,6.2367e-07,0.46,0.62,0
0.024407,-1.3881e-05,0.024287,-4.5083e-05,0.0024242,-0.00024426,0,0,0.048098,-0.0054324,0,-0.0010747,0,0,0,0.02429,-4.7534e-05,0.0024242,-0.57508,0.0088888,0.0232,6.1688e-07,0.48,0.62,0
0.025366,6.2627e-05,0.024099,-0.00030312,0.0023795,-0.00020122,0,0,0.047782,-0.0059019,0,-0.00088537,0,0,0,0.0241,-0.00030478,0.0023795,-0.47243,0.008725,0.02318,6.1083e-07,0.5,0.62,0
0.026318,0.00013001,0.023923,-0.00052492,0.0023398,-0.0001764,0,0,0.047484,-0.0063025,0,-0.00077615,0,0,0,0.023925,-0.00052619,0.0023398,-0.41337,0.0085794,0.023151,6.0449e-07,0.52,0.62,0
0.027265,0.00018398,0.023768,-0.00068475,0.0023083,-0.00015547,0,0,0.047211,-0.0065847,0,-0.00068407,0,0,0,0.023769,-0.00068574,0.0023083,-0.36427,0.0084637,0.023103,5.9764e-07,0.54,0.62,0
0.028207,0.00022189,0.023647,-0.0007825,0.0022864,-0.00012145,0,0,0.046992,-0.0067516,0,-0.00053438,0,0,0,0.023647,-0.0007831,0.0022864,-0.28484,0.0083835,0.023049,5.9149e-07,0.56,0.62,0
0.029145,0.00024267,0.023579,-0.00083786,0.0022741,-7.0602e-05,0,0,0.046871,-0.0068463,0,-0.00031065,0,0,0,0.023579,-0.00083807,0.0022741,-0.16567,0.0083384,0.023019,5.8806e-07,0.58,0.62,0
0.030082,0.00024603,0.023578,-0.00086812,0.002271,-1.3641e-05,0,0,0.046876,-0.0069061,0,-6.0021e-05,0,0,0,0.023578,-0.00086813,0.002271,-0.031971,0.008327,0.023038,5.8885e-07,0.6,0.62,0
0.03102,0.00023177,0.023644,-0.00087304,0.0022771,3.132e-05,0,0,0.047007,-0.0069303,0,0.00013781,0,0,0,0.023644,-0.00087308,0.0022771,0.073193,0.0083494,0.023104,5.9388e-07,0.62,0.62,0
0.031962,0.00019977,0.023763,-0.0008347,0.0022929,5.3568e-05,0,0,0.047235,-0.0068806,0,0.0002357,0,0,0,0.023763,-0.00083482,0.0022929,0.12477,0.0084072,0.023193,6.0167e-07,0.64,0.62,0
0.032909,0.00015072,0.023917,-0.00073254,0.0023184,5.7068e-05,0,0,0.047516,-0.0067121,0,0.0002511,0,0,0,0.023917,-0.00073268,0.0023184,0.13265,0.0085008,0.023274,6.1018e-07,0.66,0.62,0
0.033862,8.692e-05,0.024089,-0.00056594,0.0023523,5.9452e-05,0,0,0.047821,-0.0064202,0,0.00026159,0,0,0,0.024089,-0.00056609,0.0023523,0.13816,0.0086251,0.023333,6.1818e-07,0.68,0.62,0
0.034822,1.2398e-05,0.024274,-0.00036059,0.0023913,7.5982e-05,0,0,0.048141,-0.0060542,0,0.00033432,0,0,0,0.024274,-0.00036082,0.0023913,0.17672,0.0087682,0.023381,6.2587e-07,0.7,0.62,0
0.035788,-6.7919e-05,0.02447,-0.00015348,0.0024316,0.00011177,0,0,0.048484,-0.0056873,0,0.00049179,0,0,0,0.02447,-0.00015399,0.0024316,0.26007,0.008916,0.023439,6.3429e-07,0.72,0.62,0
0.036761,-0.00014937,0.024675,2.8191e-05,0.0024703,0.00015915,0,0,0.04885,-0.0053727,0,0.00070027,0,0,0,0.024676,2.7163e-05,0.0024703,0.36996,0.0090578,0.023523,6.4421e-07,0.74,0.62,0
0.037742,-0.0002283,0.024884,0.00017447,0.0025058,0.00020913,0,0,0.049232,-0.005129,0,0.00092017,0,0,0,0.024886,0.0001727,0.0025058,0.48488,0.0091881,0.023633,6.5569e-07,0.76,0.62,0
0.038731,-0.00030221,0.02509,0.00028447,0.0025375,0.00025456,0,0,0.049616,-0.0049566,0,0.0011201,0,0,0,0.025093,0.00028186,0.0025375,0.5879,0.009304,0.023763,6.6831e-07,0.78,0.62,0
0.039727,-0.0003695,0.025288,0.00036069,0.0025649,0.00029195,0,0,0.049991,-0.0048492,0,0.0012846,0,0,0,0.025292,0.00035727,0.0025649,0.67094,0.0094045,0.023907,6.8163e-07,0.8,0.62,0
0.04073,-0.00042927,0.025475,0.00040611,0.0025881,0.00031858,0,0,0.05035,-0.0048003,0,0.0014018,0,0,0,0.025479,0.00040206,0.0025881,0.72799,0.0094896,0.024058,6.953e-07,0.82,0.62,0
0.041741,-0.00048116,0.025647,0.00042531,0.0026073,0.00033231,0,0,0.050688,-0.0048003,0,0.0014621,0,0,0,0.025652,0.00042093,0.0026073,0.75471,0.00956,0.024212,7.0895e-07,0.84,0.62,0
0.042758,-0.00052522,0.025805,0.00042405,0.0026229,0.00033166,0,0,0.051,-0.0048374,0,0.0014593,0,0,0,0.025809,0.00041972,0.0026229,0.74855,0.0096171,0.024362,7.2221e-07,0.86,0.62,0
0.043781,-0.00056182,0.025944,0.00040868,0.0026353,0.00031628,0,0,0.05128,-0.0048985,0,0.0013916,0,0,0,0.025948,0.00040477,0.0026353,0.70952,0.0096627,0.024504,7.3463e-07,0.88,0.62,0
0.044809,-0.00059145,0.026065,0.00038529,0.002645,0.00028688,0,0,0.051523,-0.0049714,0,0.0012622,0,0,0,0.026068,0.00038208,0.002645,0.63997,0.0096983,0.024632,7.4581e-07,0.9,0.62,0
0.045842,-0.00061472,0.026165,0.0003592,0.0026524,0.00024503,0,0,0.051727,-0.005045,0,0.0010781,0,0,0,0.026167,0.00035687,0.0026524,0.54398,0.0097254,0.024742,7.5539e-07,0.92,0.62,0
0.046878,-0.00063216,0.026243,0.00033472,0.0026577,0.00019291,0,0,0.051887,-0.0051107,0,0.00084879,0,0,0,0.026244,0.00033328,0.0026577,0.42658,0.0097451,0.02483,7.6309e-07,0.94,0.62,0
0.047917,-0.00064425,0.026299,0.00031506,0.0026614,0.00013296,0,0,0.052003,-0.005162,0,0.00058505,0,0,0,0.0263,0.00031438,0.0026614,0.29318,0.0097585,0.024895,7.6872e-07,0.96,0.62,0
0.048958,-0.00065136,0.026333,0.00030241,0.0026635,6.7791e-05,0,0,0.052073,-0.0051945,0,0.00029828,0,0,0,0.026333,0.00030223,0.0026635,0.14921,0.0097663,0.024934,7.7215e-07,0.98,0.62,0
0.05,-0.0006537,0.026344,0.00029806,0.0026642,-2.6636e-05,0,0,0.052096,-0.0052056,0,-0.0001172,0,0,0,0.026344,0.00029803,0.0026642,-0.058594,0.0097688,0.024947,7.733e-07,1,0.62,0
0,0,0.025922,0.0028802,0.0028802,-0.00090102,0,0,0.050691,1.3552e-20,0,-0.0039645,0,0,0,0.025957,0.002845,0.0028802,-2.236,0.010561,0.023094,6.3261e-07,0,0.64,0
0.0010138,-7.929e-05,0.025945,0.002735,0.002868,-0.00092267,0,0,0.05077,-0.00029265,0,-0.0040597,0,0,0,0.025982,0.0026984,0.002868,-2.2729,0.010516,0.023199,6.4116e-07,0.02,0.64,0
0.0020308,-0.00015312,0.026008,0.0025892,0.0028597,-0.00091554,0,0,0.050925,-0.00059512,0,-0.0040284,0,0,0,0.026043,0.0025534,0.0028597,-2.2354,0.010486,0.023338,6.525e-07,0.04,0.64,0
0.0030508,-0.00022166,0.026066,0.0024415,0.0028507,-0.00091099,0,0,0.051073,-0.00090027,0,-0.0040083,0,0,0,0.026101,0.0024065,0.0028507,-2.205,0.010453,0.023475,6.6366e-07,0.06,0.64,0
0.0040737,-0.00028497,0.026118,0.0022951,0.0028413,-0.00090783,0,0,0.051209,-0.0012016,0,-0.0039945,0,0,0,0.026153,0.0022606,0.0028413,-2.1792,0.010418,0.023607,6.7432e-07,0.08,0.64,0
0.0050992,-0.00034303,0.026162,0.0021527,0.0028315,-0.0009051,0,0,0.051328,-0.0014933,0,-0.0039824,0,0,0,0.026196,0.0021186,0.0028315,-2.1558,0.010382,0.023729,6.8415e-07,0.1,0.64,0
0.0061268,-0.00039574,0.026196,0.0020166,0.0028213,-0.00090196,0,0,0.051425,-0.0017704,0,-0.0039686,0,0,0,0.02623,0.0019829,0.0028213,-2.1333,0.010345,0.023839,6.9289e-07,0.12,0.64,0
0.0071562,-0.0004429,0.026218,0.0018886,0.0028107,-0.00089772,0,0,0.051497,-0.0020286,0,-0.00395,0,0,0,0.026252,0.0018556,0.0028107,-2.1103,0.010306,0.023933,7.0026e-07,0.14,0.64,0
0.0081867,-0.00048429,0.026227,0.0017704,0.0027998,-0.00089172,0,0,0.051541,-0.0022645,0,-0.0039236,0,0,0,0.02626,0.001738,0.0027998,-2.0854,0.010266,0.024008,7.0607e-07,0.16,0.64,0
0.0092178,-0.00051962,0.026221,0.0016619,0.0027883,-0.00090514,0,0,0.051553,-0.0024781,0,-0.0039826,0,0,0,0.026255,0.0016286,0.0027883,-2.1078,0.010224,0.024067,7.1039e-07,0.18,0.64,0
0.010249,-0.00054854,0.026199,0.001565,0.0027764,-0.00090628,0,0,0.05153,-0.002665,0,-0.0039876,0,0,0,0.026232,0.0015317,0.0027764,-2.1041,0.01018,0.024102,7.1265e-07,0.2,0.64,0
0.011279,-0.00057067,0.02616,0.0014814,0.0027641,-0.00089643,0,0,0.051471,-0.002822,0,-0.0039443,0,0,0,0.026193,0.0014489,0.0027641,-2.0776,0.010135,0.024113,7.1285e-07,0.22,0.64,0
0.012308,-0.0005856,0.026094,0.0014042,0.0027498,-0.0008359,0,0,0.051357,-0.0029604,0,-0.003678,0,0,0,0.026122,0.0013759,0.0027498,-1.9369,0.010082,0.024088,7.1001e-07,0.24,0.64,0
0.013334,-0.00059287,0.026029,0.0013349,0.0027364,-0.00080712,0,0,0.051243,-0.0030832,0,-0.0035513,0,0,0,0.026055,0.0013085,0.0027364,-1.8701,0.010033,0.024064,7.0724e-07,0.26,0.64,0
0.014357,-0.000592,0.025937,0.0012705,0.0027207,-0.00077186,0,0,0.051075,-0.0031904,0,-0.0033962,0,0,0,0.025961,0.0012464,0.0027207,-1.7906,0.009976,0.024011,7.0196e-07,0.28,0.64,0
0.015377,-0.00058254,0.025828,0.0012069,0.0027035,-0.00072774,0,0,0.050874,-0.0032925,0,-0.0032021,0,0,0,0.025849,0.0011854,0.0027035,-1.6916,0.0099127,0.023941,6.9523e-07,0.3,0.64,0
0.016392,-0.00056407,0.025704,0.0011392,0.0026843,-0.00067401,0,0,0.050643,-0.0033992,0,-0.0029656,0,0,0,0.025722,0.0011207,0.0026843,-1.5705,0.0098424,0.023858,6.8739e-07,0.32,0.64,0
0.017403,-0.0005363,0.02559,0.0010746,0.0026664,-0.00065744,0,0,0.050432,-0.0035021,0,-0.0028927,0,0,0,0.025607,0.001057,0.0026664,-1.5351,0.009777,0.023787,6.8057e-07,0.34,0.64,0
0.018408,-0.00049914,0.025421,0.0010056,0.0026427,-0.00063404,0,0,0.050113,-0.0036015,0,-0.0027898,0,0,0,0.025438,0.00098919,0.0026427,-1.4866,0.0096899,0.023665,6.695e-07,0.36,0.64,0
0.019407,-0.00045277,0.025237,0.00086851,0.0026106,-0.00047619,0,0,0.049779,-0.0038326,0,-0.0020952,0,0,0,0.025247,0.00085921,0.0026106,-1.119,0.0095721,0.023561,6.5921e-07,0.38,0.64,0
0.020401,-0.0003978,0.025099,0.00072055,0.0025819,-0.00037226,0,0,0.049537,-0.0040951,0,-0.0016379,0,0,0,0.025104,0.00071486,0.0025819,-0.87464,0.0094671,0.023512,6.5337e-07,0.4,0.64,0
0.021389,-0.00033532,0.024937,0.00055534,0.0025492,-0.00028543,0,0,0.049253,-0.0043865,0,-0.0012559,0,0,0,0.02494,0.000552,0.0025492,-0.67063,0.0093471,0.023453,6.464e-07,0.42,0.64,0
0.022371,-0.00026708,0.024779,0.00036099,0.002514,-0.0002024,0,0,0.048983,-0.0047366,0,-0.00089058,0,0,0,0.024781,0.00035931,0.002514,-0.47489,0.009218,0.023418,6.4083e-07,0.44,0.64,0
0.023348,-0.00019558,0.02463,0.00014061,0.0024771,-0.00013013,0,0,0.048736,-0.0051402,0,-0.00057258,0,0,0,0.024631,0.00013992,0.0024771,-0.30445,0.0090825,0.02341,6.368e-07,0.46,0.64,0
0.02432,-0.00012413,0.024492,-9.5049e-05,0.0024397,-7.6161e-05,0,0,0.048516,-0.0055765,0,-0.00033511,0,0,0,0.024493,-9.5285e-05,0.0024397,-0.17747,0.0089457,0.023423,6.3406e-07,0.48,0.64,0
0.025289,-5.6633e-05,0.024367,-0.00032676,0.002404,-4.4716e-05,0,0,0.048319,-0.0060077,0,-0.00019675,0,0,0,0.024367,-0.00032684,0.002404,-0.10375,0.0088148,0.023448,6.3195e-07,0.5,0.64,0
0.026253,2.8795e-06,0.024254,-0.0005315,0.0023723,-3.3775e-05,0,0,0.048141,-0.0063884,0,-0.00014861,0,0,0,0.024254,-0.00053154,0.0023723,-0.078075,0.0086984,0.023469,6.2979e-07,0.52,0.64,0
0.027214,5.0897e-05,0.024158,-0.00069185,0.0023466,-3.4806e-05,0,0,0.047985,-0.0066846,0,-0.00015315,0,0,0,0.024158,-0.00069189,0.0023466,-0.080252,0.0086042,0.023478,6.2734e-07,0.54,0.64,0
0.028173,8.4885e-05,0.024084,-0.00080267,0.0023282,-3.8391e-05,0,0,0.047864,-0.0068879,0,-0.00016892,0,0,0,0.024085,-0.00080273,0.0023282,-0.088384,0.0085367,0.023479,6.2508e-07,0.56,0.64,0
0.029129,0.00010335,0.024044,-0.00086874,0.0023175,-3.9827e-05,0,0,0.047797,-0.0070097,0,-0.00017524,0,0,0,0.024044,-0.0008688,0.0023175,-0.091599,0.0084974,0.023482,6.2393e-07,0.58,0.64,0
0.030085,0.00010558,0.024042,-0.00089608,0.0023145,-4.148e-05,0,0,0.047799,-0.0070634,0,-0.00018251,0,0,0,0.024042,-0.00089615,0.0023145,-0.095303,0.0084867,0.023498,6.2459e-07,0.6,0.64,0
0.031041,9.1374e-05,0.024078,-0.00088444,0.0023194,-4.8692e-05,0,0,0.04787,-0.0070484,0,-0.00021424,0,0,0,0.024078,-0.00088454,0.0023194,-0.11176,0.0085044,0.023525,6.2707e-07,0.62,0.64,0
0.031999,6.1076e-05,0.024147,-0.00082725,0.002332,-6.3713e-05,0,0,0.047993,-0.0069503,0,-0.00028034,0,0,0,0.024147,-0.00082741,0.002332,-0.14617,0.0085506,0.023554,6.3066e-07,0.64,0.64,0
0.032961,1.5817e-05,0.024239,-0.0007192,0.0023519,-8.1544e-05,0,0,0.048151,-0.0067565,0,-0.0003588,0,0,0,0.024239,-0.00071946,0.0023519,-0.1872,0.0086238,0.023573,6.3445e-07,0.66,0.64,0
0.033925,-4.2186e-05,0.024345,-0.00056509,0.002378,-9.2248e-05,0,0,0.048328,-0.0064748,0,-0.00040589,0,0,0,0.024346,-0.00056543,0.002378,-0.21217,0.0087194,0.023578,6.3793e-07,0.68,0.64,0
0.034894,-0.00010969,0.024464,-0.0003824,0.0024081,-8.6633e-05,0,0,0.048523,-0.0061392,0,-0.00038118,0,0,0,0.024464,-0.0003827,0.0024081,-0.19977,0.0088299,0.023576,6.4132e-07,0.7,0.64,0
0.035866,-0.00018287,0.024594,-0.00019469,0.00244,-6.2051e-05,0,0,0.048739,-0.0057962,0,-0.00027302,0,0,0,0.024594,-0.00019484,0.00244,-0.14342,0.0089465,0.023582,6.4532e-07,0.72,0.64,0
0.036843,-0.00025799,0.024736,-2.2069e-05,0.0024714,-2.2281e-05,0,0,0.048982,-0.0054856,0,-9.8034e-05,0,0,0,0.024736,-2.2089e-05,0.0024714,-0.051562,0.0090617,0.02361,6.5061e-07,0.74,0.64,0
0.037825,-0.00033185,0.024886,0.00012376,0.002501,2.5354e-05,0,0,0.049247,-0.0052299,0,0.00011156,0,0,0,0.024886,0.00012373,0.002501,0.058664,0.0091703,0.023664,6.5746e-07,0.76,0.64,0
0.038813,-0.00040204,0.025041,0.00023874,0.002528,7.396e-05,0,0,0.049529,-0.0050364,0,0.00032543,0,0,0,0.025042,0.00023852,0.002528,0.17085,0.0092694,0.023741,6.6577e-07,0.78,0.64,0
0.039807,-0.0004669,0.025197,0.00032313,0.002552,0.00011822,0,0,0.049818,-0.0049034,0,0.00052018,0,0,0,0.025197,0.00032257,0.002552,0.27232,0.0093572,0.023838,6.7525e-07,0.8,0.64,0
0.040806,-0.00052537,0.025348,0.00037948,0.0025727,0.00015449,0,0,0.050105,-0.0048251,0,0.00067974,0,0,0,0.025349,0.00037852,0.0025727,0.35449,0.0094333,0.023949,6.8551e-07,0.82,0.64,0
0.041811,-0.00057691,0.025491,0.00041162,0.0025903,0.0001802,0,0,0.050382,-0.0047931,0,0.00079288,0,0,0,0.025493,0.00041033,0.0025903,0.41164,0.0094978,0.024067,6.9615e-07,0.84,0.64,0
0.042821,-0.00062137,0.025625,0.00042434,0.0026049,0.00019382,0,0,0.050644,-0.0047973,0,0.0008528,0,0,0,0.025626,0.00042285,0.0026049,0.44063,0.0095514,0.024186,7.0676e-07,0.86,0.64,0
0.043837,-0.00065885,0.025745,0.00042284,0.0026168,0.00019479,0,0,0.050882,-0.0048267,0,0.00085707,0,0,0,0.025747,0.00042134,0.0026168,0.4407,0.0095949,0.024302,7.169e-07,0.88,0.64,0
0.044857,-0.00068964,0.02585,0.00041223,0.0026263,0.00018349,0,0,0.051093,-0.0048709,0,0.00080735,0,0,0,0.025852,0.00041091,0.0026263,0.41325,0.0096297,0.024409,7.2619e-07,0.9,0.64,0
0.04588,-0.00071412,0.025939,0.00039715,0.0026336,0.00016108,0,0,0.051271,-0.0049202,0,0.00070877,0,0,0,0.02594,0.00039614,0.0026336,0.36133,0.0096565,0.024502,7.3426e-07,0.92,0.64,0
0.046907,-0.00073268,0.026009,0.00038146,0.002639,0.00012932,0,0,0.051413,-0.0049666,0,0.00056901,0,0,0,0.026009,0.00038081,0.002639,0.28912,0.0096764,0.024577,7.4082e-07,0.94,0.64,0
0.047937,-0.00074566,0.026059,0.00036815,0.0026427,9.0315e-05,0,0,0.051516,-0.0050041,0,0.00039738,0,0,0,0.02606,0.00036783,0.0026427,0.20142,0.0096901,0.024633,7.4566e-07,0.96,0.64,0
0.048968,-0.00075333,0.02609,0.00035934,0.0026449,4.6396e-05,0,0,0.051579,-0.0050283,0,0.00020414,0,0,0,0.02609,0.00035925,0.0026449,0.10331,0.009698,0.024667,7.4862e-07,0.98,0.64,0
0.05,-0.00075587,0.0261,0.00035626,0.0026456,-2.8842e-05,0,0,0.0516,-0.0050366,0,-0.00012691,0,0,0,0.0261,0.00035623,0.0026456,-0.064192,0.0097006,0.024679,7.4962e-07,1,0.64,0
0,0,0.025807,0.0028675,0.0028675,-0.00096644,0,0,0.050467,-4.0658e-20,0,-0.0042523,0,0,0,0.025848,0.0028268,0.0028675,-2.4082,0.010514,0.023001,6.2495e-07,0,0.66,0
0.0010094,-8.5047e-05,0.02583,0.0027258,0.0028556,-0.00098555,0,0,0.050544,-0.0002856,0,-0.0043364,0,0,0,0.025872,0.0026838,0.0028556,-2.4381,0.010471,0.023103,6.332e-07,0.02,0.66,0
0.0020218,-0.00016486,0.025891,0.0025819,0.0028472,-0.00097568,0,0,0.050695,-0.00058372,0,-0.004293,0,0,0,0.025931,0.0025411,0.0028472,-2.3928,0.01044,0.023239,6.4417e-07,0.04,0.66,0
0.0030372,-0.00023945,0.025947,0.0024351,0.0028382,-0.00096609,0,0,0.05084,-0.00088689,0,-0.0042508,0,0,0,0.025987,0.0023954,0.0028382,-2.349,0.010407,0.023373,6.55e-07,0.06,0.66,0
0.0040553,-0.00030878,0.025997,0.0022885,0.0028286,-0.00095577,0,0,0.050972,-0.0011882,0,-0.0042054,0,0,0,0.026036,0.00225,0.0028286,-2.3048,0.010372,0.023502,6.6535e-07,0.08,0.66,0
0.005076,-0.00037267,0.02604,0.002145,0.0028185,-0.00094388,0,0,0.051086,-0.0014816,0,-0.0041531,0,0,0,0.026077,0.0021078,0.0028185,-2.2586,0.010334,0.023622,6.7489e-07,0.1,0.66,0
0.0060988,-0.00043092,0.026072,0.0020072,0.0028079,-0.00092975,0,0,0.05118,-0.0017615,0,-0.0040909,0,0,0,0.026107,0.0019714,0.0028079,-2.2093,0.010296,0.023729,6.8334e-07,0.12,0.66,0
0.0071232,-0.00048327,0.026092,0.0018771,0.0027969,-0.0009129,0,0,0.051249,-0.0020235,0,-0.0040167,0,0,0,0.026126,0.0018427,0.0027969,-2.156,0.010255,0.023821,6.9045e-07,0.14,0.66,0
0.0081487,-0.00052942,0.026099,0.0017561,0.0027855,-0.00089286,0,0,0.051289,-0.0022645,0,-0.0039286,0,0,0,0.026131,0.0017235,0.0027855,-2.0978,0.010213,0.023895,6.9602e-07,0.16,0.66,0
0.0091748,-0.00056902,0.026092,0.0016433,0.0027735,-0.00087202,0,0,0.0513,-0.0024864,0,-0.0038369,0,0,0,0.026123,0.0016122,0.0027735,-2.0402,0.010169,0.023951,7.0005e-07,0.18,0.66,0
0.010201,-0.00060174,0.026067,0.0015363,0.0027604,-0.00080556,0,0,0.051276,-0.002693,0,-0.0035445,0,0,0,0.026094,0.0015099,0.0027604,-1.8788,0.010121,0.023983,7.0202e-07,0.2,0.66,0
0.011226,-0.0006272,0.026029,0.0014429,0.0027471,-0.00076755,0,0,0.051219,-0.0028694,0,-0.0033772,0,0,0,0.026052,0.0014189,0.0027471,-1.7864,0.010073,0.023997,7.0241e-07,0.22,0.66,0
0.012249,-0.00064502,0.025966,0.0013659,0.0027332,-0.00074014,0,0,0.051112,-0.003008,0,-0.0032566,0,0,0,0.025988,0.0013437,0.0027332,-1.7218,0.010022,0.02398,7.0019e-07,0.24,0.66,0
0.013271,-0.00065484,0.025905,0.0012958,0.0027201,-0.00072697,0,0,0.051007,-0.0031335,0,-0.0031986,0,0,0,0.025927,0.0012743,0.0027201,-1.6906,0.0099737,0.023962,6.9799e-07,0.26,0.66,0
0.01429,-0.0006563,0.02582,0.0012235,0.0027044,-0.0006759,0,0,0.050855,-0.0032579,0,-0.0029739,0,0,0,0.025839,0.001205,0.0027044,-1.5728,0.0099161,0.02392,6.9358e-07,0.28,0.66,0
0.015305,-0.00064909,0.025722,0.0011512,0.0026873,-0.00061727,0,0,0.050677,-0.0033795,0,-0.002716,0,0,0,0.025738,0.0011357,0.0026873,-1.4382,0.0098536,0.023864,6.8806e-07,0.3,0.66,0
0.016317,-0.00063298,0.025612,0.0010745,0.0026687,-0.00055086,0,0,0.050476,-0.0035071,0,-0.0024238,0,0,0,0.025625,0.0010622,0.0026687,-1.2854,0.0097852,0.0238,6.8177e-07,0.32,0.66,0
0.017324,-0.0006079,0.025511,0.00097892,0.002649,-0.00046725,0,0,0.050296,-0.0036742,0,-0.0020559,0,0,0,0.02552,0.00097002,0.002649,-1.0908,0.0097129,0.023755,6.7688e-07,0.34,0.66,0
0.018327,-0.00057395,0.025363,0.00084903,0.0026212,-0.00031103,0,0,0.050032,-0.0038988,0,-0.0013686,0,0,0,0.025367,0.00084509,0.0026212,-0.72681,0.0096111,0.023684,6.6939e-07,0.36,0.66,0
0.019325,-0.00053155,0.025218,0.00075523,0.0025973,-0.00026707,0,0,0.049765,-0.0040525,0,-0.0011751,0,0,0,0.025221,0.00075231,0.0025973,-0.62544,0.0095234,0.0236,6.6119e-07,0.38,0.66,0
0.020319,-0.00048145,0.02511,0.00063284,0.0025743,-0.00022579,0,0,0.049579,-0.0042712,0,-0.00099346,0,0,0,0.025112,0.00063075,0.0025743,-0.52845,0.0094391,0.02357,6.5712e-07,0.4,0.66,0
0.021309,-0.00042489,0.024986,0.00047014,0.0025456,-0.00014218,0,0,0.049369,-0.004566,0,-0.00062558,0,0,0,0.024987,0.00046932,0.0025456,-0.33226,0.0093339,0.023548,6.5309e-07,0.42,0.66,0
0.022294,-0.00036362,0.024869,0.00028444,0.0025154,-6.6497e-05,0,0,0.049179,-0.0049081,0,-0.00029259,0,0,0,0.024869,0.00028426,0.0025154,-0.15497,0.009223,0.023549,6.5047e-07,0.44,0.66,0
0.023276,-0.00030001,0.024763,8.0288e-05,0.0024843,-4.8311e-06,0,0,0.049013,-0.0052889,0,-2.1257e-05,0,0,0,0.024763,8.0288e-05,0.0024843,-0.011214,0.0091092,0.023573,6.4923e-07,0.46,0.66,0
0.024255,-0.00023694,0.024668,-0.00013259,0.0024536,3.737e-05,0,0,0.048873,-0.0056896,0,0.00016443,0,0,0,0.024669,-0.00013265,0.0024536,0.086332,0.0089965,0.023615,6.4906e-07,0.48,0.66,0
0.025231,-0.00017768,0.024585,-0.00033976,0.0024246,5.7231e-05,0,0,0.048754,-0.0060815,0,0.00025182,0,0,0,0.024585,-0.00033989,0.0024246,0.13156,0.0088901,0.023665,6.4943e-07,0.5,0.66,0
0.026205,-0.00012552,0.024514,-0.00052523,0.0023988,5.6055e-05,0,0,0.048652,-0.0064329,0,0.00024664,0,0,0,0.024514,-0.00052535,0.0023988,0.12827,0.0087957,0.023713,6.4981e-07,0.52,0.66,0
0.027177,-8.3406e-05,0.024454,-0.00067601,0.0023778,3.8822e-05,0,0,0.048567,-0.0067183,0,0.00017082,0,0,0,0.024454,-0.00067607,0.0023778,0.088514,0.0087185,0.023751,6.4991e-07,0.54,0.66,0
0.028147,-5.3625e-05,0.024409,-0.00078528,0.0023624,1.1816e-05,0,0,0.048503,-0.0069249,0,5.1992e-05,0,0,0,0.024409,-0.00078529,0.0023624,0.026872,0.0086621,0.023778,6.4982e-07,0.56,0.66,0
0.029117,-3.7716e-05,0.024384,-0.00085176,0.0023532,-2.0318e-05,0,0,0.048468,-0.007051,0,-8.9401e-05,0,0,0,0.024384,-0.00085178,0.0023532,-0.046131,0.0086285,0.023796,6.499e-07,0.58,0.66,0
0.030086,-3.6502e-05,0.024381,-0.00087625,0.0023504,-5.5588e-05,0,0,0.048466,-0.0070987,0,-0.00024459,0,0,0,0.024381,-0.00087637,0.0023504,-0.1261,0.0086183,0.023808,6.504e-07,0.6,0.66,0
0.031056,-5.0166e-05,0.024399,-0.00085854,0.0023541,-9.3268e-05,0,0,0.048499,-0.0070677,0,-0.00041038,0,0,0,0.024399,-0.00085888,0.0023541,-0.21157,0.0086315,0.023815,6.5134e-07,0.62,0.66,0
0.032026,-7.8243e-05,0.024436,-0.00079741,0.0023639,-0.00013123,0,0,0.048559,-0.0069549,0,-0.00057743,0,0,0,0.024437,-0.0007981,0.0023639,-0.29797,0.0086676,0.023812,6.5242e-07,0.64,0.66,0
0.032998,-0.00011954,0.024488,-0.00069383,0.0023794,-0.00016457,0,0,0.048639,-0.0067612,0,-0.0007241,0,0,0,0.024489,-0.00069491,0.0023794,-0.37441,0.0087246,0.023796,6.533e-07,0.66,0.66,0
0.033972,-0.00017207,0.024552,-0.00055446,0.0023997,-0.00018657,0,0,0.048734,-0.0064992,0,-0.00082093,0,0,0,0.024553,-0.00055585,0.0023997,-0.42576,0.0087989,0.023769,6.539e-07,0.68,0.66,0
0.034947,-0.00023317,0.024625,-0.00039241,0.0024233,-0.00019179,0,0,0.048844,-0.0061945,0,-0.00084389,0,0,0,0.024627,-0.00039389,0.0024233,-0.43921,0.0088854,0.023738,6.5446e-07,0.7,0.66,0
0.035925,-0.00029977,0.02471,-0.00022411,0.0024486,-0.00017845,0,0,0.048974,-0.0058799,0,-0.00078519,0,0,0,0.024711,-0.00022538,0.0024486,-0.41004,0.008978,0.023713,6.5554e-07,0.72,0.66,0
0.036906,-0.00036879,0.024805,-6.4636e-05,0.0024741,-0.00014906,0,0,0.049129,-0.0055851,0,-0.00065587,0,0,0,0.024806,-6.553e-05,0.0024741,-0.34339,0.0090715,0.023704,6.5766e-07,0.74,0.66,0
0.037891,-0.0004375,0.024911,7.5485e-05,0.0024986,-0.00010884,0,0,0.049307,-0.0053309,0,-0.00047891,0,0,0,0.024911,7.5008e-05,0.0024986,-0.25109,0.0091617,0.023718,6.6116e-07,0.76,0.66,0
0.038879,-0.00050367,0.025024,0.00019088,0.0025215,-6.3763e-05,0,0,0.049506,-0.0051274,0,-0.00028055,0,0,0,0.025025,0.00019071,0.0025215,-0.14711,0.0092456,0.023754,6.6611e-07,0.78,0.66,0
0.039871,-0.00056564,0.025142,0.00028019,0.0025422,-1.9092e-05,0,0,0.04972,-0.0049765,0,-8.4003e-05,0,0,0,0.025142,0.00028017,0.0025422,-0.043998,0.0093215,0.023812,6.7235e-07,0.8,0.66,0
0.040867,-0.00062228,0.02526,0.00034465,0.0025605,2.1063e-05,0,0,0.04994,-0.0048749,0,9.2675e-05,0,0,0,0.02526,0.00034463,0.0025605,0.048435,0.0093885,0.023885,6.7958e-07,0.82,0.66,0
0.041868,-0.00067288,0.025376,0.0003871,0.0025763,5.3783e-05,0,0,0.050159,-0.0048163,0,0.00023665,0,0,0,0.025376,0.00038699,0.0025763,0.12331,0.0094465,0.02397,6.8744e-07,0.84,0.66,0
0.042874,-0.00071711,0.025486,0.00041131,0.0025897,7.7221e-05,0,0,0.050371,-0.0047924,0,0.00033977,0,0,0,0.025486,0.00041107,0.0025897,0.17645,0.0094955,0.024059,6.9555e-07,0.86,0.66,0
0.043883,-0.00075489,0.025586,0.00042151,0.0026008,9.0506e-05,0,0,0.050568,-0.0047943,0,0.00039823,0,0,0,0.025586,0.00042118,0.0026008,0.20607,0.0095361,0.024149,7.035e-07,0.88,0.66,0
0.044896,-0.00078629,0.025675,0.00042195,0.0026097,9.3647e-05,0,0,0.050744,-0.0048131,0,0.00041205,0,0,0,0.025676,0.0004216,0.0026097,0.21247,0.0095689,0.024234,7.1092e-07,0.9,0.66,0
0.045913,-0.00081152,0.025751,0.00041657,0.0026167,8.7386e-05,0,0,0.050895,-0.0048403,0,0.0003845,0,0,0,0.025751,0.00041627,0.0026167,0.19763,0.0095947,0.024309,7.1746e-07,0.92,0.66,0
0.046932,-0.00083082,0.025811,0.00040879,0.002622,7.3043e-05,0,0,0.051016,-0.004869,0,0.00032139,0,0,0,0.025811,0.00040858,0.002622,0.16475,0.009614,0.024372,7.2285e-07,0.94,0.66,0
0.047954,-0.00084441,0.025855,0.00040128,0.0026256,5.2343e-05,0,0,0.051105,-0.0048936,0,0.00023031,0,0,0,0.025855,0.00040117,0.0026256,0.11782,0.0096273,0.024418,7.2685e-07,0.96,0.66,0
0.048976,-0.00085249,0.025882,0.000396,0.0026278,2.7279e-05,0,0,0.051159,-0.0049099,0,0.00012003,0,0,0,0.025882,0.00039597,0.0026278,0.061328,0.0096352,0.024446,7.2932e-07,0.98,0.66,0
0.05,-0.00085516,0.025891,0.00039411,0.0026285,-3.0427e-05,0,0,0.051177,-0.0049156,0,-0.00013388,0,0,0,0.025891,0.00039408,0.0026285,-0.068375,0.0096378,0.024456,7.3016e-07,1,0.66,0
0,0,0.025702,0.0028558,0.0028558,-0.0010308,0,0,0.050261,-9.4868e-20,0,-0.0045357,0,0,0,0.025748,0.0028093,0.0028558,-2.5783,0.010471,0.022916,6.1804e-07,0,0.68,0
0.0010052,-9.0714e-05,0.025725,0.002715,0.002844,-0.0010472,0,0,0.050337,-0.00028377,0,-0.0046078,0,0,0,0.025772,0.0026674,0.002844,-2.6005,0.010428,0.023017,6.2616e-07,0.02,0.68,0
0.0020135,-0.00017647,0.025784,0.0025707,0.0028355,-0.0010346,0,0,0.050488,-0.00058251,0,-0.0045524,0,0,0,0.02583,0.0025247,0.0028355,-2.547,0.010397,0.023152,6.3697e-07,0.04,0.68,0
0.0030247,-0.00025713,0.02584,0.0024225,0.0028263,-0.00102,0,0,0.050631,-0.00088844,0,-0.004488,0,0,0,0.025885,0.0023781,0.0028263,-2.4893,0.010363,0.023286,6.4767e-07,0.06,0.68,0
0.0040387,-0.0003325,0.02589,0.0022735,0.0028164,-0.0010024,0,0,0.050762,-0.0011942,0,-0.0044107,0,0,0,0.025933,0.0022311,0.0028164,-2.4262,0.010327,0.023414,6.579e-07,0.08,0.68,0
0.0050552,-0.0004023,0.025932,0.0021271,0.0028059,-0.00098128,0,0,0.050877,-0.0014932,0,-0.0043176,0,0,0,0.025972,0.0020868,0.0028059,-2.3565,0.010288,0.023534,6.6734e-07,0.1,0.68,0
0.0060738,-0.0004662,0.025963,0.001986,0.0027949,-0.00095611,0,0,0.05097,-0.0017797,0,-0.0042069,0,0,0,0.026001,0.0019479,0.0027949,-2.2799,0.010248,0.023641,6.7569e-07,0.12,0.68,0
0.007094,-0.00052384,0.025983,0.0018522,0.0027835,-0.00092669,0,0,0.051038,-0.0020489,0,-0.0040774,0,0,0,0.026018,0.0018166,0.0027835,-2.196,0.010206,0.023733,6.8271e-07,0.14,0.68,0
0.0081153,-0.00057487,0.025989,0.0017273,0.0027716,-0.00089289,0,0,0.051078,-0.0022975,0,-0.0039287,0,0,0,0.026022,0.0016945,0.0027716,-2.1048,0.010163,0.023807,6.8824e-07,0.16,0.68,0
0.0091372,-0.00061891,0.025982,0.0016123,0.0027594,-0.00085463,0,0,0.051089,-0.0025236,0,-0.0037603,0,0,0,0.026012,0.0015823,0.0027594,-2.0061,0.010118,0.023862,6.9214e-07,0.18,0.68,0
0.010159,-0.0006556,0.02596,0.0015072,0.0027467,-0.00081175,0,0,0.051069,-0.0027269,0,-0.0035717,0,0,0,0.025987,0.0014803,0.0027467,-1.8993,0.010071,0.023898,6.9438e-07,0.2,0.68,0
0.01118,-0.00068459,0.025923,0.0014114,0.0027335,-0.00076404,0,0,0.051017,-0.0029086,0,-0.0033618,0,0,0,0.025947,0.0013876,0.0027335,-1.7836,0.010023,0.023915,6.9497e-07,0.22,0.68,0
0.0122,-0.00070555,0.025872,0.0013236,0.0027196,-0.00071122,0,0,0.050936,-0.0030713,0,-0.0031294,0,0,0,0.025893,0.001303,0.0027196,-1.6581,0.0099719,0.023913,6.9402e-07,0.24,0.68,0
0.013217,-0.00071821,0.025808,0.0012416,0.002705,-0.00065294,0,0,0.050827,-0.0032195,0,-0.0028729,0,0,0,0.025826,0.0012242,0.002705,-1.5214,0.0099182,0.023895,6.9168e-07,0.26,0.68,0
0.014233,-0.00072232,0.025732,0.0011627,0.0026894,-0.00058892,0,0,0.050693,-0.0033589,0,-0.0025912,0,0,0,0.025746,0.0011485,0.0026894,-1.3723,0.0098613,0.023864,6.882e-07,0.28,0.68,0
0.015245,-0.00071772,0.025645,0.0010834,0.0026728,-0.00051905,0,0,0.050538,-0.0034966,0,-0.0022838,0,0,0,0.025656,0.0010725,0.0026728,-1.2101,0.0098003,0.023823,6.8387e-07,0.3,0.68,0
0.016254,-0.00070436,0.025549,0.001,0.0026549,-0.00044358,0,0,0.050367,-0.0036407,0,-0.0019518,0,0,0,0.025557,0.00099204,0.0026549,-1.0348,0.0097347,0.023777,6.7903e-07,0.32,0.68,0
0.01726,-0.00068233,0.025448,0.00090849,0.0026356,-0.00036326,0,0,0.050186,-0.0037996,0,-0.0015983,0,0,0,0.025453,0.00090311,0.0026356,-0.84792,0.0096639,0.023731,6.7407e-07,0.34,0.68,0
0.018262,-0.00065193,0.025343,0.00080479,0.0026148,-0.0002795,0,0,0.050002,-0.003982,0,-0.0012298,0,0,0,0.025346,0.00080161,0.0026148,-0.65251,0.0095875,0.02369,6.6938e-07,0.36,0.68,0
0.01926,-0.00061374,0.025239,0.00068551,0.0025924,-0.00019453,0,0,0.049821,-0.0041952,0,-0.00085594,0,0,0,0.02524,0.00068396,0.0025924,-0.45391,0.0095055,0.02366,6.6532e-07,0.38,0.68,0
0.020255,-0.00056865,0.025137,0.00054816,0.0025686,-0.00011148,0,0,0.049651,-0.0044449,0,-0.00049051,0,0,0,0.025138,0.00054765,0.0025686,-0.25975,0.009418,0.023645,6.6223e-07,0.4,0.68,0
0.021246,-0.00051796,0.025042,0.00039188,0.0025434,-3.438e-05,0,0,0.049498,-0.0047334,0,-0.00015127,0,0,0,0.025043,0.00039183,0.0025434,-0.07991,0.0093259,0.023648,6.6033e-07,0.42,0.68,0
0.022234,-0.0004634,0.024956,0.00021824,0.0025175,3.2006e-05,0,0,0.049366,-0.0050583,0,0.00014082,0,0,0,0.024957,0.0002182,0.0025175,0.074128,0.0092307,0.023673,6.5971e-07,0.44,0.68,0
0.023221,-0.00040714,0.024881,3.1981e-05,0.0024913,8.2787e-05,0,0,0.049257,-0.0054105,0,0.00036426,0,0,0,0.024881,3.1705e-05,0.0024913,0.19088,0.0091347,0.023716,6.6027e-07,0.46,0.68,0
0.024205,-0.00035171,0.024816,-0.00015865,0.0024657,0.00011394,0,0,0.04917,-0.0057736,0,0.00050134,0,0,0,0.024816,-0.00015917,0.0024657,0.26139,0.009041,0.023772,6.6168e-07,0.48,0.68,0
0.025187,-0.00029989,0.024761,-0.00034262,0.0024418,0.00012351,0,0,0.049102,-0.0061258,0,0.00054343,0,0,0,0.024761,-0.00034323,0.0024418,0.28188,0.0089534,0.023835,6.6351e-07,0.5,0.68,0
0.026169,-0.00025444,0.024715,-0.00050806,0.0024207,0.00011231,0,0,0.049048,-0.0064433,0,0.00049418,0,0,0,0.024716,-0.00050856,0.0024207,0.25512,0.0088759,0.023895,6.6532e-07,0.52,0.68,0
0.027149,-0.00021784,0.024678,-0.00064476,0.0024033,8.372e-05,0,0,0.049005,-0.0067058,0,0.00036837,0,0,0,0.024679,-0.00064503,0.0024033,0.18942,0.0088123,0.023945,6.6679e-07,0.54,0.68,0
0.028129,-0.00019211,0.024651,-0.00074584,0.0023905,4.2396e-05,0,0,0.048973,-0.0069,0,0.00018654,0,0,0,0.024651,-0.00074591,0.0023905,0.095645,0.0087652,0.023983,6.6783e-07,0.56,0.68,0
0.029108,-0.00017869,0.024635,-0.00080786,0.0023827,-7.0833e-06,0,0,0.048954,-0.0070192,0,-3.1166e-05,0,0,0,0.024635,-0.00080786,0.0023827,-0.015951,0.0087365,0.024007,6.6848e-07,0.58,0.68,0
0.030087,-0.00017837,0.02463,-0.00082962,0.00238,-6.0914e-05,0,0,0.04895,-0.0070612,0,-0.00026802,0,0,0,0.02463,-0.00082976,0.00238,-0.13708,0.0087268,0.024016,6.6881e-07,0.6,0.68,0
0.031066,-0.00019133,0.024637,-0.00081095,0.0023826,-0.00011567,0,0,0.04896,-0.0070258,0,-0.00050894,0,0,0,0.024638,-0.00081148,0.0023826,-0.26042,0.0087362,0.024012,6.6883e-07,0.62,0.68,0
0.032045,-0.00021712,0.024655,-0.0007528,0.0023902,-0.00016743,0,0,0.048982,-0.0069146,0,-0.00073669,0,0,0,0.024656,-0.0007539,0.0023902,-0.37754,0.008764,0.023993,6.6845e-07,0.64,0.68,0
0.033025,-0.00025463,0.024681,-0.0006584,0.0024023,-0.00021139,0,0,0.049013,-0.0067335,0,-0.00093013,0,0,0,0.024683,-0.00066017,0.0024023,-0.47794,0.0088083,0.023959,6.6762e-07,0.66,0.68,0
0.034006,-0.00030215,0.024716,-0.00053458,0.0024181,-0.00024258,0,0,0.049055,-0.0064959,0,-0.0010673,0,0,0,0.024718,-0.00053691,0.0024181,-0.55037,0.0088664,0.023915,6.6644e-07,0.68,0.68,0
0.034988,-0.00035747,0.024759,-0.00039171,0.0024367,-0.00025726,0,0,0.049108,-0.0062225,0,-0.001132,0,0,0,0.024761,-0.00039434,0.0024367,-0.58599,0.0089345,0.023866,6.6519e-07,0.7,0.68,0
0.03597,-0.00041807,0.024811,-0.00024202,0.0024569,-0.00025426,0,0,0.049178,-0.0059376,0,-0.0011188,0,0,0,0.024813,-0.0002446,0.0024569,-0.58143,0.0090085,0.023822,6.6434e-07,0.72,0.68,0
0.036955,-0.0004814,0.024873,-9.7081e-05,0.0024776,-0.00023526,0,0,0.04927,-0.0056642,0,-0.0010351,0,0,0,0.024875,-9.9297e-05,0.0024776,-0.53975,0.0090844,0.023791,6.6431e-07,0.74,0.68,0
0.037941,-0.00054509,0.024945,3.4173e-05,0.0024979,-0.00020405,0,0,0.049383,-0.0054202,0,-0.00089781,0,0,0,0.024946,3.2502e-05,0.0024979,-0.46928,0.0091589,0.023777,6.6545e-07,0.76,0.68,0
0.03893,-0.00060714,0.025025,0.00014627,0.0025171,-0.0001654,0,0,0.049517,-0.0052159,0,-0.00072777,0,0,0,0.025026,0.00014517,0.0025171,-0.3809,0.0092295,0.023784,6.6787e-07,0.78,0.68,0
0.039922,-0.00066596,0.025112,0.00023691,0.0025348,-0.000124,0,0,0.049669,-0.0050555,0,-0.00054561,0,0,0,0.025112,0.00023629,0.0025348,-0.28562,0.0092944,0.02381,6.7153e-07,0.8,0.68,0
0.040917,-0.00072036,0.025201,0.00030621,0.0025508,-8.3822e-05,0,0,0.049831,-0.004938,0,-0.00036882,0,0,0,0.025202,0.00030593,0.0025508,-0.19291,0.0093528,0.023853,6.7623e-07,0.82,0.68,0
0.041915,-0.00076956,0.025291,0.00035594,0.0025647,-4.7903e-05,0,0,0.049999,-0.0048593,0,-0.00021077,0,0,0,0.025291,0.00035585,0.0025647,-0.11007,0.009404,0.023908,6.8168e-07,0.84,0.68,0
0.042917,-0.00081306,0.025378,0.00038888,0.0025767,-1.8321e-05,0,0,0.050164,-0.0048133,0,-8.0614e-05,0,0,0,0.025378,0.00038886,0.0025767,-0.042007,0.009448,0.023971,6.8756e-07,0.86,0.68,0
0.043922,-0.00085062,0.02546,0.00040835,0.0025868,3.7568e-06,0,0,0.050321,-0.0047926,0,1.653e-05,0,0,0,0.02546,0.00040835,0.0025868,0.0085922,0.009485,0.024036,6.9352e-07,0.88,0.68,0
0.04493,-0.00088217,0.025533,0.00041781,0.0025951,1.7979e-05,0,0,0.050463,-0.00479,0,7.9109e-05,0,0,0,0.025533,0.0004178,0.0025951,0.041016,0.0095153,0.0241,6.992e-07,0.9,0.68,0
0.04594,-0.00090774,0.025596,0.00042057,0.0026016,2.469e-05,0,0,0.050587,-0.0047983,0,0.00010863,0,0,0,0.025596,0.00042054,0.0026016,0.056191,0.0095393,0.024159,7.0431e-07,0.92,0.68,0
0.046953,-0.00092744,0.025646,0.00041952,0.0026066,2.479e-05,0,0,0.050688,-0.0048116,0,0.00010908,0,0,0,0.025646,0.0004195,0.0026066,0.056303,0.0095575,0.024208,7.0856e-07,0.94,0.68,0
0.047968,-0.0009414,0.025684,0.00041704,0.0026101,1.9603e-05,0,0,0.050762,-0.0048246,0,8.6251e-05,0,0,0,0.025684,0.00041702,0.0026101,0.044452,0.0095702,0.024244,7.1176e-07,0.96,0.68,0
0.048984,-0.00094973,0.025706,0.00041484,0.0026121,1.0741e-05,0,0,0.050807,-0.004834,0,4.7261e-05,0,0,0,0.025706,0.00041484,0.0026121,0.024333,0.0095777,0.024267,7.1374e-07,0.98,0.68,0
0.05,-0.0009525,0.025714,0.000414,0.0026128,-3.1439e-05,0,0,0.050822,-0.0048373,0,-0.00013833,0,0,0,0.025714,0.00041396,0.0026128,-0.071198,0.0095802,0.024275,7.1441e-07,1,0.68,0
0,0,0.025607,0.0028452,0.0028452,-0.0010954,0,0,0.050075,-8.1315e-20,0,-0.0048199,0,0,0,0.025659,0.0027926,0.0028452,-2.749,0.010432,0.02284,6.1197e-07,0,0.7,0
0.0010015,-9.6397e-05,0.02563,0.0027027,0.0028332,-0.0011089,0,0,0.050152,-0.0002872,0,-0.0048791,0,0,0,0.025683,0.0026492,0.0028332,-2.7626,0.010389,0.022943,6.2009e-07,0.02,0.7,0
0.0020061,-0.00018816,0.02569,0.0025556,0.0028246,-0.0010937,0,0,0.050304,-0.00059167,0,-0.0048121,0,0,0,0.025742,0.002504,0.0028246,-2.7006,0.010357,0.023079,6.3095e-07,0.04,0.7,0
0.0030137,-0.00027499,0.025747,0.0024036,0.002815,-0.001074,0,0,0.05045,-0.00090524,0,-0.0047255,0,0,0,0.025796,0.0023543,0.002815,-2.6286,0.010322,0.023215,6.4172e-07,0.06,0.7,0
0.0040241,-0.00035654,0.025797,0.0022502,0.0028047,-0.0010491,0,0,0.050583,-0.00122,0,-0.0046159,0,0,0,0.025844,0.0022035,0.0028047,-2.5459,0.010284,0.023346,6.5202e-07,0.08,0.7,0
0.005037,-0.0004324,0.025839,0.0020989,0.0027938,-0.0010185,0,0,0.0507,-0.0015288,0,-0.0044815,0,0,0,0.025883,0.0020553,0.0027938,-2.4521,0.010244,0.023467,6.6152e-07,0.1,0.7,0
0.0060521,-0.00050211,0.025871,0.0019528,0.0027824,-0.00098223,0,0,0.050795,-0.0018252,0,-0.0043218,0,0,0,0.025911,0.0019125,0.0027824,-2.3476,0.010202,0.023576,6.6993e-07,0.12,0.7,0
0.0070688,-0.00056523,0.025891,0.001814,0.0027705,-0.00094031,0,0,0.050865,-0.0021042,0,-0.0041373,0,0,0,0.025928,0.0017774,0.0027705,-2.2331,0.010159,0.023669,6.7701e-07,0.14,0.7,0
0.0080867,-0.00062131,0.025898,0.0016844,0.0027582,-0.00089303,0,0,0.050907,-0.0023625,0,-0.0039293,0,0,0,0.025931,0.0016515,0.0027582,-2.1093,0.010113,0.023745,6.826e-07,0.16,0.7,0
0.0091051,-0.00066997,0.025891,0.0015646,0.0027456,-0.00084072,0,0,0.050921,-0.0025982,0,-0.0036992,0,0,0,0.02592,0.0015356,0.0027456,-1.977,0.010067,0.023803,6.8662e-07,0.18,0.7,0
0.010124,-0.00071081,0.025871,0.0014549,0.0027326,-0.00078367,0,0,0.050905,-0.002811,0,-0.0034482,0,0,0,0.025896,0.0014297,0.0027326,-1.8365,0.01002,0.023842,6.8905e-07,0.2,0.7,0
0.011141,-0.00074354,0.025837,0.0013544,0.0027192,-0.00072209,0,0,0.05086,-0.0030026,0,-0.0031772,0,0,0,0.025859,0.0013331,0.0027192,-1.6879,0.0099703,0.023863,6.8995e-07,0.22,0.7,0
0.012158,-0.00076787,0.025791,0.0012617,0.0027053,-0.00065611,0,0,0.050789,-0.0031758,0,-0.0028869,0,0,0,0.025809,0.0012442,0.0027053,-1.5311,0.0099193,0.023867,6.8947e-07,0.24,0.7,0
0.013173,-0.00078362,0.025733,0.0011748,0.0026908,-0.00058581,0,0,0.050693,-0.0033352,0,-0.0025776,0,0,0,0.025747,0.0011608,0.0026908,-1.3657,0.0098662,0.023858,6.878e-07,0.26,0.7,0
0.014186,-0.00079066,0.025665,0.0010908,0.0026756,-0.00051134,0,0,0.050576,-0.0034864,0,-0.0022499,0,0,0,0.025675,0.0010802,0.0026756,-1.1915,0.0098104,0.023838,6.8518e-07,0.28,0.7,0
0.015196,-0.00078895,0.025588,0.0010068,0.0026595,-0.000433,0,0,0.050444,-0.0036361,0,-0.0019052,0,0,0,0.025596,0.00099913,0.0026595,-1.0088,0.0097516,0.02381,6.8193e-07,0.3,0.7,0
0.016203,-0.00077861,0.025506,0.00091915,0.0026425,-0.0003514,0,0,0.0503,-0.0037914,0,-0.0015462,0,0,0,0.025511,0.00091413,0.0026425,-0.81865,0.0096893,0.02378,6.7836e-07,0.32,0.7,0
0.017208,-0.00075988,0.02542,0.00082451,0.0026245,-0.0002676,0,0,0.050151,-0.00396,0,-0.0011774,0,0,0,0.025423,0.0008216,0.0026245,-0.62326,0.0096232,0.023752,6.7483e-07,0.34,0.7,0
0.018209,-0.00073323,0.025334,0.0007196,0.0026054,-0.00018324,0,0,0.050003,-0.0041487,0,-0.00080626,0,0,0,0.025336,0.00071824,0.0026054,-0.4265,0.009553,0.02373,6.7169e-07,0.36,0.7,0
0.019208,-0.00069935,0.02525,0.00060176,0.0025852,-0.00010065,0,0,0.049862,-0.0043635,0,-0.00044287,0,0,0,0.02525,0.00060135,0.0025852,-0.23397,0.009479,0.023719,6.6924e-07,0.38,0.7,0
0.020204,-0.00065925,0.025171,0.00046937,0.002564,-2.2857e-05,0,0,0.049735,-0.0046082,0,-0.00010057,0,0,0,0.025171,0.00046935,0.002564,-0.053018,0.0094013,0.023723,6.6774e-07,0.4,0.7,0
0.021197,-0.00061422,0.025098,0.00032234,0.0025421,4.6495e-05,0,0,0.049624,-0.0048834,0,0.00020458,0,0,0,0.025098,0.00032226,0.0025421,0.10752,0.0093209,0.023744,6.6732e-07,0.42,0.7,0
0.022189,-0.00056595,0.025035,0.00016265,0.0025197,0.00010341,0,0,0.049533,-0.0051856,0,0.00045499,0,0,0,0.025035,0.00016222,0.0025197,0.2382,0.0092391,0.023782,6.68e-07,0.44,0.7,0
0.023179,-0.00051643,0.024981,-5.2871e-06,0.0024976,0.00014405,0,0,0.049463,-0.0055063,0,0.00063382,0,0,0,0.024982,-6.1176e-06,0.0024976,0.33031,0.0091577,0.023835,6.6964e-07,0.46,0.7,0
0.024167,-0.00046789,0.024936,-0.00017462,0.0024762,0.00016548,0,0,0.049412,-0.0058317,0,0.00072814,0,0,0,0.024937,-0.00017571,0.0024762,0.37757,0.0090793,0.023898,6.7195e-07,0.48,0.7,0
0.025155,-0.00042271,0.0249,-0.00033672,0.0024563,0.00016638,0,0,0.049376,-0.0061447,0,0.00073209,0,0,0,0.024901,-0.00033782,0.0024563,0.37773,0.0090066,0.023964,6.7456e-07,0.5,0.7,0
0.026142,-0.00038325,0.024871,-0.00048245,0.0024389,0.00014744,0,0,0.049351,-0.0064269,0,0.00064873,0,0,0,0.024872,-0.00048331,0.0024389,0.33318,0.0089425,0.024028,6.7707e-07,0.52,0.7,0
0.027129,-0.00035164,0.024848,-0.00060358,0.0024245,0.00011122,0,0,0.049332,-0.0066617,0,0.00048936,0,0,0,0.024849,-0.00060406,0.0024245,0.25036,0.0088897,0.024082,6.7919e-07,0.54,0.7,0
0.028116,-0.00032962,0.024831,-0.0006939,0.0024137,6.1563e-05,0,0,0.049318,-0.0068368,0,0.00027088,0,0,0,0.024831,-0.00069405,0.0024137,0.13819,0.0088503,0.024122,6.8071e-07,0.56,0.7,0
0.029102,-0.00031848,0.02482,-0.00074955,0.002407,2.83e-06,0,0,0.049308,-0.0069444,0,1.2452e-05,0,0,0,0.02482,-0.00074955,0.002407,0.0063414,0.0088257,0.024146,6.8158e-07,0.58,0.7,0
0.030088,-0.00031895,0.024814,-0.00076871,0.0024045,-6.0586e-05,0,0,0.049301,-0.0069811,0,-0.00026658,0,0,0,0.024814,-0.00076886,0.0024045,-0.13569,0.0088166,0.024153,6.8175e-07,0.6,0.7,0
0.031074,-0.0003312,0.024814,-0.00075129,0.0024063,-0.00012431,0,0,0.049297,-0.0069466,0,-0.00054698,0,0,0,0.024814,-0.0007519,0.0024063,-0.2786,0.0088229,0.024143,6.8123e-07,0.62,0.7,0
0.03206,-0.00035483,0.024819,-0.00069892,0.002412,-0.00018386,0,0,0.049295,-0.006844,0,-0.000809,0,0,0,0.02482,-0.00070025,0.002412,-0.4128,0.008844,0.024116,6.8003e-07,0.64,0.7,0
0.033046,-0.00038888,0.024829,-0.00061537,0.0024214,-0.00023471,0,0,0.049297,-0.0066809,0,-0.0010327,0,0,0,0.024831,-0.00061754,0.0024214,-0.52845,0.0088784,0.024074,6.7822e-07,0.66,0.7,0
0.034032,-0.00043191,0.024845,-0.00050686,0.0024338,-0.00027277,0,0,0.049304,-0.0064694,0,-0.0012002,0,0,0,0.024848,-0.00050979,0.0024338,-0.61638,0.0089239,0.024021,6.7599e-07,0.68,0.7,0
0.035018,-0.00048207,0.024867,-0.00038178,0.0024485,-0.00029521,0,0,0.04932,-0.0062266,0,-0.0012989,0,0,0,0.02487,-0.00038523,0.0024485,-0.6698,0.0089778,0.023964,6.7364e-07,0.7,0.7,0
0.036005,-0.00053727,0.024896,-0.00024961,0.0024646,-0.00030108,0,0,0.049349,-0.0059713,0,-0.0013247,0,0,0,0.0249,-0.00025322,0.0024646,-0.68589,0.009037,0.02391,6.7155e-07,0.72,0.7,0
0.036992,-0.00059536,0.024934,-0.00011945,0.0024814,-0.00029147,0,0,0.049395,-0.0057219,0,-0.0012825,0,0,0,0.024937,-0.00012284,0.0024814,-0.66646,0.0090986,0.023865,6.701e-07,0.74,0.7,0
0.03798,-0.00065431,0.02498,1.2531e-06,0.0024981,-0.00026916,0,0,0.04946,-0.0054932,0,-0.0011843,0,0,0,0.024983,-1.6469e-06,0.0024981,-0.6173,0.0091599,0.023833,6.6959e-07,0.76,0.7,0
0.03897,-0.00071231,0.025035,0.00010742,0.0025142,-0.00023786,0,0,0.049545,-0.005295,0,-0.0010466,0,0,0,0.025037,0.00010515,0.0025142,-0.54664,0.0092188,0.023819,6.7017e-07,0.78,0.7,0
0.039962,-0.00076786,0.025096,0.00019634,0.0025292,-0.00020147,0,0,0.049647,-0.0051324,0,-0.00088646,0,0,0,0.025098,0.00019471,0.0025292,-0.46355,0.0092739,0.023822,6.7186e-07,0.8,0.7,0
0.040956,-0.0008198,0.025162,0.00026738,0.0025429,-0.00016358,0,0,0.049762,-0.0050062,0,-0.00071973,0,0,0,0.025163,0.0002663,0.0025429,-0.37645,0.009324,0.02384,6.7453e-07,0.82,0.7,0
0.041953,-0.00086726,0.02523,0.00032139,0.0025551,-0.0001271,0,0,0.049884,-0.0049141,0,-0.00055923,0,0,0,0.02523,0.00032075,0.0025551,-0.29235,0.0093687,0.023871,6.78e-07,0.84,0.7,0
0.042952,-0.00090965,0.025297,0.00036029,0.0025657,-9.4191e-05,0,0,0.050008,-0.0048519,0,-0.00041444,0,0,0,0.025297,0.00035993,0.0025657,-0.21642,0.0094075,0.023911,6.8199e-07,0.86,0.7,0
0.043953,-0.00094659,0.025361,0.00038656,0.0025747,-6.6225e-05,0,0,0.050129,-0.0048139,0,-0.00029139,0,0,0,0.025361,0.00038638,0.0025747,-0.15193,0.0094406,0.023955,6.862e-07,0.88,0.7,0
0.044957,-0.00097789,0.025419,0.00040293,0.0025822,-4.3844e-05,0,0,0.05024,-0.0047943,0,-0.00019291,0,0,0,0.025419,0.00040286,0.0025822,-0.10042,0.0094679,0.024001,6.9035e-07,0.9,0.7,0
0.045963,-0.0010035,0.025469,0.0004121,0.0025881,-2.7057e-05,0,0,0.050339,-0.0047873,0,-0.00011905,0,0,0,0.025469,0.00041207,0.0025881,-0.061868,0.0094898,0.024043,6.9415e-07,0.92,0.7,0
0.04697,-0.0010233,0.02551,0.0004165,0.0025927,-1.5345e-05,0,0,0.050419,-0.0047876,0,-6.7518e-05,0,0,0,0.02551,0.00041649,0.0025927,-0.035036,0.0095065,0.02408,6.9738e-07,0.94,0.7,0
0.047979,-0.0010374,0.025541,0.00041813,0.0025959,-7.7797e-06,0,0,0.050479,-0.0047911,0,-3.4231e-05,0,0,0,0.025541,0.00041812,0.0025959,-0.017743,0.0095183,0.024108,6.9983e-07,0.96,0.7,0
0.048989,-0.0010459,0.025559,0.00041849,0.0025978,-3.1363e-06,0,0,0.050515,-0.0047944,0,-1.38e-05,0,0,0,0.025559,0.00041849,0.0025978,-0.0071477,0.0095252,0.024125,7.0136e-07,0.98,0.7,0
0.05,-0.0010487,0.025566,0.00041851,0.0025984,-3.1951e-05,0,0,0.050528,-0.0047958,0,-0.00014058,0,0,0,0.025566,0.00041847,0.0025984,-0.072797,0.0095275,0.024131,7.0188e-07,1,0.7,0
0,0,0.025523,0.0028358,0.0028358,-0.0011614,0,0,0.049911,-6.7763e-20,0,-0.0051101,0,0,0,0.025582,0.0027765,0.0028358,-2.9229,0.010398,0.022776,6.0678e-07,0,0.72,0
0.00099822,-0.0001022,0.025546,0.002689,0.0028235,-0.0011718,0,0,0.04999,-0.00029591,0,-0.0051557,0,0,0,0.025606,0.0026291,0.0028235,-2.927,0.010353,0.022881,6.1506e-07,0.02,0.72,0
0.0019996,-0.00020013,0.025609,0.0025366,0.0028145,-0.0011539,0,0,0.050147,-0.00061136,0,-0.0050773,0,0,0,0.025666,0.0024791,0.0028145,-2.8561,0.01032,0.023021,6.2618e-07,0.04,0.72,0
0.0030041,-0.00029334,0.025667,0.0023783,0.0028045,-0.0011291,0,0,0.050298,-0.00093765,0,-0.004968,0,0,0,0.025722,0.0023237,0.0028045,-2.7692,0.010283,0.023161,6.3721e-07,0.06,0.72,0
0.0040115,-0.0003813,0.025719,0.0022182,0.0027937,-0.0010967,0,0,0.050436,-0.0012661,0,-0.0048255,0,0,0,0.02577,0.0021672,0.0027937,-2.666,0.010244,0.023296,6.4775e-07,0.08,0.72,0
0.0050215,-0.00046345,0.025763,0.0020602,0.0027823,-0.0010566,0,0,0.050557,-0.0015886,0,-0.0046488,0,0,0,0.025809,0.0020132,0.0027823,-2.5473,0.010202,0.023421,6.5747e-07,0.1,0.72,0
0.0060338,-0.0005392,0.025795,0.0019075,0.0027703,-0.0010089,0,0,0.050655,-0.0018982,0,-0.0044394,0,0,0,0.025838,0.0018649,0.0027703,-2.4143,0.010158,0.023533,6.6605e-07,0.12,0.72,0
0.0070477,-0.00060801,0.025816,0.0017627,0.0027579,-0.00095447,0,0,0.050728,-0.0021895,0,-0.0041997,0,0,0,0.025854,0.0017249,0.0027579,-2.2688,0.010112,0.02363,6.7327e-07,0.14,0.72,0
0.0080629,-0.00066937,0.025824,0.0016276,0.0027452,-0.00089389,0,0,0.050774,-0.0024587,0,-0.0039331,0,0,0,0.025857,0.0015946,0.0027452,-2.1128,0.010066,0.023708,6.7899e-07,0.16,0.72,0
0.0090787,-0.00072284,0.025819,0.001503,0.0027322,-0.00082803,0,0,0.050791,-0.0027043,0,-0.0036434,0,0,0,0.025847,0.0014748,0.0027322,-1.9481,0.010018,0.023769,6.8315e-07,0.18,0.72,0
0.010094,-0.00076804,0.025801,0.0013889,0.0027189,-0.00075767,0,0,0.050779,-0.0029262,0,-0.0033337,0,0,0,0.025824,0.0013654,0.0027189,-1.776,0.0099695,0.023811,6.8578e-07,0.2,0.72,0
0.01111,-0.00080469,0.02577,0.0012844,0.0027054,-0.00068345,0,0,0.050741,-0.0031262,0,-0.0030072,0,0,0,0.025789,0.0012653,0.0027054,-1.5976,0.0099198,0.023836,6.8699e-07,0.22,0.72,0
0.012124,-0.00083258,0.025727,0.001188,0.0026915,-0.0006059,0,0,0.050679,-0.0033078,0,-0.002666,0,0,0,0.025742,0.001173,0.0026915,-1.4136,0.009869,0.023846,6.8693e-07,0.24,0.72,0
0.013137,-0.00085162,0.025675,0.0010976,0.0026773,-0.0005255,0,0,0.050595,-0.0034753,0,-0.0023122,0,0,0,0.025686,0.0010863,0.0026773,-1.2243,0.0098167,0.023844,6.8583e-07,0.26,0.72,0
0.014148,-0.00086177,0.025615,0.0010105,0.0026625,-0.00044272,0,0,0.050495,-0.0036345,0,-0.001948,0,0,0,0.025623,0.0010025,0.0026625,-1.0305,0.0097625,0.023834,6.8396e-07,0.28,0.72,0
0.015157,-0.00086316,0.025548,0.00092381,0.0026472,-0.00035818,0,0,0.050382,-0.0037914,0,-0.001576,0,0,0,0.025553,0.0009186,0.0026472,-0.83318,0.0097063,0.023817,6.816e-07,0.3,0.72,0
0.016163,-0.00085601,0.025477,0.00083448,0.0026312,-0.00027274,0,0,0.050262,-0.0039527,0,-0.0012001,0,0,0,0.02548,0.00083146,0.0026312,-0.63403,0.0096477,0.0238,6.7907e-07,0.32,0.72,0
0.017167,-0.00084072,0.025405,0.0007395,0.0026145,-0.00018765,0,0,0.05014,-0.0041249,0,-0.00082565,0,0,0,0.025407,0.00073808,0.0026145,-0.43585,0.0095864,0.023786,6.7668e-07,0.34,0.72,0
0.018169,-0.00081788,0.025334,0.00063621,0.002597,-0.00010462,0,0,0.050021,-0.0043138,0,-0.00046033,0,0,0,0.025334,0.00063577,0.002597,-0.2427,0.0095224,0.023779,6.7473e-07,0.36,0.72,0
0.019168,-0.00078828,0.025266,0.0005226,0.0025789,-2.5901e-05,0,0,0.049912,-0.0045238,0,-0.00011397,0,0,0,0.025266,0.00052257,0.0025789,-0.059977,0.0094559,0.023782,6.7346e-07,0.38,0.72,0
0.020165,-0.00075298,0.025204,0.00039765,0.0025602,4.5753e-05,0,0,0.049816,-0.0047575,0,0.00020132,0,0,0,0.025204,0.00039757,0.0025602,0.10568,0.0093872,0.023799,6.7306e-07,0.4,0.72,0
0.021161,-0.0007133,0.025149,0.00026174,0.002541,0.00010721,0,0,0.049737,-0.0050145,0,0.00047174,0,0,0,0.025149,0.00026128,0.002541,0.24682,0.0093172,0.02383,6.7361e-07,0.42,0.72,0
0.022155,-0.00067083,0.025102,0.00011693,0.0025219,0.00015524,0,0,0.049676,-0.0052909,0,0.00068305,0,0,0,0.025103,0.00011596,0.0025219,0.35598,0.0092468,0.023875,6.7508e-07,0.44,0.72,0
0.023148,-0.00062739,0.025063,-3.2883e-05,0.002503,0.0001869,0,0,0.049632,-0.005579,0,0.00082238,0,0,0,0.025065,-3.4274e-05,0.002503,0.42668,0.0091778,0.023931,6.7731e-07,0.46,0.72,0
0.02414,-0.00058498,0.025033,-0.00018205,0.002485,0.00020011,0,0,0.049605,-0.0058676,0,0.00088047,0,0,0,0.025034,-0.00018363,0.002485,0.45467,0.0091119,0.023995,6.8005e-07,0.48,0.72,0
0.025132,-0.00054568,0.025009,-0.00032373,0.0024685,0.00019401,0,0,0.049589,-0.0061429,0,0.00085367,0,0,0,0.02501,-0.00032522,0.0024685,0.43878,0.0090512,0.02406,6.8298e-07,0.5,0.72,0
0.026124,-0.00051151,0.02499,-0.00045073,0.002454,0.00016934,0,0,0.04958,-0.0063903,0,0.00074512,0,0,0,0.024991,-0.00045185,0.002454,0.38136,0.0089979,0.024122,6.8574e-07,0.52,0.72,0
0.027115,-0.0004843,0.024976,-0.00055639,0.002442,0.00012829,0,0,0.049575,-0.0065964,0,0.00056447,0,0,0,0.024977,-0.00055704,0.002442,0.28787,0.0089539,0.024174,6.8806e-07,0.54,0.72,0
0.028107,-0.00046558,0.024965,-0.00063541,0.0024329,7.4188e-05,0,0,0.04957,-0.0067504,0,0.00032643,0,0,0,0.024965,-0.00063563,0.0024329,0.16604,0.0089208,0.024213,6.8972e-07,0.56,0.72,0
0.029098,-0.00045647,0.024956,-0.00068419,0.0024272,1.1096e-05,0,0,0.049564,-0.006845,0,4.8821e-05,0,0,0,0.024956,-0.00068419,0.0024272,0.024795,0.0088997,0.024235,6.9059e-07,0.58,0.72,0
0.030089,-0.00045762,0.024949,-0.00070091,0.0024249,-5.6601e-05,0,0,0.049554,-0.0068767,0,-0.00024904,0,0,0,0.02495,-0.00070103,0.0024249,-0.12643,0.0088912,0.024239,6.9061e-07,0.6,0.72,0
0.03108,-0.0004692,0.024945,-0.00068551,0.0024259,-0.0001244,0,0,0.049542,-0.0068452,0,-0.00054736,0,0,0,0.024945,-0.00068612,0.0024259,-0.27809,0.0088951,0.024226,6.8978e-07,0.62,0.72,0
0.032071,-0.00049088,0.024942,-0.00063972,0.0024303,-0.00018785,0,0,0.049526,-0.0067539,0,-0.00082653,0,0,0,0.024944,-0.0006411,0.0024303,-0.42069,0.0089109,0.024196,6.8814e-07,0.64,0.72,0
0.033061,-0.00052187,0.024942,-0.00056709,0.0024375,-0.00024276,0,0,0.04951,-0.0066101,0,-0.0010681,0,0,0,0.024944,-0.00056941,0.0024375,-0.5452,0.0089375,0.024151,6.8583e-07,0.66,0.72,0
0.034051,-0.00056093,0.024945,-0.00047301,0.0024472,-0.00028563,0,0,0.049495,-0.0064245,0,-0.0012568,0,0,0,0.024948,-0.00047622,0.0024472,-0.64373,0.0089731,0.024096,6.8304e-07,0.68,0.72,0
0.035041,-0.00060653,0.024953,-0.00036429,0.0024588,-0.00031406,0,0,0.049486,-0.0062109,0,-0.0013819,0,0,0,0.024956,-0.00036818,0.0024588,-0.71062,0.0090157,0.024036,6.8006e-07,0.7,0.72,0
0.036031,-0.00065692,0.024966,-0.00024844,0.0024717,-0.00032716,0,0,0.049487,-0.0059844,0,-0.0014395,0,0,0,0.02497,-0.00025268,0.0024717,-0.74325,0.009063,0.023977,6.7723e-07,0.72,0.72,0
0.03702,-0.00071027,0.024986,-0.00013274,0.0024853,-0.00032558,0,0,0.049501,-0.0057597,0,-0.0014326,0,0,0,0.02499,-0.00013696,0.0024853,-0.74249,0.0091128,0.023924,6.7487e-07,0.74,0.72,0
0.038011,-0.00076481,0.025013,-2.3364e-05,0.002499,-0.00031132,0,0,0.049532,-0.0055492,0,-0.0013698,0,0,0,0.025017,-2.7235e-05,0.002499,-0.7123,0.009163,0.023882,6.7324e-07,0.76,0.72,0
0.039002,-0.00081894,0.025048,7.5147e-05,0.0025123,-0.0002872,0,0,0.049579,-0.0053618,0,-0.0012637,0,0,0,0.025052,7.1845e-05,0.0025123,-0.65881,0.0092119,0.023853,6.7251e-07,0.78,0.72,0
0.039994,-0.00087125,0.025089,0.00016004,0.0025249,-0.0002564,0,0,0.049642,-0.0052028,0,-0.0011282,0,0,0,0.025092,0.0001574,0.0025249,-0.58921,0.0092581,0.023839,6.7273e-07,0.8,0.72,0
0.040988,-0.00092061,0.025135,0.00023019,0.0025366,-0.000222,0,0,0.049717,-0.005074,0,-0.00097678,0,0,0,0.025137,0.00022821,0.0025366,-0.51066,0.0093007,0.023839,6.7385e-07,0.82,0.72,0
0.041983,-0.00096613,0.025184,0.00028582,0.002547,-0.00018665,0,0,0.049802,-0.0049746,0,-0.00082124,0,0,0,0.025186,0.00028442,0.002547,-0.42947,0.0093391,0.023851,6.7573e-07,0.84,0.72,0
0.042979,-0.0010071,0.025234,0.0003281,0.0025562,-0.00015245,0,0,0.049891,-0.0049019,0,-0.00067078,0,0,0,0.025235,0.00032716,0.0025562,-0.35069,0.0093728,0.023872,6.7816e-07,0.86,0.72,0
0.043978,-0.0010432,0.025282,0.00035881,0.0025641,-0.00012088,0,0,0.04998,-0.0048517,0,-0.00053186,0,0,0,0.025283,0.00035822,0.0025641,-0.27787,0.0094018,0.023898,6.8092e-07,0.88,0.72,0
0.044979,-0.0010739,0.025327,0.00038004,0.0025707,-9.278e-05,0,0,0.050064,-0.0048195,0,-0.00040823,0,0,0,0.025328,0.00037969,0.0025707,-0.21308,0.009426,0.023928,6.8375e-07,0.9,0.72,0
0.045981,-0.0010992,0.025367,0.00039391,0.0025761,-6.8451e-05,0,0,0.050139,-0.0048007,0,-0.00030119,0,0,0,0.025367,0.00039373,0.0025761,-0.15705,0.0094456,0.023957,6.8644e-07,0.92,0.72,0
0.046984,-0.001119,0.025399,0.00040242,0.0025801,-4.7708e-05,0,0,0.050202,-0.004791,0,-0.00020992,0,0,0,0.025399,0.00040233,0.0025801,-0.10935,0.0094605,0.023982,6.8876e-07,0.94,0.72,0
0.047989,-0.0011331,0.025423,0.00040722,0.002583,-2.9984e-05,0,0,0.050248,-0.0047868,0,-0.00013193,0,0,0,0.025423,0.00040718,0.002583,-0.068674,0.0094711,0.024002,6.9054e-07,0.96,0.72,0
0.048994,-0.0011415,0.025438,0.00040958,0.0025847,-1.4427e-05,0,0,0.050277,-0.0047854,0,-6.3479e-05,0,0,0,0.025438,0.00040957,0.0025847,-0.033027,0.0094774,0.024015,6.9167e-07,0.98,0.72,0
0.05,-0.0011443,0.025443,0.00041028,0.0025853,-3.2049e-05,0,0,0.050287,-0.0047851,0,-0.00014101,0,0,0,0.025443,0.00041024,0.0025853,-0.073354,0.0094795,0.024019,6.9206e-07,1,0.72,0
0,0,0.025451,0.0028279,0.0028279,-0.0012299,0,0,0.04977,1.2197e-19,0,-0.0054117,0,0,0,0.025517,0.0027612,0.0028279,-3.1028,0.010369,0.022723,6.0257e-07,0,0.74,0
0.00099541,-0.00010823,0.025476,0.0026741,0.002815,-0.001237,0,0,0.049853,-0.00030993,0,-0.0054428,0,0,0,0.025542,0.0026072,0.002815,-3.0962,0.010322,0.022832,6.1114e-07,0.02,0.74,0
0.0019941,-0.00021261,0.025541,0.0025137,0.0028055,-0.0012165,0,0,0.050018,-0.00064187,0,-0.0053527,0,0,0,0.025605,0.0024496,0.0028055,-3.0158,0.010287,0.022979,6.2272e-07,0.04,0.74,0
0.0029961,-0.0003125,0.025602,0.0023466,0.0027949,-0.0011864,0,0,0.050176,-0.00098625,0,-0.0052201,0,0,0,0.025662,0.0022862,0.0027949,-2.9129,0.010248,0.023126,6.3419e-07,0.06,0.74,0
0.0040012,-0.00040719,0.025656,0.0021774,0.0027834,-0.0011462,0,0,0.050321,-0.0013332,0,-0.0050431,0,0,0,0.025712,0.0021216,0.0027834,-2.7881,0.010206,0.023267,6.4514e-07,0.08,0.74,0
0.0050089,-0.00049594,0.025702,0.0020105,0.0027712,-0.001096,0,0,0.050447,-0.0016736,0,-0.0048224,0,0,0,0.025753,0.0019599,0.0027712,-2.643,0.010161,0.023398,6.5519e-07,0.1,0.74,0
0.0060191,-0.00057804,0.025736,0.0018498,0.0027586,-0.0010367,0,0,0.050551,-0.0019993,0,-0.0045614,0,0,0,0.025781,0.0018049,0.0027586,-2.4804,0.010115,0.023514,6.6402e-07,0.12,0.74,0
0.007031,-0.0006528,0.025758,0.0016981,0.0027456,-0.00096939,0,0,0.050628,-0.0023045,0,-0.0042653,0,0,0,0.025797,0.0016591,0.0027456,-2.3035,0.010067,0.023613,6.7142e-07,0.14,0.74,0
0.0080442,-0.00071966,0.025767,0.0015573,0.0027324,-0.00089553,0,0,0.050676,-0.0025854,0,-0.0039403,0,0,0,0.0258,0.0015242,0.0027324,-2.1155,0.010019,0.023695,6.7727e-07,0.16,0.74,0
0.009058,-0.00077814,0.025763,0.001428,0.0027191,-0.00081649,0,0,0.050696,-0.0028403,0,-0.0035926,0,0,0,0.02579,0.0014006,0.0027191,-1.9196,0.0099699,0.023758,6.8155e-07,0.18,0.74,0
0.010072,-0.00082786,0.025746,0.0013102,0.0027056,-0.00073355,0,0,0.050688,-0.0030699,0,-0.0032276,0,0,0,0.025768,0.0012882,0.0027056,-1.718,0.0099204,0.023802,6.8433e-07,0.2,0.74,0
0.011085,-0.00086859,0.025717,0.0012028,0.002692,-0.00064779,0,0,0.050655,-0.0032763,0,-0.0028503,0,0,0,0.025734,0.0011857,0.002692,-1.5126,0.0098706,0.023831,6.8575e-07,0.22,0.74,0
0.012098,-0.00090018,0.025678,0.0011041,0.0026782,-0.00056011,0,0,0.0506,-0.0034631,0,-0.0024645,0,0,0,0.025691,0.0010913,0.0026782,-1.305,0.0098201,0.023846,6.86e-07,0.24,0.74,0
0.013109,-0.00092263,0.025631,0.0010119,0.0026643,-0.00047128,0,0,0.050526,-0.0036351,0,-0.0020736,0,0,0,0.02564,0.0010029,0.0026643,-1.0963,0.009769,0.02385,6.8534e-07,0.26,0.74,0
0.014119,-0.00093603,0.025577,0.00092372,0.00265,-0.00038202,0,0,0.050439,-0.0037979,0,-0.0016809,0,0,0,0.025583,0.0009178,0.00265,-0.88756,0.0097168,0.023846,6.8403e-07,0.28,0.74,0
0.015127,-0.00094061,0.025518,0.00083669,0.0026355,-0.00029315,0,0,0.050342,-0.0039573,0,-0.0012898,0,0,0,0.025522,0.00083321,0.0026355,-0.68038,0.0096635,0.023838,6.8236e-07,0.3,0.74,0
0.016133,-0.00093672,0.025457,0.00074807,0.0026205,-0.00020566,0,0,0.050241,-0.0041194,0,-0.00090489,0,0,0,0.025459,0.00074636,0.0026205,-0.47683,0.0096086,0.023831,6.8062e-07,0.32,0.74,0
0.017137,-0.00092488,0.025396,0.00065525,0.0026052,-0.00012085,0,0,0.050141,-0.0042898,0,-0.00053173,0,0,0,0.025397,0.00065466,0.0026052,-0.27985,0.0095523,0.023827,6.7908e-07,0.34,0.74,0
0.018138,-0.00090578,0.025337,0.00055603,0.0025893,-4.038e-05,0,0,0.050046,-0.0044733,0,-0.00017767,0,0,0,0.025337,0.00055597,0.0025893,-0.093359,0.0094943,0.02383,6.7799e-07,0.36,0.74,0
0.019139,-0.00088031,0.025283,0.00044889,0.0025732,3.3699e-05,0,0,0.049961,-0.0046734,0,0.00014828,0,0,0,0.025283,0.00044884,0.0025732,0.07775,0.0094349,0.023843,6.7753e-07,0.38,0.74,0
0.020137,-0.00084955,0.025233,0.00033322,0.0025567,9.9002e-05,0,0,0.049889,-0.0048916,0,0.00043561,0,0,0,0.025234,0.00033282,0.0025567,0.2278,0.0093744,0.023867,6.7785e-07,0.4,0.74,0
0.021134,-0.0008148,0.025191,0.0002096,0.0025401,0.00015294,0,0,0.049832,-0.005127,0,0.00067294,0,0,0,0.025192,0.00020866,0.0025401,0.35076,0.0093136,0.023903,6.7898e-07,0.42,0.74,0
0.02213,-0.00077759,0.025156,7.9991e-05,0.0025236,0.00019297,0,0,0.049792,-0.005376,0,0.00084906,0,0,0,0.025158,7.8506e-05,0.0025236,0.44087,0.0092533,0.02395,6.8087e-07,0.44,0.74,0
0.023126,-0.00073959,0.025129,-5.2242e-05,0.0025076,0.00021691,0,0,0.049766,-0.0056317,0,0.00095439,0,0,0,0.02513,-5.411e-05,0.0025076,0.4935,0.0091946,0.024006,6.8336e-07,0.46,0.74,0
0.024121,-0.00070259,0.025108,-0.00018248,0.0024925,0.0002233,0,0,0.049753,-0.005885,0,0.00098253,0,0,0,0.025109,-0.00018445,0.0024925,0.50585,0.0091392,0.024067,6.8622e-07,0.48,0.74,0
0.025116,-0.00066843,0.025092,-0.00030526,0.0024787,0.00021174,0,0,0.049749,-0.0061246,0,0.00093167,0,0,0,0.025094,-0.00030703,0.0024787,0.47765,0.0090884,0.024129,6.8917e-07,0.5,0.74,0
0.026111,-0.00063887,0.02508,-0.00041486,0.0024665,0.00018303,0,0,0.04975,-0.0063391,0,0.00080532,0,0,0,0.025081,-0.00041617,0.0024665,0.41129,0.009044,0.024185,6.9191e-07,0.52,0.74,0
0.027106,-0.00061549,0.025071,-0.00050592,0.0024565,0.00013915,0,0,0.049752,-0.0065174,0,0.00061225,0,0,0,0.025072,-0.00050667,0.0024565,0.31169,0.0090072,0.024233,6.9419e-07,0.54,0.74,0
0.028101,-0.00059964,0.025063,-0.00057402,0.0024489,8.3099e-05,0,0,0.049752,-0.0066505,0,0.00036564,0,0,0,0.025064,-0.00057429,0.0024489,0.18571,0.0089794,0.024268,6.9579e-07,0.56,0.74,0
0.029096,-0.00059229,0.025056,-0.00061609,0.002444,1.859e-05,0,0,0.049747,-0.0067322,0,8.1795e-05,0,0,0,0.025056,-0.0006161,0.002444,0.041489,0.0089613,0.024287,6.9657e-07,0.58,0.74,0
0.030091,-0.00059402,0.025049,-0.00063052,0.0024418,-5.0261e-05,0,0,0.049735,-0.0067592,0,-0.00022115,0,0,0,0.025049,-0.00063061,0.0024418,-0.11214,0.0089534,0.024289,6.9646e-07,0.6,0.74,0
0.031085,-0.00060501,0.025041,-0.00061727,0.0024424,-0.00011919,0,0,0.049718,-0.0067313,0,-0.00052442,0,0,0,0.025042,-0.00061783,0.0024424,-0.26614,0.0089555,0.024275,6.9545e-07,0.62,0.74,0
0.032079,-0.00062498,0.025034,-0.00057792,0.0024456,-0.00018402,0,0,0.049694,-0.0066517,0,-0.00080968,0,0,0,0.025035,-0.00057924,0.0024456,-0.41163,0.0089672,0.024244,6.9361e-07,0.64,0.74,0
0.033073,-0.00065328,0.025027,-0.00051557,0.0024512,-0.00024096,0,0,0.049667,-0.0065268,0,-0.0010602,0,0,0,0.025029,-0.00051784,0.0024512,-0.54044,0.0089876,0.0242,6.9107e-07,0.66,0.74,0
0.034066,-0.00068889,0.025022,-0.00043472,0.0024587,-0.00028689,0,0,0.049639,-0.0063656,0,-0.0012623,0,0,0,0.025025,-0.00043795,0.0024587,-0.64561,0.0090153,0.024146,6.8803e-07,0.68,0.74,0
0.035059,-0.0007305,0.02502,-0.00034089,0.0024679,-0.0003197,0,0,0.049614,-0.0061793,0,-0.0014067,0,0,0,0.025024,-0.00034492,0.0024679,-0.72213,0.0090489,0.024086,6.8475e-07,0.7,0.74,0
0.036051,-0.00077664,0.025022,-0.00024012,0.0024782,-0.00033845,0,0,0.049596,-0.0059802,0,-0.0014892,0,0,0,0.025026,-0.00024465,0.0024782,-0.76746,0.0090866,0.024026,6.8151e-07,0.72,0.74,0
0.037042,-0.00082575,0.025029,-0.00013827,0.0024891,-0.00034346,0,0,0.049588,-0.0057802,0,-0.0015112,0,0,0,0.025034,-0.00014295,0.0024891,-0.78173,0.0091266,0.023969,6.786e-07,0.74,0.74,0
0.038034,-0.00087628,0.025042,-4.0448e-05,0.0025002,-0.0003361,0,0,0.049593,-0.0055894,0,-0.0014789,0,0,0,0.025047,-4.4951e-05,0.0025002,-0.76756,0.0091674,0.023921,6.7626e-07,0.76,0.74,0
0.039026,-0.00092678,0.025062,4.937e-05,0.0025112,-0.00031851,0,0,0.049612,-0.0054159,0,-0.0014015,0,0,0,0.025066,4.5315e-05,0.0025112,-0.72945,0.0092075,0.023884,6.7463e-07,0.78,0.74,0
0.040019,-0.00097597,0.025087,0.00012856,0.0025216,-0.00029321,0,0,0.049645,-0.0052647,0,-0.0012901,0,0,0,0.025091,0.00012511,0.0025216,-0.67297,0.0092459,0.023858,6.738e-07,0.8,0.74,0
0.041012,-0.0010228,0.025118,0.00019577,0.0025313,-0.00026276,0,0,0.04969,-0.0051383,0,-0.0011562,0,0,0,0.02512,0.000193,0.0025313,-0.60401,0.0092816,0.023844,6.7375e-07,0.82,0.74,0
0.042006,-0.0010662,0.025151,0.00025077,0.0025402,-0.00022952,0,0,0.049744,-0.0050367,0,-0.0010099,0,0,0,0.025153,0.00024866,0.0025402,-0.52806,0.0093141,0.023842,6.744e-07,0.84,0.74,0
0.043002,-0.0011057,0.025186,0.00029419,0.0025481,-0.00019543,0,0,0.049804,-0.0049585,0,-0.00085989,0,0,0,0.025188,0.00029266,0.0025481,-0.4498,0.0093428,0.023848,6.756e-07,0.86,0.74,0
0.043999,-0.0011407,0.025221,0.00032723,0.0025549,-0.00016198,0,0,0.049866,-0.0049008,0,-0.0007127,0,0,0,0.025222,0.00032618,0.0025549,-0.37278,0.0093678,0.02386,6.7717e-07,0.88,0.74,0
0.044997,-0.0011707,0.025254,0.00035142,0.0025606,-0.00013014,0,0,0.049926,-0.0048601,0,-0.0005726,0,0,0,0.025255,0.00035074,0.0025606,-0.2994,0.0093888,0.023876,6.7891e-07,0.9,0.74,0
0.045996,-0.0011955,0.025284,0.0003684,0.0025652,-0.00010042,0,0,0.049981,-0.004833,0,-0.00044185,0,0,0,0.025284,0.000368,0.0025652,-0.23092,0.0094058,0.023894,6.8065e-07,0.92,0.74,0
0.046996,-0.0012149,0.025308,0.00037975,0.0025688,-7.2921e-05,0,0,0.050027,-0.0048159,0,-0.00032085,0,0,0,0.025309,0.00037953,0.0025688,-0.1676,0.009419,0.02391,6.822e-07,0.94,0.74,0
0.047997,-0.0012289,0.025327,0.0003868,0.0025714,-4.7387e-05,0,0,0.050062,-0.004806,0,-0.0002085,0,0,0,0.025327,0.00038671,0.0025714,-0.10886,0.0094283,0.023923,6.8342e-07,0.96,0.74,0
0.048998,-0.0012373,0.025338,0.0003906,0.0025729,-2.3308e-05,0,0,0.050083,-0.004801,0,-0.00010255,0,0,0,0.025338,0.00039058,0.0025729,-0.05353,0.0094338,0.023931,6.842e-07,0.98,0.74,0
0.05,-0.0012401,0.025342,0.00039179,0.0025734,-3.1822e-05,0,0,0.050091,-0.0047995,0,-0.00014002,0,0,0,0.025342,0.00039175,0.0025734,-0.073077,0.0094357,0.023934,6.8447e-07,1,0.74,0
0,0,0.025392,0.0028213,0.0028213,-0.0013023,0,0,0.049656,1.7618e-19,0,-0.00573,0,0,0,0.025467,0.0027465,0.0028213,-3.2912,0.010345,0.022683,5.9941e-07,0,0.76,0
0.00099312,-0.0001146,0.025419,0.0026579,0.0028077,-0.0013057,0,0,0.049744,-0.00032941,0,-0.0057453,0,0,0,0.025493,0.0025833,0.0028077,-3.2727,0.010295,0.022799,6.0843e-07,0.02,0.76,0
0.0019898,-0.00022581,0.025488,0.0024866,0.0027974,-0.0012825,0,0,0.049919,-0.00068374,0,-0.0056431,0,0,0,0.025559,0.0024154,0.0027974,-3.1816,0.010257,0.022955,6.2066e-07,0.04,0.76,0
0.0029899,-0.00033279,0.025553,0.0023079,0.002786,-0.0012467,0,0,0.050087,-0.001052,0,-0.0054855,0,0,0,0.025619,0.0022412,0.002786,-3.0613,0.010216,0.023111,6.3276e-07,0.06,0.76,0
0.0039932,-0.00043463,0.02561,0.002127,0.0027737,-0.001198,0,0,0.05024,-0.0014228,0,-0.0052712,0,0,0,0.025671,0.0020661,0.0027737,-2.9129,0.01017,0.023259,6.4426e-07,0.08,0.76,0
0.0049995,-0.00053039,0.025658,0.0019494,0.0027607,-0.0011371,0,0,0.050374,-0.001785,0,-0.0050031,0,0,0,0.025712,0.001895,0.0027607,-2.7395,0.010123,0.023397,6.5474e-07,0.1,0.76,0
0.0060082,-0.00061918,0.025694,0.0017793,0.0027473,-0.0010653,0,0,0.050482,-0.0021295,0,-0.0046874,0,0,0,0.025741,0.001732,0.0027473,-2.5457,0.010073,0.023518,6.6385e-07,0.12,0.76,0
0.0070187,-0.0007002,0.025716,0.0016201,0.0027336,-0.0009847,0,0,0.050561,-0.0024498,0,-0.0043327,0,0,0,0.025756,0.0015799,0.0027336,-2.3363,0.010023,0.02362,6.7141e-07,0.14,0.76,0
0.0080306,-0.00077279,0.025725,0.0014734,0.0027198,-0.00089737,0,0,0.050611,-0.002742,0,-0.0039485,0,0,0,0.025758,0.0014403,0.0027198,-2.1163,0.0099727,0.023704,6.7732e-07,0.16,0.76,0
0.0090432,-0.00083645,0.02572,0.0013401,0.0027061,-0.00080537,0,0,0.050632,-0.003005,0,-0.0035436,0,0,0,0.025747,0.0013135,0.0027061,-1.8899,0.0099222,0.023768,6.8161e-07,0.18,0.76,0
0.010056,-0.00089083,0.025704,0.0012197,0.0026923,-0.00071049,0,0,0.050625,-0.0032399,0,-0.0031261,0,0,0,0.025724,0.0011991,0.0026923,-1.6608,0.0098719,0.023814,6.844e-07,0.2,0.76,0
0.011068,-0.00093574,0.025676,0.0011108,0.0026787,-0.00061421,0,0,0.050594,-0.0034495,0,-0.0027025,0,0,0,0.025691,0.0010954,0.0026787,-1.4314,0.0098219,0.023844,6.8589e-07,0.22,0.76,0
0.01208,-0.00097111,0.025639,0.0010115,0.0026651,-0.00051771,0,0,0.050544,-0.0036379,0,-0.0022779,0,0,0,0.02565,0.0010006,0.0026651,-1.2037,0.009772,0.023861,6.8631e-07,0.24,0.76,0
0.01309,-0.00099702,0.025596,0.00091954,0.0026515,-0.00042197,0,0,0.050477,-0.0038104,0,-0.0018567,0,0,0,0.025603,0.00091233,0.0026515,-0.9794,0.0097222,0.023869,6.859e-07,0.26,0.76,0
0.014099,-0.0010137,0.025547,0.0008323,0.0026379,-0.00032785,0,0,0.050399,-0.0039723,0,-0.0014425,0,0,0,0.025551,0.00082796,0.0026379,-0.75987,0.0096723,0.02387,6.8497e-07,0.28,0.76,0
0.015106,-0.0010215,0.025495,0.00074713,0.0026242,-0.00023622,0,0,0.050315,-0.0041295,0,-0.0010394,0,0,0,0.025497,0.00074487,0.0026242,-0.54684,0.009622,0.023868,6.8377e-07,0.3,0.76,0
0.016111,-0.0010208,0.025442,0.00066146,0.0026103,-0.00014811,0,0,0.050229,-0.0042875,0,-0.00065171,0,0,0,0.025443,0.00066057,0.0026103,-0.34245,0.0095712,0.023867,6.8257e-07,0.32,0.76,0
0.017115,-0.0010123,0.02539,0.00057299,0.0025963,-6.4752e-05,0,0,0.050146,-0.0044512,0,-0.00028491,0,0,0,0.02539,0.00057282,0.0025963,-0.14949,0.0095197,0.02387,6.816e-07,0.34,0.76,0
0.018117,-0.00099681,0.025341,0.00047989,0.002582,1.236e-05,0,0,0.050069,-0.0046248,0,5.4386e-05,0,0,0,0.025341,0.00047988,0.002582,0.028487,0.0094675,0.023879,6.8109e-07,0.36,0.76,0
0.019118,-0.00097521,0.025296,0.00038095,0.0025677,8.1447e-05,0,0,0.050002,-0.0048108,0,0.00035837,0,0,0,0.025296,0.00038069,0.0025677,0.1873,0.0094149,0.023897,6.8116e-07,0.38,0.76,0
0.020117,-0.00094864,0.025257,0.00027582,0.0025533,0.00014052,0,0,0.049948,-0.0050104,0,0.00061829,0,0,0,0.025258,0.00027503,0.0025533,0.32228,0.009362,0.023925,6.819e-07,0.4,0.76,0
0.021116,-0.00091838,0.025224,0.00016516,0.0025389,0.00018752,0,0,0.049908,-0.0052223,0,0.00082507,0,0,0,0.025226,0.00016375,0.0025389,0.42871,0.0093094,0.023963,6.8334e-07,0.42,0.76,0
0.022114,-0.00088586,0.025198,5.0696e-05,0.0025249,0.00022049,0,0,0.049881,-0.0054432,0,0.00097017,0,0,0,0.0252,4.8762e-05,0.0025249,0.50232,0.0092579,0.024009,6.8539e-07,0.44,0.76,0
0.023111,-0.00085266,0.025178,-6.4716e-05,0.0025114,0.00023788,0,0,0.049867,-0.0056674,0,0.0010467,0,0,0,0.025181,-6.6957e-05,0.0025114,0.53986,0.0092083,0.024062,6.8791e-07,0.46,0.76,0
0.024108,-0.00082038,0.025164,-0.00017731,0.0024987,0.00023874,0,0,0.049864,-0.0058872,0,0.0010505,0,0,0,0.025166,-0.00017956,0.0024987,0.53972,0.0091618,0.024119,6.9069e-07,0.48,0.76,0
0.025105,-0.00079067,0.025154,-0.00028272,0.0024871,0.000223,0,0,0.049867,-0.0060936,0,0.0009812,0,0,0,0.025156,-0.00028468,0.0024871,0.50226,0.0091194,0.024174,6.935e-07,0.5,0.76,0
0.026103,-0.00076508,0.025147,-0.00037638,0.002477,0.00019155,0,0,0.049873,-0.0062775,0,0.00084284,0,0,0,0.025148,-0.00037781,0.002477,0.42998,0.0090824,0.024225,6.9607e-07,0.52,0.76,0
0.0271,-0.000745,0.025141,-0.00045399,0.0024687,0.00014627,0,0,0.049878,-0.0064298,0,0.0006436,0,0,0,0.025142,-0.00045482,0.0024687,0.32743,0.0090518,0.024267,6.9818e-07,0.54,0.76,0
0.028098,-0.0007316,0.025135,-0.00051197,0.0024623,8.9869e-05,0,0,0.04988,-0.0065434,0,0.00039542,0,0,0,0.025135,-0.00051229,0.0024623,0.20077,0.0090285,0.024297,6.9962e-07,0.56,0.76,0
0.029096,-0.00072576,0.025129,-0.00054777,0.0024581,2.5704e-05,0,0,0.049875,-0.0066129,0,0.0001131,0,0,0,0.025129,-0.0005478,0.0024581,0.057358,0.009013,0.024313,7.0027e-07,0.58,0.76,0
0.030093,-0.00072798,0.025121,-0.00056005,0.0024561,-4.2467e-05,0,0,0.049862,-0.0066355,0,-0.00018686,0,0,0,0.025121,-0.00056012,0.0024561,-0.094746,0.0090056,0.024314,7.0005e-07,0.6,0.76,0
0.03109,-0.00073845,0.025112,-0.00054881,0.0024563,-0.00011075,0,0,0.049842,-0.0066112,0,-0.00048729,0,0,0,0.025112,-0.00054929,0.0024563,-0.24727,0.0090064,0.024299,6.9896e-07,0.62,0.76,0
0.032087,-0.00075695,0.025101,-0.00051539,0.0024586,-0.00017535,0,0,0.049814,-0.0065428,0,-0.00077154,0,0,0,0.025103,-0.00051659,0.0024586,-0.39217,0.0090149,0.024269,6.9706e-07,0.64,0.76,0
0.033083,-0.00078294,0.025091,-0.00046237,0.0024628,-0.00023286,0,0,0.049781,-0.0064354,0,-0.0010246,0,0,0,0.025093,-0.00046449,0.0024628,-0.52207,0.0090303,0.024227,6.9447e-07,0.66,0.76,0
0.034078,-0.00081555,0.02508,-0.00039345,0.0024687,-0.00028048,0,0,0.049745,-0.0062966,0,-0.0012341,0,0,0,0.025083,-0.00039654,0.0024687,-0.63076,0.0090518,0.024175,6.9138e-07,0.68,0.76,0
0.035072,-0.0008537,0.025071,-0.00031311,0.0024758,-0.00031626,0,0,0.04971,-0.0061356,0,-0.0013916,0,0,0,0.025075,-0.00031705,0.0024758,-0.7137,0.009078,0.024117,6.88e-07,0.7,0.76,0
0.036066,-0.00089613,0.025065,-0.00022618,0.0024839,-0.00033925,0,0,0.049679,-0.0059622,0,-0.0014927,0,0,0,0.02507,-0.00023073,0.0024839,-0.76835,0.0091077,0.024059,6.846e-07,0.72,0.76,0
0.03706,-0.00094148,0.025064,-0.00013741,0.0024926,-0.00034946,0,0,0.049656,-0.0057861,0,-0.0015376,0,0,0,0.025068,-0.00014225,0.0024926,-0.7943,0.0091396,0.024002,6.814e-07,0.74,0.76,0
0.038053,-0.00098839,0.025067,-5.1034e-05,0.0025015,-0.00034781,0,0,0.049643,-0.0056157,0,-0.0015303,0,0,0,0.025071,-5.585e-05,0.0025015,-0.79318,0.0091724,0.023951,6.7862e-07,0.76,0.76,0
0.039045,-0.0010356,0.025075,2.9537e-05,0.0025104,-0.00033587,0,0,0.049641,-0.0054579,0,-0.0014778,0,0,0,0.025079,2.5034e-05,0.0025104,-0.76818,0.0092049,0.023909,6.764e-07,0.78,0.76,0
0.040038,-0.0010818,0.025088,0.00010189,0.002519,-0.00031562,0,0,0.049652,-0.0053176,0,-0.0013887,0,0,0,0.025092,9.7909e-05,0.002519,-0.7236,0.0092362,0.023876,6.7484e-07,0.8,0.76,0
0.041031,-0.0011261,0.025105,0.00016463,0.002527,-0.00028916,0,0,0.049672,-0.0051972,0,-0.0012723,0,0,0,0.025109,0.00016128,0.002527,-0.66417,0.0092657,0.023853,6.7394e-07,0.82,0.76,0
0.042025,-0.0011676,0.025126,0.00021724,0.0025343,-0.00025852,0,0,0.049702,-0.0050976,0,-0.0011375,0,0,0,0.025129,0.00021455,0.0025343,-0.59455,0.0092926,0.023839,6.7366e-07,0.84,0.76,0
0.04302,-0.0012055,0.025149,0.00025994,0.0025409,-0.00022545,0,0,0.049738,-0.0050181,0,-0.00099197,0,0,0,0.025151,0.0002579,0.0025409,-0.51893,0.0093167,0.023834,6.739e-07,0.86,0.76,0
0.044015,-0.0012392,0.025173,0.0002935,0.0025467,-0.00019138,0,0,0.049778,-0.0049569,0,-0.00084208,0,0,0,0.025174,0.00029203,0.0025467,-0.44071,0.0093377,0.023835,6.7453e-07,0.88,0.76,0
0.045011,-0.0012683,0.025196,0.00031899,0.0025515,-0.00015736,0,0,0.049818,-0.0049115,0,-0.00069239,0,0,0,0.025197,0.00031799,0.0025515,-0.36241,0.0093555,0.023841,6.7541e-07,0.9,0.76,0
0.046007,-0.0012925,0.025217,0.00033764,0.0025554,-0.00012405,0,0,0.049855,-0.0048792,0,-0.0005458,0,0,0,0.025218,0.00033702,0.0025554,-0.28566,0.00937,0.023849,6.7637e-07,0.92,0.76,0
0.047005,-0.0013116,0.025234,0.00035066,0.0025585,-9.1743e-05,0,0,0.049887,-0.0048573,0,-0.00040367,0,0,0,0.025235,0.00035033,0.0025585,-0.21124,0.0093812,0.023857,6.7729e-07,0.94,0.76,0
0.048003,-0.0013253,0.025248,0.00035913,0.0025607,-6.0469e-05,0,0,0.049912,-0.0048435,0,-0.00026606,0,0,0,0.025248,0.00035898,0.0025607,-0.1392,0.0093892,0.023864,6.7804e-07,0.96,0.76,0
0.049001,-0.0013335,0.025256,0.00036385,0.002562,-3.0011e-05,0,0,0.049927,-0.0048359,0,-0.00013205,0,0,0,0.025256,0.00036382,0.002562,-0.069077,0.009394,0.023869,6.7852e-07,0.98,0.76,0
0.05,-0.0013363,0.025259,0.00036537,0.0025624,-3.1359e-05,0,0,0.049932,-0.0048335,0,-0.00013798,0,0,0,0.025259,0.00036533,0.0025624,-0.072176,0.0093956,0.023871,6.787e-07,1,0.76,0
0,0,0.025348,0.0028165,0.0028165,-0.0013797,0,0,0.04957,-2.7105e-20,0,-0.0060705,0,0,0,0.025433,0.0027323,0.0028165,-3.4909,0.010327,0.022658,5.9743e-07,0,0.78,0
0.00099141,-0.00012141,0.025377,0.0026405,0.0028017,-0.0013791,0,0,0.049665,-0.00035465,0,-0.0060681,0,0,0,0.02546,0.0025572,0.0028017,-3.4585,0.010273,0.022782,6.0703e-07,0.02,0.78,0
0.0019866,-0.00023996,0.025451,0.0024552,0.0027906,-0.0013529,0,0,0.049853,-0.00073796,0,-0.0059527,0,0,0,0.02553,0.0023759,0.0027906,-3.3554,0.010232,0.02295,6.2014e-07,0.04,0.78,0
0.0029855,-0.00035458,0.02552,0.0022615,0.0027782,-0.0013107,0,0,0.050033,-0.0011368,0,-0.0057671,0,0,0,0.025594,0.0021878,0.0027782,-3.2152,0.010187,0.023117,6.3306e-07,0.06,0.78,0
0.0039879,-0.0004641,0.025581,0.0020662,0.0027647,-0.0012525,0,0,0.050196,-0.0015369,0,-0.0055109,0,0,0,0.025648,0.0019996,0.0027647,-3.0402,0.010137,0.023275,6.4523e-07,0.08,0.78,0
0.0049934,-0.00056734,0.025631,0.0018756,0.0027506,-0.0011795,0,0,0.050337,-0.0019251,0,-0.0051898,0,0,0,0.025689,0.0018172,0.0027506,-2.8356,0.010086,0.023419,6.5617e-07,0.1,0.78,0
0.0060014,-0.00066322,0.025667,0.001695,0.0027362,-0.0010942,0,0,0.050448,-0.0022906,0,-0.0048143,0,0,0,0.025717,0.0016452,0.0027362,-2.6079,0.010033,0.023545,6.6554e-07,0.12,0.78,0
0.0070113,-0.0007508,0.025689,0.0015279,0.0027217,-0.00099937,0,0,0.050528,-0.0026263,0,-0.0043972,0,0,0,0.02573,0.0014867,0.0027217,-2.3645,0.0099795,0.02365,6.7316e-07,0.14,0.78,0
0.0080225,-0.00082935,0.025696,0.0013761,0.0027072,-0.00089817,0,0,0.050576,-0.0029285,0,-0.0039519,0,0,0,0.025729,0.001343,0.0027072,-2.1122,0.0099265,0.023734,6.7898e-07,0.16,0.78,0
0.0090343,-0.00089834,0.02569,0.0012398,0.002693,-0.00079332,0,0,0.050594,-0.003197,0,-0.0034906,0,0,0,0.025716,0.0012141,0.002693,-1.8564,0.0098743,0.023797,6.8311e-07,0.18,0.78,0
0.010046,-0.00095746,0.025672,0.0011182,0.002679,-0.00068711,0,0,0.050585,-0.0034338,0,-0.0030233,0,0,0,0.025691,0.001099,0.002679,-1.6017,0.0098231,0.023842,6.8574e-07,0.2,0.78,0
0.011058,-0.0010066,0.025644,0.0010096,0.0026654,-0.00058133,0,0,0.050553,-0.0036427,0,-0.0025579,0,0,0,0.025658,0.00099588,0.0026654,-1.3511,0.009773,0.023871,6.871e-07,0.22,0.78,0
0.012068,-0.0010457,0.025608,0.00091171,0.002652,-0.00047734,0,0,0.050503,-0.0038286,0,-0.0021003,0,0,0,0.025617,0.00090248,0.002652,-1.1069,0.0097239,0.023888,6.8747e-07,0.24,0.78,0
0.013078,-0.001075,0.025566,0.000822,0.0026388,-0.00037617,0,0,0.05044,-0.003997,0,-0.0016552,0,0,0,0.025572,0.00081628,0.0026388,-0.87077,0.0096757,0.023897,6.8713e-07,0.26,0.78,0
0.014086,-0.0010949,0.025521,0.00073782,0.0026259,-0.00027869,0,0,0.050369,-0.0041537,0,-0.0012262,0,0,0,0.025524,0.00073469,0.0026259,-0.6442,0.0096282,0.0239,6.8636e-07,0.28,0.78,0
0.015093,-0.0011058,0.025474,0.00065657,0.002613,-0.00018574,0,0,0.050293,-0.0043042,0,-0.00081724,0,0,0,0.025475,0.00065518,0.002613,-0.42878,0.0095811,0.023901,6.8542e-07,0.3,0.78,0
0.016098,-0.0011082,0.025427,0.00057586,0.0026003,-9.8223e-05,0,0,0.050218,-0.0044537,0,-0.00043218,0,0,0,0.025427,0.00057547,0.0026003,-0.22646,0.0095343,0.023904,6.8454e-07,0.32,0.78,0
0.017101,-0.0011029,0.025382,0.00049362,0.0025876,-1.7229e-05,0,0,0.050148,-0.0046067,0,-7.5809e-05,0,0,0,0.025382,0.00049361,0.0025876,-0.039664,0.0094877,0.02391,6.8394e-07,0.34,0.78,0
0.018104,-0.0010908,0.025341,0.00040826,0.0025749,5.5971e-05,0,0,0.050084,-0.0047666,0,0.00024627,0,0,0,0.025341,0.00040813,0.0025749,0.12862,0.0094412,0.023923,6.8376e-07,0.36,0.78,0
0.019105,-0.0010727,0.025304,0.00031881,0.0025623,0.00011991,0,0,0.050031,-0.0049356,0,0.00052762,0,0,0,0.025304,0.00031823,0.0025623,0.27498,0.009395,0.023943,6.8413e-07,0.38,0.78,0
0.020105,-0.00105,0.025273,0.00022505,0.0025498,0.00017301,0,0,0.04999,-0.0051144,0,0.00076126,0,0,0,0.025274,0.00022385,0.0025498,0.39574,0.0093492,0.023972,6.8509e-07,0.4,0.78,0
0.021104,-0.0010237,0.025247,0.0001276,0.0025375,0.00021368,0,0,0.049962,-0.0053018,0,0.00094019,0,0,0,0.025249,0.00012578,0.0025375,0.48733,0.0093042,0.024009,6.8664e-07,0.42,0.78,0
0.022103,-0.00099532,0.025228,2.7965e-05,0.0025256,0.00024048,0,0,0.049945,-0.0054948,0,0.0010581,0,0,0,0.02523,2.567e-05,0.0025256,0.5467,0.0092606,0.024052,6.8869e-07,0.44,0.78,0
0.023102,-0.00096628,0.025214,-7.1497e-05,0.0025143,0.00025235,0,0,0.04994,-0.0056887,0,0.0011103,0,0,0,0.025217,-7.4015e-05,0.0025143,0.57174,0.009219,0.024101,6.9112e-07,0.46,0.78,0
0.024101,-0.00093808,0.025205,-0.00016774,0.0025037,0.00024876,0,0,0.049942,-0.0058771,0,0.0010945,0,0,0,0.025207,-0.00017018,0.0025037,0.56168,0.0091802,0.024152,6.9372e-07,0.48,0.78,0
0.0251,-0.00091218,0.025198,-0.00025726,0.0024941,0.0002299,0,0,0.049949,-0.006053,0,0.0010115,0,0,0,0.025201,-0.00025934,0.0024941,0.51739,0.0091451,0.024201,6.963e-07,0.5,0.78,0
0.026099,-0.00088997,0.025194,-0.00033643,0.0024858,0.00019673,0,0,0.049958,-0.0062088,0,0.00086561,0,0,0,0.025196,-0.00033795,0.0024858,0.44147,0.0091145,0.024245,6.9863e-07,0.52,0.78,0
0.027098,-0.00087269,0.02519,-0.00040184,0.0024788,0.00015104,0,0,0.049965,-0.0063375,0,0.00066457,0,0,0,0.025191,-0.00040273,0.0024788,0.33813,0.0090891,0.024282,7.0051e-07,0.54,0.78,0
0.028098,-0.00086138,0.025186,-0.00045061,0.0024736,9.5296e-05,0,0,0.049968,-0.0064332,0,0.0004193,0,0,0,0.025187,-0.00045097,0.0024736,0.21297,0.0090697,0.024307,7.0177e-07,0.56,0.78,0
0.029097,-0.0008568,0.02518,-0.00048068,0.00247,3.253e-05,0,0,0.049963,-0.0064914,0,0.00014313,0,0,0,0.02518,-0.00048072,0.00247,0.072633,0.0090565,0.02432,7.0228e-07,0.58,0.78,0
0.030096,-0.00085944,0.025173,-0.00049098,0.0024682,-3.3887e-05,0,0,0.04995,-0.0065101,0,-0.0001491,0,0,0,0.025173,-0.00049102,0.0024682,-0.075655,0.0090499,0.024319,7.0198e-07,0.6,0.78,0
0.031095,-0.00086946,0.025163,-0.00048151,0.0024681,-0.00010046,0,0,0.049928,-0.0064891,0,-0.00044201,0,0,0,0.025163,-0.0004819,0.0024681,-0.22444,0.0090497,0.024304,7.0087e-07,0.62,0.78,0
0.032093,-0.00088669,0.02515,-0.00045337,0.0024697,-0.00016379,0,0,0.049898,-0.0064308,0,-0.00072067,0,0,0,0.025152,-0.00045442,0.0024697,-0.3665,0.0090556,0.024276,6.9899e-07,0.64,0.78,0
0.033091,-0.0009107,0.025137,-0.0004087,0.0024728,-0.00022082,0,0,0.049862,-0.0063394,0,-0.00097161,0,0,0,0.025139,-0.00041061,0.0024728,-0.49522,0.0090671,0.024237,6.9647e-07,0.66,0.78,0
0.034088,-0.00094076,0.025123,-0.00035046,0.0024773,-0.00026904,0,0,0.049821,-0.0062211,0,-0.0011838,0,0,0,0.025126,-0.0003533,0.0024773,-0.60503,0.0090834,0.024189,6.9344e-07,0.68,0.78,0
0.035084,-0.00097593,0.02511,-0.00028226,0.0024828,-0.00030663,0,0,0.04978,-0.0060831,0,-0.0013492,0,0,0,0.025114,-0.00028596,0.0024828,-0.69175,0.0091036,0.024135,6.9011e-07,0.7,0.78,0
0.036079,-0.0010151,0.025099,-0.00020798,0.0024891,-0.0003326,0,0,0.049742,-0.0059336,0,-0.0014635,0,0,0,0.025103,-0.00021236,0.0024891,-0.75285,0.0091267,0.024079,6.8669e-07,0.72,0.78,0
0.037073,-0.0010572,0.025091,-0.00013147,0.0024959,-0.00034677,0,0,0.049708,-0.0057802,0,-0.0015258,0,0,0,0.025095,-0.00013624,0.0024959,-0.78753,0.0091517,0.024024,6.8338e-07,0.74,0.78,0
0.038067,-0.0011009,0.025086,-5.6218e-05,0.002503,-0.00034968,0,0,0.049682,-0.0056302,0,-0.0015386,0,0,0,0.025091,-6.108e-05,0.002503,-0.79666,0.0091775,0.023973,6.8037e-07,0.76,0.78,0
0.039061,-0.0011451,0.025085,1.4898e-05,0.00251,-0.00034247,0,0,0.049665,-0.0054893,0,-0.0015069,0,0,0,0.02509,1.0221e-05,0.00251,-0.78249,0.0092034,0.023928,6.7779e-07,0.78,0.78,0
0.040054,-0.0011887,0.025089,7.9727e-05,0.0025169,-0.00032667,0,0,0.049658,-0.0053617,0,-0.0014373,0,0,0,0.025093,7.5461e-05,0.0025169,-0.74823,0.0092284,0.023891,6.7574e-07,0.8,0.78,0
0.041047,-0.0012307,0.025096,0.0001369,0.0025233,-0.00030398,0,0,0.04966,-0.0052501,0,-0.0013375,0,0,0,0.0251,0.0001332,0.0025233,-0.69767,0.0092522,0.023862,6.7424e-07,0.82,0.78,0
0.04204,-0.0012702,0.025107,0.00018576,0.0025293,-0.00027611,0,0,0.049671,-0.0051557,0,-0.0012149,0,0,0,0.02511,0.0001827,0.0025293,-0.63469,0.009274,0.023841,6.7328e-07,0.84,0.78,0
0.043034,-0.0013065,0.02512,0.00022628,0.0025346,-0.00024462,0,0,0.049688,-0.0050784,0,-0.0010764,0,0,0,0.025122,0.00022387,0.0025346,-0.56296,0.0092936,0.023827,6.728e-07,0.86,0.78,0
0.044028,-0.0013389,0.025134,0.00025887,0.0025393,-0.00021086,0,0,0.049709,-0.005017,0,-0.0009278,0,0,0,0.025136,0.00025708,0.0025393,-0.48564,0.0093108,0.02382,6.727e-07,0.88,0.78,0
0.045022,-0.0013671,0.025149,0.00028427,0.0025433,-0.00017588,0,0,0.049732,-0.0049699,0,-0.00077386,0,0,0,0.02515,0.00028302,0.0025433,-0.40525,0.0093254,0.023817,6.7289e-07,0.9,0.78,0
0.046017,-0.0013907,0.025162,0.00030336,0.0025466,-0.00014042,0,0,0.049755,-0.004935,0,-0.00061785,0,0,0,0.025163,0.00030257,0.0025466,-0.32363,0.0093374,0.023818,6.7324e-07,0.92,0.78,0
0.047012,-0.0014092,0.025174,0.00031706,0.0025491,-0.00010497,0,0,0.049775,-0.0049105,0,-0.00046186,0,0,0,0.025174,0.00031662,0.0025491,-0.24195,0.0093467,0.02382,6.7364e-07,0.94,0.78,0
0.048008,-0.0014226,0.025183,0.00032619,0.0025509,-6.9745e-05,0,0,0.049791,-0.0048944,0,-0.00030688,0,0,0,0.025183,0.00032599,0.0025509,-0.16076,0.0093533,0.023823,6.74e-07,0.96,0.78,0
0.049004,-0.0014307,0.025189,0.00033139,0.002552,-3.4789e-05,0,0,0.0498,-0.0048853,0,-0.00015307,0,0,0,0.025189,0.00033134,0.002552,-0.080189,0.0093573,0.023825,6.7425e-07,0.98,0.78,0
0.05,-0.0014334,0.025191,0.00033307,0.0025524,-3.0739e-05,0,0,0.049804,-0.0048824,0,-0.00013525,0,0,0,0.025191,0.00033303,0.0025524,-0.070853,0.0093586,0.023825,6.7434e-07,1,0.78,0
0,0,0.025322,0.0028135,0.0028135,-0.0014635,0,0,0.049518,-5.421e-20,0,-0.0064393,0,0,0,0.025416,0.0027187,0.0028135,-3.7046,0.010316,0.02265,5.9679e-07,0,0.8,0
0.00099035,-0.00012878,0.025352,0.0026218,0.0027974,-0.0014583,0,0,0.049621,-0.00038627,0,-0.0064163,0,0,0,0.025445,0.0025286,0.0027974,-3.6558,0.010257,0.022784,6.0713e-07,0.02,0.8,0
0.0019848,-0.00025533,0.025433,0.0024186,0.0027851,-0.0014285,0,0,0.049824,-0.00080628,0,-0.0062853,0,0,0,0.025521,0.0023303,0.0027851,-3.5383,0.010212,0.022967,6.2135e-07,0.04,0.8,0
0.0029833,-0.00037826,0.025507,0.0022061,0.0027713,-0.0013787,0,0,0.050018,-0.0012433,0,-0.0060665,0,0,0,0.025588,0.0021248,0.0027713,-3.3746,0.010161,0.023147,6.3526e-07,0.06,0.8,0
0.0039856,-0.00049611,0.025571,0.0019931,0.0027564,-0.0013093,0,0,0.050192,-0.0016792,0,-0.0057608,0,0,0,0.025643,0.0019207,0.0027564,-3.1686,0.010107,0.023316,6.4821e-07,0.08,0.8,0
0.004991,-0.00060739,0.025622,0.0017876,0.0027409,-0.0012224,0,0,0.050338,-0.0020973,0,-0.0053784,0,0,0,0.025684,0.0017251,0.0027409,-2.9283,0.01005,0.023468,6.5961e-07,0.1,0.8,0
0.0059991,-0.0007108,0.025657,0.0015956,0.0027252,-0.0011217,0,0,0.05045,-0.0024852,0,-0.0049355,0,0,0,0.025709,0.0015435,0.0027252,-2.6633,0.0099926,0.023597,6.6912e-07,0.12,0.8,0
0.007009,-0.00080525,0.025676,0.0014209,0.0027097,-0.0010115,0,0,0.050526,-0.0028352,0,-0.0044506,0,0,0,0.025718,0.0013788,0.0027097,-2.3839,0.0099355,0.023702,6.7659e-07,0.14,0.8,0
0.0080201,-0.00088993,0.02568,0.001265,0.0026945,-0.00089589,0,0,0.050567,-0.0031448,0,-0.0039419,0,0,0,0.025712,0.0012321,0.0026945,-2.0987,0.0098796,0.023783,6.8209e-07,0.16,0.8,0
0.0090317,-0.00096433,0.025669,0.0011274,0.0026797,-0.00077834,0,0,0.050577,-0.0034149,0,-0.0034247,0,0,0,0.025694,0.0011028,0.0026797,-1.8147,0.0098255,0.023842,6.858e-07,0.18,0.8,0
0.010043,-0.0010282,0.025648,0.0010067,0.0026655,-0.00066154,0,0,0.050561,-0.0036492,0,-0.0029108,0,0,0,0.025666,0.00098899,0.0026655,-1.5368,0.0097733,0.023882,6.88e-07,0.2,0.8,0
0.011054,-0.0010815,0.025617,0.00090057,0.0026518,-0.00054745,0,0,0.050524,-0.0038526,0,-0.0024088,0,0,0,0.025629,0.00088845,0.0026518,-1.2682,0.0097231,0.023908,6.89e-07,0.22,0.8,0
0.012064,-0.0011243,0.02558,0.00080622,0.0026386,-0.00043741,0,0,0.050471,-0.0040313,0,-0.0019246,0,0,0,0.025588,0.0007985,0.0026386,-1.0112,0.0096749,0.023922,6.8911e-07,0.24,0.8,0
0.013073,-0.0011569,0.025538,0.00072087,0.0026259,-0.00033238,0,0,0.050408,-0.0041912,0,-0.0014624,0,0,0,0.025543,0.00071642,0.0026259,-0.76716,0.0096285,0.023929,6.8863e-07,0.26,0.8,0
0.01408,-0.0011798,0.025495,0.00064178,0.0026137,-0.00023307,0,0,0.050339,-0.0043382,0,-0.0010255,0,0,0,0.025497,0.00063959,0.0026137,-0.53726,0.0095835,0.023932,6.8783e-07,0.28,0.8,0
0.015086,-0.0011936,0.025451,0.00056635,0.0026018,-0.00014017,0,0,0.050269,-0.0044779,0,-0.00061676,0,0,0,0.025452,0.00056556,0.0026018,-0.32272,0.0095399,0.023934,6.8696e-07,0.3,0.8,0
0.016091,-0.0011989,0.025409,0.00049233,0.0025902,-5.4394e-05,0,0,0.050202,-0.0046152,0,-0.00023933,0,0,0,0.025409,0.00049222,0.0025902,-0.12508,0.0094973,0.023937,6.8623e-07,0.32,0.8,0
0.017095,-0.0011966,0.02537,0.00041784,0.0025788,2.3411e-05,0,0,0.050141,-0.0047541,0,0.00010301,0,0,0,0.02537,0.00041781,0.0025788,0.053757,0.0094556,0.023945,6.858e-07,0.34,0.8,0
0.018097,-0.0011875,0.025335,0.00034146,0.0025676,9.224e-05,0,0,0.050088,-0.0048976,0,0.00040586,0,0,0,0.025335,0.00034112,0.0025676,0.21145,0.0094147,0.023959,6.8581e-07,0.36,0.8,0
0.019098,-0.0011726,0.025305,0.00026238,0.0025567,0.00015096,0,0,0.050046,-0.0050475,0,0.0006642,0,0,0,0.025306,0.00026147,0.0025567,0.34536,0.0093746,0.023979,6.8632e-07,0.38,0.8,0
0.020099,-0.0011532,0.02528,0.00018043,0.002546,0.00019835,0,0,0.050015,-0.0052043,0,0.00087273,0,0,0,0.025282,0.00017886,0.002546,0.45274,0.0093355,0.024007,6.8736e-07,0.4,0.8,0
0.021099,-0.0011305,0.025261,9.6171e-05,0.0025357,0.00023325,0,0,0.049995,-0.005367,0,0.0010263,0,0,0,0.025263,9.4009e-05,0.0025357,0.531,0.0092976,0.024041,6.8891e-07,0.42,0.8,0
0.022099,-0.0011057,0.025247,1.0854e-05,0.0025258,0.00025465,0,0,0.049986,-0.0055328,0,0.0011205,0,0,0,0.025249,8.2849e-06,0.0025258,0.57808,0.0092612,0.024081,6.9087e-07,0.44,0.8,0
0.023098,-0.0010802,0.025237,-7.3601e-05,0.0025164,0.00026188,0,0,0.049987,-0.005698,0,0.0011523,0,0,0,0.02524,-7.631e-05,0.0025164,0.59273,0.0092268,0.024125,6.9313e-07,0.46,0.8,0
0.024098,-0.0010555,0.025232,-0.00015474,0.0025077,0.00025474,0,0,0.049993,-0.0058574,0,0.0011208,0,0,0,0.025234,-0.0001573,0.0025077,0.57485,0.0091949,0.02417,6.9552e-07,0.48,0.8,0
0.025098,-0.0010328,0.025229,-0.0002298,0.0024999,0.00023359,0,0,0.050003,-0.0060053,0,0.0010278,0,0,0,0.025231,-0.00023194,0.0024999,0.52566,0.0091663,0.024213,6.9785e-07,0.5,0.8,0
0.026098,-0.0010134,0.025227,-0.00029588,0.0024931,0.00019949,0,0,0.050014,-0.0061357,0,0.00087775,0,0,0,0.025228,-0.00029744,0.0024931,0.4478,0.0091413,0.024251,6.9993e-07,0.52,0.8,0
0.027099,-0.0009985,0.025225,-0.0003503,0.0024874,0.0001541,0,0,0.050022,-0.006243,0,0.00067803,0,0,0,0.025226,-0.00035123,0.0024874,0.34521,0.0091206,0.024282,7.0158e-07,0.54,0.8,0
0.028099,-0.00098893,0.025222,-0.00039078,0.0024831,9.9683e-05,0,0,0.050025,-0.0063225,0,0.00043861,0,0,0,0.025222,-0.00039117,0.0024831,0.22299,0.0091047,0.024304,7.0267e-07,0.56,0.8,0
0.029099,-0.00098541,0.025217,-0.00041568,0.0024801,3.8964e-05,0,0,0.05002,-0.0063707,0,0.00017144,0,0,0,0.025217,-0.00041574,0.0024801,0.087095,0.0090937,0.024314,7.0306e-07,0.58,0.8,0
0.0301,-0.00098839,0.025209,-0.00042416,0.0024785,-2.5052e-05,0,0,0.050007,-0.0063858,0,-0.00011023,0,0,0,0.025209,-0.00042418,0.0024785,-0.055996,0.0090878,0.024312,7.0272e-07,0.6,0.8,0
0.0311,-0.00099802,0.025199,-0.00041621,0.0024782,-8.9249e-05,0,0,0.049985,-0.0063678,0,-0.00039269,0,0,0,0.025199,-0.00041653,0.0024782,-0.19963,0.0090869,0.024298,7.0163e-07,0.62,0.8,0
0.032099,-0.0010142,0.025186,-0.00039275,0.0024793,-0.00015061,0,0,0.049955,-0.0063186,0,-0.00066268,0,0,0,0.025187,-0.00039364,0.0024793,-0.33735,0.0090909,0.024272,6.9983e-07,0.64,0.8,0
0.033098,-0.0010365,0.025171,-0.00035547,0.0024816,-0.0002064,0,0,0.049917,-0.0062415,0,-0.00090817,0,0,0,0.025173,-0.00035714,0.0024816,-0.46324,0.0090992,0.024236,6.9743e-07,0.66,0.8,0
0.034096,-0.0010644,0.025156,-0.00030676,0.0024849,-0.00025436,0,0,0.049875,-0.0061416,0,-0.0011192,0,0,0,0.025158,-0.0003093,0.0024849,-0.57228,0.0091112,0.024192,6.9454e-07,0.68,0.8,0
0.035093,-0.001097,0.025139,-0.00024948,0.002489,-0.00029278,0,0,0.049831,-0.0060247,0,-0.0012882,0,0,0,0.025143,-0.00025286,0.002489,-0.66061,0.0091264,0.024142,6.9134e-07,0.7,0.8,0
0.036089,-0.0011335,0.025125,-0.00018675,0.0024938,-0.00032068,0,0,0.049787,-0.0058972,0,-0.001411,0,0,0,0.025129,-0.00019081,0.0024938,-0.72574,0.0091438,0.024089,6.88e-07,0.72,0.8,0
0.037084,-0.0011727,0.025111,-0.00012166,0.002499,-0.00033769,0,0,0.049747,-0.0057653,0,-0.0014858,0,0,0,0.025116,-0.00012617,0.002499,-0.76661,0.0091629,0.024037,6.847e-07,0.74,0.8,0
0.038079,-0.0012136,0.025101,-5.7053e-05,0.0025044,-0.00034412,0,0,0.049712,-0.0056351,0,-0.0015141,0,0,0,0.025105,-6.1759e-05,0.0025044,-0.78352,0.0091827,0.023987,6.8159e-07,0.76,0.8,0
0.039073,-0.0012551,0.025093,4.6446e-06,0.0025098,-0.00034075,0,0,0.049684,-0.0055113,0,-0.0014993,0,0,0,0.025098,1.7469e-08,0.0025098,-0.77799,0.0092026,0.023942,6.7881e-07,0.78,0.8,0
0.040066,-0.0012963,0.025089,6.1572e-05,0.0025151,-0.00032874,0,0,0.049663,-0.0053978,0,-0.0014465,0,0,0,0.025094,5.7255e-05,0.0025151,-0.75241,0.009222,0.023903,6.7644e-07,0.8,0.8,0
0.041059,-0.0013361,0.025089,0.00011246,0.0025201,-0.00030947,0,0,0.049651,-0.0052969,0,-0.0013617,0,0,0,0.025093,0.00010863,0.0025201,-0.70978,0.0092405,0.02387,6.7453e-07,0.82,0.8,0
0.042052,-0.0013738,0.025091,0.00015661,0.0025248,-0.00028436,0,0,0.049646,-0.00521,0,-0.0012512,0,0,0,0.025094,0.00015337,0.0025248,-0.6533,0.0092575,0.023844,6.7308e-07,0.84,0.8,0
0.043045,-0.0014086,0.025096,0.00019383,0.002529,-0.00025479,0,0,0.049647,-0.0051373,0,-0.0011211,0,0,0,0.025099,0.00019122,0.002529,-0.58614,0.009273,0.023825,6.7206e-07,0.86,0.8,0
0.044038,-0.0014399,0.025102,0.00022429,0.0025327,-0.00022198,0,0,0.049654,-0.0050784,0,-0.00097672,0,0,0,0.025104,0.00022231,0.0025327,-0.51118,0.0092865,0.023811,6.7141e-07,0.88,0.8,0
0.045031,-0.0014671,0.02511,0.00024848,0.0025358,-0.00018697,0,0,0.049663,-0.0050322,0,-0.00082268,0,0,0,0.025111,0.00024707,0.0025358,-0.43087,0.009298,0.023802,6.7106e-07,0.9,0.8,0
0.046025,-0.00149,0.025117,0.00026701,0.0025384,-0.00015056,0,0,0.049673,-0.0049971,0,-0.00066248,0,0,0,0.025118,0.0002661,0.0025384,-0.34713,0.0093075,0.023797,6.7092e-07,0.92,0.8,0
0.047018,-0.001508,0.025124,0.00028055,0.0025404,-0.00011335,0,0,0.049683,-0.0049717,0,-0.00049872,0,0,0,0.025124,0.00028003,0.0025404,-0.2614,0.0093149,0.023795,6.7092e-07,0.94,0.8,0
0.048012,-0.0015211,0.025129,0.00028971,0.0025419,-7.571e-05,0,0,0.049691,-0.0049547,0,-0.00033312,0,0,0,0.025129,0.00028948,0.0025419,-0.17464,0.0093201,0.023793,6.7097e-07,0.96,0.8,0
0.049006,-0.001529,0.025132,0.000295,0.0025427,-3.7887e-05,0,0,0.049697,-0.004945,0,-0.0001667,0,0,0,0.025132,0.00029494,0.0025427,-0.0874,0.0093233,0.023793,6.7102e-07,0.98,0.8,0
0.05,-0.0015316,0.025133,0.00029672,0.002543,-3.0033e-05,0,0,0.049699,-0.0049418,0,-0.00013215,0,0,0,0.025133,0.00029669,0.002543,-0.069284,0.0093244,0.023793,6.7105e-07,1,0.8,0
0,0,0.025315,0.0028127,0.0028127,-0.0015552,0,0,0.049504,8.1315e-20,0,-0.006843,0,0,0,0.025421,0.0027057,0.0028127,-3.9351,0.010313,0.022662,5.9774e-07,0,0.82,0
0.00099008,-0.00013686,0.025348,0.0026016,0.002795,-0.0015443,0,0,0.049617,-0.00042536,0,-0.0067951,0,0,0,0.025452,0.0024972,0.002795,-3.8664,0.010248,0.022808,6.0901e-07,0.02,0.82,0
0.0019847,-0.00027221,0.025435,0.0023758,0.0027811,-0.0015101,0,0,0.049839,-0.00089165,0,-0.0066444,0,0,0,0.025534,0.0022773,0.0027811,-3.7309,0.010197,0.023009,6.2459e-07,0.04,0.82,0
0.0029836,-0.00040431,0.025515,0.0021398,0.0027655,-0.0014508,0,0,0.050049,-0.0013764,0,-0.0063835,0,0,0,0.025604,0.0020501,0.0027655,-3.5381,0.01014,0.023205,6.397e-07,0.06,0.82,0
0.0039866,-0.00053127,0.025582,0.0019055,0.0027487,-0.0013674,0,0,0.050232,-0.0018551,0,-0.0060165,0,0,0,0.02566,0.0018268,0.0027487,-3.2945,0.010079,0.023386,6.5346e-07,0.08,0.82,0
0.0049929,-0.00065123,0.025631,0.0016829,0.0027314,-0.0012637,0,0,0.05038,-0.0023067,0,-0.0055603,0,0,0,0.025698,0.0016164,0.0027314,-3.0122,0.010015,0.023544,6.6521e-07,0.1,0.82,0
0.0060018,-0.00076262,0.025663,0.0014793,0.0027142,-0.0011453,0,0,0.050487,-0.0027168,0,-0.0050394,0,0,0,0.025717,0.0014252,0.0027142,-2.7054,0.0099521,0.023674,6.7461e-07,0.12,0.82,0
0.0070124,-0.00086421,0.025676,0.0012981,0.0026974,-0.0010182,0,0,0.050552,-0.0030784,0,-0.0044801,0,0,0,0.025718,0.0012557,0.0026974,-2.3876,0.0098904,0.023774,6.8161e-07,0.14,0.82,0
0.0080239,-0.00095514,0.025672,0.0011401,0.0026812,-0.00088764,0,0,0.05058,-0.0033905,0,-0.0039056,0,0,0,0.025704,0.001108,0.0026812,-2.0695,0.0098311,0.023849,6.8642e-07,0.16,0.82,0
0.0090356,-0.0010349,0.025655,0.0010037,0.0026658,-0.00075777,0,0,0.050576,-0.0036566,0,-0.0033342,0,0,0,0.025678,0.00098046,0.0026658,-1.7591,0.0097748,0.023899,6.8937e-07,0.18,0.82,0
0.010047,-0.0011034,0.025627,0.0008865,0.0026513,-0.00063146,0,0,0.050546,-0.0038826,0,-0.0027784,0,0,0,0.025643,0.00087039,0.0026513,-1.4611,0.0097215,0.023932,6.9083e-07,0.2,0.82,0
0.011057,-0.0011607,0.025591,0.00078526,0.0026377,-0.00051059,0,0,0.050498,-0.0040753,0,-0.0022466,0,0,0,0.025602,0.00077475,0.0026377,-1.1787,0.0096714,0.02395,6.9119e-07,0.22,0.82,0
0.012067,-0.001207,0.025551,0.00069675,0.0026248,-0.00039628,0,0,0.050438,-0.0042417,0,-0.0017436,0,0,0,0.025557,0.00069044,0.0026248,-0.91321,0.0096242,0.023958,6.9081e-07,0.24,0.82,0
0.013075,-0.0012427,0.025508,0.00061787,0.0026126,-0.00028918,0,0,0.050371,-0.0043885,0,-0.0012724,0,0,0,0.025512,0.00061451,0.0026126,-0.66553,0.0095797,0.023961,6.8999e-07,0.26,0.82,0
0.014082,-0.0012684,0.025466,0.00054573,0.0026011,-0.00018974,0,0,0.050302,-0.0045219,0,-0.00083484,0,0,0,0.025467,0.00054429,0.0026011,-0.43621,0.0095376,0.023961,6.89e-07,0.28,0.82,0
0.015087,-0.0012849,0.025425,0.00047779,0.0025902,-9.8348e-05,0,0,0.050236,-0.0046474,0,-0.00043273,0,0,0,0.025425,0.0004774,0.0025902,-0.22587,0.0094975,0.023961,6.8806e-07,0.3,0.82,0
0.016091,-0.0012928,0.025386,0.00041188,0.0025798,-1.5463e-05,0,0,0.050174,-0.0047694,0,-6.8038e-05,0,0,0,0.025386,0.00041187,0.0025798,-0.035476,0.0094593,0.023964,6.8734e-07,0.32,0.82,0
0.017094,-0.0012931,0.025352,0.00034628,0.0025698,5.834e-05,0,0,0.05012,-0.0048917,0,0.00025669,0,0,0,0.025352,0.00034615,0.0025698,0.13367,0.0094226,0.023971,6.8697e-07,0.34,0.82,0
0.018096,-0.0012867,0.025322,0.00027974,0.0025602,0.00012235,0,0,0.050076,-0.0050169,0,0.00053833,0,0,0,0.025323,0.00027914,0.0025602,0.27992,0.0093873,0.023984,6.8705e-07,0.36,0.82,0
0.019097,-0.0012746,0.025298,0.00021155,0.0025509,0.00017574,0,0,0.050042,-0.0051466,0,0.00077326,0,0,0,0.025299,0.00021032,0.0025509,0.40136,0.0093533,0.024004,6.8761e-07,0.38,0.82,0
0.020098,-0.0012581,0.025278,0.00014155,0.002542,0.00021765,0,0,0.05002,-0.005281,0,0.00095766,0,0,0,0.02528,0.00013967,0.002542,0.49605,0.0093206,0.02403,6.8867e-07,0.4,0.82,0
0.021098,-0.0012384,0.025264,7.0218e-05,0.0025335,0.00024726,0,0,0.050008,-0.0054191,0,0.0010879,0,0,0,0.025267,6.7792e-05,0.0025335,0.56224,0.0092894,0.024061,6.9017e-07,0.42,0.82,0
0.022098,-0.0012166,0.025255,-1.4396e-06,0.0025254,0.00026391,0,0,0.050006,-0.005559,0,0.0011612,0,0,0,0.025258,-4.1971e-06,0.0025254,0.59861,0.0092597,0.024097,6.9203e-07,0.44,0.82,0
0.023098,-0.0011942,0.02525,-7.1879e-05,0.0025178,0.00026725,0,0,0.050011,-0.0056973,0,0.0011759,0,0,0,0.025253,-7.4699e-05,0.0025178,0.60462,0.009232,0.024136,6.9412e-07,0.46,0.82,0
0.024098,-0.0011724,0.025248,-0.00013915,0.0025109,0.0002573,0,0,0.050021,-0.0058301,0,0.0011321,0,0,0,0.02525,-0.00014176,0.0025109,0.58062,0.0092065,0.024175,6.963e-07,0.48,0.82,0
0.025099,-0.0011524,0.025248,-0.00020107,0.0025047,0.00023459,0,0,0.050034,-0.0059526,0,0.0010322,0,0,0,0.02525,-0.00020323,0.0025047,0.5281,0.0091837,0.024213,6.984e-07,0.5,0.82,0
0.0261,-0.0011354,0.025248,-0.00025538,0.0024993,0.00020016,0,0,0.050047,-0.0060602,0,0.00088072,0,0,0,0.025249,-0.00025695,0.0024993,0.44965,0.0091639,0.024246,7.0027e-07,0.52,0.82,0
0.027101,-0.0011224,0.025248,-0.00029996,0.0024948,0.00015562,0,0,0.050056,-0.0061484,0,0.00068472,0,0,0,0.025249,-0.0003009,0.0024948,0.34899,0.0091475,0.024273,7.0173e-07,0.54,0.82,0
0.028102,-0.0011143,0.025246,-0.00033302,0.0024913,0.00010301,0,0,0.05006,-0.0062135,0,0.00045323,0,0,0,0.025246,-0.00033344,0.0024913,0.23073,0.0091347,0.024291,7.0267e-07,0.56,0.82,0
0.029103,-0.0011116,0.025242,-0.0003533,0.0024888,4.4773e-05,0,0,0.050056,-0.0062527,0,0.000197,0,0,0,0.025242,-0.00035338,0.0024888,0.10023,0.0091257,0.024299,7.0299e-07,0.58,0.82,0
0.030104,-0.0011149,0.025235,-0.00036011,0.0024875,-1.641e-05,0,0,0.050044,-0.0062647,0,-7.2204e-05,0,0,0,0.025235,-0.00036013,0.0024875,-0.036735,0.0091207,0.024296,7.0264e-07,0.6,0.82,0
0.031105,-0.0011242,0.025225,-0.00035349,0.0024871,-7.7781e-05,0,0,0.050023,-0.0062493,0,-0.00034223,0,0,0,0.025225,-0.00035373,0.0024871,-0.17423,0.0091194,0.024283,7.016e-07,0.62,0.82,0
0.032105,-0.0011394,0.025212,-0.00033414,0.0024878,-0.00013666,0,0,0.049993,-0.0062082,0,-0.00060131,0,0,0,0.025212,-0.00033487,0.0024878,-0.3065,0.0091218,0.024259,6.9992e-07,0.64,0.82,0
0.033105,-0.0011604,0.025196,-0.00030341,0.0024893,-0.00019062,0,0,0.049956,-0.006144,0,-0.00083871,0,0,0,0.025198,-0.00030484,0.0024893,-0.42827,0.0091274,0.024227,6.9767e-07,0.66,0.82,0
0.034103,-0.0011864,0.025179,-0.00026319,0.0024916,-0.00023759,0,0,0.049913,-0.0060606,0,-0.0010454,0,0,0,0.025182,-0.00026541,0.0024916,-0.53499,0.0091359,0.024187,6.9496e-07,0.68,0.82,0
0.035101,-0.0012169,0.025161,-0.00021573,0.0024946,-0.00027603,0,0,0.049867,-0.0059627,0,-0.0012145,0,0,0,0.025164,-0.00021874,0.0024946,-0.62312,0.0091468,0.024141,6.9192e-07,0.7,0.82,0
0.036098,-0.001251,0.025144,-0.00016351,0.002498,-0.00030492,0,0,0.04982,-0.0058554,0,-0.0013417,0,0,0,0.025147,-0.00016719,0.002498,-0.69022,0.0091594,0.024093,6.8871e-07,0.72,0.82,0
0.037094,-0.0012878,0.025127,-0.000109,0.0025018,-0.00032383,0,0,0.049775,-0.0057437,0,-0.0014249,0,0,0,0.025131,-0.00011316,0.0025018,-0.73507,0.0091732,0.024044,6.8548e-07,0.74,0.82,0
0.038089,-0.0013263,0.025112,-5.4506e-05,0.0025057,-0.00033284,0,0,0.049733,-0.0056325,0,-0.0014645,0,0,0,0.025116,-5.8908e-05,0.0025057,-0.75758,0.0091877,0.023996,6.8237e-07,0.76,0.82,0
0.039083,-0.0013656,0.025099,-2.0139e-06,0.0025097,-0.00033247,0,0,0.049697,-0.0055258,0,-0.0014629,0,0,0,0.025104,-6.4168e-06,0.0025097,-0.75872,0.0092023,0.023951,6.7949e-07,0.78,0.82,0
0.040077,-0.0014046,0.025089,4.6894e-05,0.0025136,-0.00032362,0,0,0.049666,-0.0054268,0,-0.0014239,0,0,0,0.025093,4.2713e-05,0.0025136,-0.74026,0.0092166,0.023911,6.7692e-07,0.8,0.82,0
0.04107,-0.0014425,0.025082,9.1089e-05,0.0025173,-0.00030736,0,0,0.049642,-0.0053377,0,-0.0013524,0,0,0,0.025086,8.731e-05,0.0025173,-0.70453,0.0092301,0.023876,6.7473e-07,0.82,0.82,0
0.042063,-0.0014785,0.025078,0.00012989,0.0025207,-0.0002849,0,0,0.049625,-0.0052599,0,-0.0012535,0,0,0,0.025081,0.00012664,0.0025207,-0.65419,0.0092427,0.023847,6.7293e-07,0.84,0.82,0
0.043055,-0.0015119,0.025076,0.00016301,0.0025238,-0.00025741,0,0,0.049614,-0.0051938,0,-0.0011326,0,0,0,0.025078,0.00016035,0.0025238,-0.59194,0.0092541,0.023824,6.7151e-07,0.86,0.82,0
0.044047,-0.0015421,0.025075,0.00019049,0.0025266,-0.00022603,0,0,0.049607,-0.0051394,0,-0.00099455,0,0,0,0.025077,0.00018844,0.0025266,-0.52037,0.0092641,0.023806,6.7045e-07,0.88,0.82,0
0.045039,-0.0015684,0.025077,0.00021261,0.0025289,-0.00019174,0,0,0.049605,-0.0050959,0,-0.00084364,0,0,0,0.025078,0.00021113,0.0025289,-0.4418,0.0092727,0.023793,6.6968e-07,0.9,0.82,0
0.046031,-0.0015905,0.025079,0.00022979,0.0025308,-0.00015535,0,0,0.049605,-0.0050623,0,-0.00068354,0,0,0,0.025079,0.00022882,0.0025308,-0.35819,0.0092797,0.023783,6.6916e-07,0.92,0.82,0
0.047024,-0.0016081,0.025081,0.0002425,0.0025323,-0.00011754,0,0,0.049606,-0.0050376,0,-0.00051716,0,0,0,0.025081,0.00024194,0.0025323,-0.27112,0.0092852,0.023777,6.6883e-07,0.94,0.82,0
0.048016,-0.0016208,0.025083,0.0002512,0.0025334,-7.8799e-05,0,0,0.049608,-0.0050208,0,-0.00034671,0,0,0,0.025083,0.00025095,0.0025334,-0.18182,0.0092891,0.023773,6.6864e-07,0.96,0.82,0
0.049008,-0.0016285,0.025084,0.00025626,0.002534,-3.9522e-05,0,0,0.04961,-0.0050111,0,-0.0001739,0,0,0,0.025084,0.0002562,0.002534,-0.091208,0.0092914,0.023771,6.6854e-07,0.98,0.82,0
0.05,-0.0016311,0.025084,0.00025792,0.0025342,-2.93e-05,0,0,0.04961,-0.0050079,0,-0.00012892,0,0,0,0.025084,0.00025788,0.0025342,-0.067621,0.0092922,0.02377,6.6851e-07,1,0.82,0
0,0,0.025332,0.0028147,0.0028147,-0.0016568,0,0,0.049538,2.7105e-20,0,-0.00729,0,0,0,0.025453,0.0026934,0.0028147,-4.1858,0.01032,0.022699,6.0066e-07,0,0.84,0
0.00099076,-0.0001458,0.025369,0.0025794,0.0027948,-0.0016386,0,0,0.049662,-0.00047384,0,-0.0072098,0,0,0,0.025486,0.0024622,0.0027948,-4.0916,0.010248,0.022859,6.1306e-07,0.02,0.84,0
0.0019865,-0.00029099,0.025464,0.0023247,0.0027788,-0.0015982,0,0,0.049907,-0.00099909,0,-0.0070321,0,0,0,0.025574,0.0022148,0.0027788,-3.9325,0.010189,0.023082,6.3033e-07,0.04,0.84,0
0.002987,-0.00043332,0.025548,0.0020592,0.0027607,-0.0015261,0,0,0.050133,-0.0015435,0,-0.006715,0,0,0,0.025647,0.0019604,0.0027607,-3.7019,0.010123,0.023297,6.4681e-07,0.06,0.84,0
0.0039918,-0.00057031,0.025615,0.0017993,0.0027415,-0.0014246,0,0,0.050323,-0.0020729,0,-0.0062682,0,0,0,0.0257,0.0017143,0.0027415,-3.411,0.010052,0.023489,6.6135e-07,0.08,0.84,0
0.005,-0.00069966,0.025661,0.0015582,0.0027219,-0.0013,0,0,0.050466,-0.0025603,0,-0.00572,0,0,0,0.025731,0.0014882,0.0027219,-3.0784,0.0099804,0.02365,6.7317e-07,0.1,0.84,0
0.0060105,-0.00081947,0.025684,0.0013437,0.0027028,-0.0011608,0,0,0.050559,-0.0029899,0,-0.0051077,0,0,0,0.025739,0.0012885,0.0027028,-2.7243,0.0099102,0.023775,6.8201e-07,0.12,0.84,0
0.0070223,-0.00092838,0.025686,0.0011586,0.0026845,-0.0010152,0,0,0.050603,-0.003357,0,-0.0044668,0,0,0,0.025728,0.0011166,0.0026845,-2.3661,0.009843,0.023866,6.8802e-07,0.14,0.84,0
0.0080346,-0.0010256,0.02567,0.0010016,0.0026672,-0.00086954,0,0,0.050607,-0.0036642,0,-0.003826,0,0,0,0.025701,0.00097104,0.0026672,-2.0163,0.0097798,0.023927,6.9164e-07,0.16,0.84,0
0.0090466,-0.0011106,0.025642,0.00086987,0.0026512,-0.00072835,0,0,0.05058,-0.0039189,0,-0.0032047,0,0,0,0.025663,0.00084847,0.0026512,-1.6827,0.009721,0.023964,6.9337e-07,0.18,0.84,0
0.010058,-0.0011835,0.025604,0.00075924,0.0026364,-0.0005943,0,0,0.05053,-0.0041297,0,-0.0026149,0,0,0,0.025619,0.00074503,0.0026364,-1.3695,0.0096667,0.023984,6.9373e-07,0.2,0.84,0
0.011068,-0.0012445,0.025562,0.00066568,0.0026227,-0.0004688,0,0,0.050466,-0.0043055,0,-0.0020627,0,0,0,0.02557,0.00065686,0.0026227,-1.0784,0.0096167,0.023991,6.9318e-07,0.22,0.84,0
0.012076,-0.0012939,0.025517,0.00058538,0.0026102,-0.00035246,0,0,0.050394,-0.0044546,0,-0.0015508,0,0,0,0.025522,0.0005804,0.0026102,-0.80978,0.0095708,0.023991,6.921e-07,0.24,0.84,0
0.013084,-0.0013324,0.025472,0.00051493,0.0025987,-0.00024545,0,0,0.050321,-0.0045843,0,-0.00108,0,0,0,0.025474,0.00051252,0.0025987,-0.56343,0.0095285,0.023987,6.9079e-07,0.26,0.84,0
0.014089,-0.0013607,0.025429,0.00045139,0.0025881,-0.0001478,0,0,0.05025,-0.0047007,0,-0.00065033,0,0,0,0.02543,0.00045052,0.0025881,-0.33902,0.0094895,0.023982,6.8949e-07,0.28,0.84,0
0.015094,-0.0013795,0.02539,0.00039227,0.0025782,-5.9537e-05,0,0,0.050185,-0.004809,0,-0.00026196,0,0,0,0.02539,0.00039213,0.0025782,-0.13646,0.0094534,0.02398,6.8838e-07,0.3,0.84,0
0.016097,-0.0013897,0.025355,0.00033553,0.002569,1.9206e-05,0,0,0.050128,-0.0049137,0,8.4508e-05,0,0,0,0.025355,0.00033552,0.002569,0.043984,0.0094197,0.02398,6.8759e-07,0.32,0.84,0
0.017099,-0.0013923,0.025325,0.00027961,0.0025604,8.8142e-05,0,0,0.050081,-0.0050178,0,0.00038783,0,0,0,0.025325,0.0002793,0.0025604,0.20164,0.0093882,0.023987,6.8723e-07,0.34,0.84,0
0.0181,-0.0013882,0.0253,0.0002234,0.0025523,0.00014684,0,0,0.050045,-0.0051237,0,0.00064611,0,0,0,0.025301,0.00022254,0.0025523,0.3355,0.0093586,0.023998,6.8735e-07,0.36,0.84,0
0.0191,-0.0013785,0.025281,0.00016626,0.0025447,0.00019477,0,0,0.05002,-0.0052326,0,0.000857,0,0,0,0.025282,0.00016475,0.0025447,0.44431,0.0093306,0.024016,6.8794e-07,0.38,0.84,0
0.020101,-0.0013644,0.025267,0.00010807,0.0025375,0.00023136,0,0,0.050005,-0.0053448,0,0.001018,0,0,0,0.025269,0.00010595,0.0025375,0.52682,0.0093043,0.02404,6.89e-07,0.4,0.84,0
0.021101,-0.0013472,0.025259,4.9181e-05,0.0025308,0.00025607,0,0,0.050001,-0.0054595,0,0.0011267,0,0,0,0.025261,4.658e-05,0.0025308,0.58192,0.0092795,0.024069,6.9047e-07,0.42,0.84,0
0.022101,-0.001328,0.025254,-9.5998e-06,0.0025245,0.00026853,0,0,0.050006,-0.0055749,0,0.0011815,0,0,0,0.025257,-1.2454e-05,0.0025245,0.60892,0.0092564,0.024101,6.9225e-07,0.44,0.84,0
0.023101,-0.0013081,0.025253,-6.7056e-05,0.0025186,0.00026861,0,0,0.050016,-0.0056885,0,0.0011819,0,0,0,0.025256,-6.9905e-05,0.0025186,0.60773,0.009235,0.024136,6.9422e-07,0.46,0.84,0
0.024101,-0.0012887,0.025255,-0.00012166,0.0025133,0.00025651,0,0,0.050031,-0.005797,0,0.0011286,0,0,0,0.025257,-0.00012426,0.0025133,0.57908,0.0092155,0.024171,6.9625e-07,0.48,0.84,0
0.025102,-0.0012709,0.025258,-0.00017172,0.0025086,0.00023284,0,0,0.050048,-0.0058967,0,0.0010245,0,0,0,0.02526,-0.00017385,0.0025086,0.52456,0.0091982,0.024204,6.982e-07,0.5,0.84,0
0.026103,-0.0012558,0.02526,-0.00021546,0.0025045,0.00019865,0,0,0.050063,-0.0059839,0,0.00087404,0,0,0,0.025262,-0.00021701,0.0025045,0.44672,0.0091831,0.024233,6.999e-07,0.52,0.84,0
0.027105,-0.0012444,0.025262,-0.00025126,0.0025011,0.00015542,0,0,0.050075,-0.0060552,0,0.00068383,0,0,0,0.025263,-0.00025221,0.0025011,0.349,0.0091707,0.024256,7.0124e-07,0.54,0.84,0
0.028106,-0.0012375,0.025262,-0.00027774,0.0024984,0.00010502,0,0,0.05008,-0.0061076,0,0.00046208,0,0,0,0.025263,-0.00027817,0.0024984,0.23559,0.0091609,0.024272,7.0209e-07,0.56,0.84,0
0.029108,-0.0012355,0.025259,-0.0002939,0.0024965,4.9634e-05,0,0,0.050078,-0.006139,0,0.00021839,0,0,0,0.025259,-0.000294,0.0024965,0.11129,0.0091539,0.024279,7.0238e-07,0.58,0.84,0
0.030109,-0.001239,0.025253,-0.00029924,0.0024954,-8.3602e-06,0,0,0.050067,-0.0061482,0,-3.6785e-05,0,0,0,0.025253,-0.00029925,0.0024954,-0.018746,0.0091498,0.024276,7.0206e-07,0.6,0.84,0
0.031111,-0.001248,0.025244,-0.00029377,0.002495,-6.6524e-05,0,0,0.050047,-0.0061353,0,-0.0002927,0,0,0,0.025244,-0.00029395,0.002495,-0.14925,0.0091483,0.024264,7.011e-07,0.62,0.84,0
0.032111,-0.0012625,0.025231,-0.00027805,0.0024953,-0.00012249,0,0,0.050019,-0.0061014,0,-0.00053894,0,0,0,0.025232,-0.00027864,0.0024953,-0.2751,0.0091494,0.024243,6.9955e-07,0.64,0.84,0
0.033111,-0.0012823,0.025215,-0.00025313,0.0024962,-0.00017408,0,0,0.049982,-0.0060486,0,-0.00076594,0,0,0,0.025217,-0.00025432,0.0024962,-0.39159,0.0091529,0.024213,6.9747e-07,0.66,0.84,0
0.034111,-0.0013068,0.025198,-0.00022047,0.0024977,-0.00021945,0,0,0.04994,-0.00598,0,-0.00096559,0,0,0,0.0252,-0.00022237,0.0024977,-0.49463,0.0091583,0.024177,6.9494e-07,0.68,0.84,0
0.035109,-0.0013355,0.025178,-0.00018185,0.0024997,-0.00025717,0,0,0.049893,-0.0058993,0,-0.0011316,0,0,0,0.025181,-0.00018446,0.0024997,-0.58094,0.0091654,0.024136,6.9208e-07,0.7,0.84,0
0.036106,-0.0013677,0.025159,-0.00013919,0.0025019,-0.00028625,0,0,0.049844,-0.0058105,0,-0.0012595,0,0,0,0.025162,-0.00014243,0.0025019,-0.64821,0.0091737,0.024091,6.8903e-07,0.72,0.84,0
0.037103,-0.0014024,0.025143,-9.6373e-05,0.0025046,-0.00030266,0,0,0.049804,-0.0057222,0,-0.0013317,0,0,0,0.025146,-0.0001,0.0025046,-0.68693,0.0091836,0.02405,6.8627e-07,0.74,0.84,0
0.038098,-0.0014389,0.025116,-5.0783e-05,0.0025065,-0.00031801,0,0,0.049741,-0.0056261,0,-0.0013993,0,0,0,0.02512,-5.48e-05,0.0025065,-0.72385,0.0091906,0.023997,6.8254e-07,0.76,0.84,0
0.039093,-0.0014762,0.025107,-4.9391e-06,0.0025102,-0.00031836,0,0,0.049712,-0.0055332,0,-0.0014008,0,0,0,0.025111,-8.9746e-06,0.0025102,-0.72623,0.0092039,0.02396,6.8015e-07,0.78,0.84,0
0.040086,-0.0015134,0.025085,3.6532e-05,0.0025121,-0.00031003,0,0,0.04966,-0.0054463,0,-0.0013641,0,0,0,0.025089,3.2695e-05,0.0025121,-0.70903,0.0092112,0.023913,6.7691e-07,0.8,0.84,0
0.041079,-0.0015497,0.025078,7.5568e-05,0.0025154,-0.00030129,0,0,0.049638,-0.0053675,0,-0.0013257,0,0,0,0.025082,7.1938e-05,0.0025154,-0.69029,0.009223,0.023882,6.7494e-07,0.82,0.84,0
0.042072,-0.0015842,0.025063,0.00010901,0.0025172,-0.00027343,0,0,0.049601,-0.005298,0,-0.0012031,0,0,0,0.025066,0.00010601,0.0025172,-0.6277,0.0092298,0.023846,6.7247e-07,0.84,0.84,0
0.043063,-0.0016164,0.025059,0.00013865,0.0025198,-0.00025848,0,0,0.049586,-0.0052384,0,-0.0011373,0,0,0,0.025062,0.00013597,0.0025198,-0.59421,0.0092391,0.023823,6.7105e-07,0.86,0.84,0
0.044055,-0.0016455,0.02505,0.00016278,0.0025213,-0.00021634,0,0,0.049564,-0.0051887,0,-0.0009519,0,0,0,0.025052,0.0001609,0.0025213,-0.49801,0.0092447,0.023799,6.6939e-07,0.88,0.84,0
0.045046,-0.001671,0.025048,0.00018285,0.0025231,-0.00019788,0,0,0.049555,-0.0051486,0,-0.00087067,0,0,0,0.02505,0.00018128,0.0025231,-0.45592,0.0092514,0.023784,6.6848e-07,0.9,0.84,0
0.046037,-0.0016924,0.025044,0.00019822,0.0025242,-0.00014645,0,0,0.049543,-0.0051172,0,-0.00064439,0,0,0,0.025045,0.00019736,0.0025242,-0.33771,0.0092555,0.02377,6.6751e-07,0.92,0.84,0
0.047028,-0.0017095,0.025043,0.00020991,0.0025253,-0.00012638,0,0,0.04954,-0.0050939,0,-0.00055609,0,0,0,0.025044,0.00020927,0.0025253,-0.29158,0.0092595,0.023761,6.6701e-07,0.94,0.84,0
0.048019,-0.0017219,0.025042,0.00021782,0.0025259,-6.9754e-05,0,0,0.049535,-0.0050779,0,-0.00030691,0,0,0,0.025042,0.00021762,0.0025259,-0.161,0.0092618,0.023754,6.6655e-07,0.96,0.84,0
0.049009,-0.0017294,0.025042,0.00022251,0.0025264,-4.9136e-05,0,0,0.049533,-0.0050686,0,-0.0002162,0,0,0,0.025042,0.00022242,0.0025264,-0.11343,0.0092635,0.023751,6.6636e-07,0.98,0.84,0
0.05,-0.0017319,0.025043,0.00023599,0.0025279,-2.8587e-05,0,0,0.049533,-0.0050421,0,-0.00012578,0,0,0,0.025043,0.00023596,0.0025279,-0.066027,0.0092689,0.023744,6.6596e-07,1,0.84,0
0,0,0.025381,0.0028201,0.0028201,-0.0017706,0,0,0.049634,1.0842e-19,0,-0.0077907,0,0,0,0.025519,0.002682,0.0028201,-4.4603,0.01034,0.022768,6.0614e-07,0,0.86,0
0.00099268,-0.00015582,0.025399,0.0025576,0.0027956,-0.0017445,0,0,0.049726,-0.00052365,0,-0.0076758,0,0,0,0.025531,0.0024251,0.0027956,-4.3424,0.010251,0.022923,6.1809e-07,0.02,0.86,0
0.0019909,-0.00031217,0.025549,0.0022776,0.0027826,-0.0016948,0,0,0.050086,-0.0011111,0,-0.0074571,0,0,0,0.025672,0.0021548,0.0027826,-4.1436,0.010203,0.023209,6.4052e-07,0.04,0.86,0
0.0029944,-0.00046605,0.025597,0.001977,0.0027574,-0.0016236,0,0,0.050246,-0.0017168,0,-0.0071436,0,0,0,0.025708,0.0018659,0.0027574,-3.9138,0.01011,0.023409,6.5559e-07,0.06,0.86,0
0.0040022,-0.00061418,0.025693,0.001696,0.0027389,-0.0014731,0,0,0.0505,-0.0022944,0,-0.0064817,0,0,0,0.025784,0.001606,0.0027389,-3.4997,0.010043,0.023631,6.7254e-07,0.08,0.86,0
0.0050133,-0.00075364,0.025707,0.0014366,0.0027144,-0.0013613,0,0,0.050584,-0.0028111,0,-0.0059899,0,0,0,0.025783,0.0013605,0.0027144,-3.2003,0.0099527,0.023775,6.8266e-07,0.1,0.86,0
0.0060262,-0.00088222,0.025725,0.0012161,0.0026941,-0.0011553,0,0,0.050668,-0.0032517,0,-0.0050833,0,0,0,0.02578,0.0011618,0.0026941,-2.6928,0.0098785,0.023889,6.9044e-07,0.12,0.86,0
0.0070398,-0.00099848,0.025703,0.0010019,0.0026705,-0.00099662,0,0,0.050672,-0.0036708,0,-0.0043851,0,0,0,0.025743,0.00096179,0.0026705,-2.3067,0.0097918,0.023973,6.9547e-07,0.14,0.86,0
0.0080531,-0.0011017,0.02567,0.00085093,0.002652,-0.00083675,0,0,0.050639,-0.0039625,0,-0.0036817,0,0,0,0.025698,0.00082275,0.002652,-1.9288,0.0097242,0.024013,6.9722e-07,0.16,0.86,0
0.0090653,-0.0011917,0.025625,0.000728,0.0026353,-0.00068641,0,0,0.050577,-0.0041961,0,-0.0030202,0,0,0,0.025644,0.00070909,0.0026353,-1.578,0.0096628,0.02403,6.9722e-07,0.18,0.86,0
0.010076,-0.0012686,0.025575,0.00062755,0.0026202,-0.00054745,0,0,0.0505,-0.0043839,0,-0.0024088,0,0,0,0.025587,0.00061554,0.0026202,-1.2565,0.0096075,0.024032,6.9612e-07,0.2,0.86,0
0.011085,-0.0013329,0.025523,0.00054453,0.0026067,-0.00042034,0,0,0.050415,-0.0045369,0,-0.0018495,0,0,0,0.02553,0.00053745,0.0026067,-0.96383,0.009558,0.024025,6.944e-07,0.22,0.86,0
0.012093,-0.0013851,0.025472,0.00047464,0.0025946,-0.00030489,0,0,0.05033,-0.004664,0,-0.0013415,0,0,0,0.025476,0.00047092,0.0025946,-0.69869,0.0095137,0.024013,6.9246e-07,0.24,0.86,0
0.013099,-0.0014261,0.025424,0.00041433,0.0025838,-0.00020059,0,0,0.050249,-0.0047729,0,-0.00088259,0,0,0,0.025426,0.00041272,0.0025838,-0.4595,0.0094741,0.024001,6.9055e-07,0.26,0.86,0
0.014103,-0.0014565,0.025381,0.00036066,0.0025742,-0.00010696,0,0,0.050175,-0.0048697,0,-0.00047061,0,0,0,0.025382,0.00036021,0.0025742,-0.24492,0.0094387,0.023991,6.8888e-07,0.28,0.86,0
0.015106,-0.0014773,0.025344,0.0003113,0.0025655,-2.3611e-05,0,0,0.050112,-0.0049592,0,-0.00010389,0,0,0,0.025344,0.00031128,0.0025655,-0.054042,0.0094068,0.023985,6.8758e-07,0.3,0.86,0
0.016107,-0.0014894,0.025312,0.00026438,0.0025576,4.9634e-05,0,0,0.05006,-0.0050452,0,0.00021839,0,0,0,0.025312,0.00026429,0.0025576,0.11354,0.009378,0.023984,6.8674e-07,0.32,0.86,0
0.017108,-0.0014938,0.025287,0.00021852,0.0025505,0.00011277,0,0,0.05002,-0.0051304,0,0.00049619,0,0,0,0.025287,0.00021801,0.0025505,0.25774,0.0093519,0.023988,6.864e-07,0.34,0.86,0
0.018108,-0.0014916,0.025268,0.00017274,0.002544,0.00016563,0,0,0.049992,-0.0052169,0,0.00072876,0,0,0,0.025269,0.00017165,0.002544,0.37813,0.0093281,0.023999,6.8657e-07,0.36,0.86,0
0.019108,-0.0014839,0.025254,0.00012651,0.0025381,0.00020791,0,0,0.049976,-0.0053055,0,0.0009148,0,0,0,0.025256,0.00012479,0.0025381,0.47402,0.0093064,0.024016,6.8724e-07,0.38,0.86,0
0.020107,-0.0014719,0.025247,7.9702e-05,0.0025327,0.00023928,0,0,0.049971,-0.0053965,0,0.0010528,0,0,0,0.025249,7.7427e-05,0.0025327,0.54468,0.0092864,0.024038,6.8837e-07,0.4,0.86,0
0.021107,-0.0014567,0.025244,3.2581e-05,0.0025277,0.00025943,0,0,0.049976,-0.0054891,0,0.0011415,0,0,0,0.025247,2.9912e-05,0.0025277,0.58951,0.009268,0.024065,6.8987e-07,0.42,0.86,0
0.022106,-0.0014396,0.025244,-1.4115e-05,0.0025229,0.00026378,0,0,0.049986,-0.0055815,0,0.0011607,0,0,0,0.025246,-1.6869e-05,0.0025229,0.5983,0.0092508,0.024094,6.9152e-07,0.44,0.86,0
0.023106,-0.0014217,0.025248,-6.4451e-05,0.0025184,0.00025825,0,0,0.050006,-0.0056823,0,0.0011363,0,0,0,0.025251,-6.7085e-05,0.0025184,0.58447,0.0092341,0.02413,6.937e-07,0.46,0.86,0
0.024106,-0.0014042,0.025254,-0.00011283,0.0025141,0.00024589,0,0,0.050027,-0.0057792,0,0.0010819,0,0,0,0.025256,-0.00011521,0.0025141,0.55532,0.0092183,0.024164,6.9581e-07,0.48,0.86,0
0.025107,-0.0013882,0.02526,-0.00015708,0.0025102,0.00022287,0,0,0.050048,-0.0058681,0,0.00098062,0,0,0,0.025261,-0.00015904,0.0025102,0.50235,0.0092042,0.024197,6.9782e-07,0.5,0.86,0
0.026108,-0.0013748,0.025265,-0.0001957,0.0025069,0.00019022,0,0,0.050068,-0.0059458,0,0.00083696,0,0,0,0.025267,-0.00019712,0.0025069,0.42803,0.0091921,0.024225,6.9958e-07,0.52,0.86,0
0.02711,-0.0013646,0.025272,-0.00021207,0.002506,0.00014406,0,0,0.050085,-0.0059797,0,0.00063385,0,0,0,0.025273,-0.00021289,0.002506,0.32387,0.0091886,0.024241,7.0064e-07,0.54,0.86,0
0.028112,-0.0013586,0.025272,-0.00023376,0.0025039,0.00011298,0,0,0.050091,-0.0060228,0,0.0004971,0,0,0,0.025273,-0.00023426,0.0025039,0.25378,0.0091808,0.024254,7.0141e-07,0.56,0.86,0
0.029113,-0.0013572,0.02527,-0.00026466,0.0025005,5.0011e-05,0,0,0.050092,-0.0060833,0,0.00022005,0,0,0,0.02527,-0.00026476,0.0025005,0.11222,0.0091685,0.02427,7.0222e-07,0.58,0.86,0
0.030115,-0.0013608,0.025266,-0.00025114,0.0025015,-1.2067e-05,0,0,0.050081,-0.0060557,0,-5.3096e-05,0,0,0,0.025266,-0.00025114,0.0025015,-0.027096,0.009172,0.024258,7.0141e-07,0.6,0.86,0
0.031117,-0.0013696,0.025259,-0.00023746,0.0025022,-5.5813e-05,0,0,0.050066,-0.0060272,0,-0.00024558,0,0,0,0.02526,-0.00023758,0.0025022,-0.12542,0.0091747,0.024244,7.0042e-07,0.62,0.86,0
0.032118,-0.0013835,0.025247,-0.00022495,0.0025022,-0.0001084,0,0,0.050039,-0.0059998,0,-0.00047697,0,0,0,0.025248,-0.00022541,0.0025022,-0.24383,0.0091748,0.024225,6.9901e-07,0.64,0.86,0
0.033118,-0.0014023,0.025232,-0.00020519,0.0025026,-0.0001571,0,0,0.050004,-0.0059572,0,-0.00069126,0,0,0,0.025233,-0.00020616,0.0025026,-0.35386,0.0091763,0.024198,6.9709e-07,0.66,0.86,0
0.034118,-0.0014256,0.025213,-0.00017928,0.0025034,-0.00020027,0,0,0.049961,-0.0059019,0,-0.00088118,0,0,0,0.025215,-0.00018086,0.0025034,-0.45185,0.0091791,0.024165,6.9473e-07,0.68,0.86,0
0.035117,-0.0014529,0.025193,-0.00014859,0.0025044,-0.00023657,0,0,0.049914,-0.0058366,0,-0.0010409,0,0,0,0.025195,-0.0001508,0.0025044,-0.53483,0.0091828,0.024128,6.9204e-07,0.7,0.86,0
0.036115,-0.0014834,0.025171,-0.0001146,0.0025056,-0.00026509,0,0,0.049863,-0.0057645,0,-0.0011664,0,0,0,0.025174,-0.00011738,0.0025056,-0.6006,0.0091873,0.024087,6.8911e-07,0.72,0.86,0
0.037111,-0.0015165,0.025153,-7.5792e-05,0.0025077,-0.00028119,0,0,0.04982,-0.0056837,0,-0.0012373,0,0,0,0.025156,-7.8926e-05,0.0025077,-0.63849,0.009195,0.024046,6.8634e-07,0.74,0.86,0
0.038107,-0.0015513,0.025122,-4.1998e-05,0.002508,-0.00029787,0,0,0.049751,-0.00561,0,-0.0013106,0,0,0,0.025125,-4.5523e-05,0.002508,-0.67809,0.009196,0.023996,6.8266e-07,0.76,0.86,0
0.039102,-0.0015869,0.025109,-7.1124e-06,0.0025102,-0.00029977,0,0,0.049718,-0.0055381,0,-0.001319,0,0,0,0.025113,-1.069e-05,0.0025102,-0.6837,0.0092041,0.023963,6.8038e-07,0.78,0.86,0
0.040095,-0.0016226,0.025081,2.4113e-05,0.0025105,-0.00029411,0,0,0.049656,-0.0054702,0,-0.0012941,0,0,0,0.025085,2.0662e-05,0.0025105,-0.67238,0.0092053,0.023917,6.7702e-07,0.8,0.86,0
0.041088,-0.0016574,0.025071,5.4402e-05,0.0025125,-0.00028724,0,0,0.049628,-0.0054078,0,-0.0012639,0,0,0,0.025074,5.1104e-05,0.0025125,-0.65777,0.0092125,0.023887,6.7505e-07,0.82,0.86,0
0.04208,-0.0016908,0.025049,8.0059e-05,0.0025129,-0.00026247,0,0,0.049578,-0.0053522,0,-0.0011549,0,0,0,0.025051,7.7301e-05,0.0025129,-0.60221,0.0092138,0.02385,6.723e-07,0.84,0.86,0
0.043072,-0.0017218,0.025041,0.00010359,0.0025144,-0.00024923,0,0,0.049557,-0.0053038,0,-0.0010966,0,0,0,0.025043,0.0001011,0.0025144,-0.57255,0.0092195,0.023827,6.7079e-07,0.86,0.86,0
0.044062,-0.00175,0.025025,0.00012249,0.0025147,-0.00020985,0,0,0.049522,-0.0052629,0,-0.00092334,0,0,0,0.025027,0.00012072,0.0025147,-0.48278,0.0092206,0.023799,6.6876e-07,0.88,0.86,0
0.045053,-0.0017748,0.025019,0.00013883,0.0025158,-0.00019259,0,0,0.049508,-0.0052294,0,-0.0008474,0,0,0,0.025021,0.00013734,0.0025158,-0.44347,0.0092246,0.023784,6.6772e-07,0.9,0.86,0
0.046043,-0.0017957,0.025009,0.00015112,0.0025161,-0.00014324,0,0,0.049485,-0.0052029,0,-0.00063026,0,0,0,0.02501,0.00015029,0.0025161,-0.33014,0.0092255,0.023765,6.6641e-07,0.92,0.86,0
0.047032,-0.0018123,0.025006,0.00016085,0.0025167,-0.00012383,0,0,0.049477,-0.0051829,0,-0.00054485,0,0,0,0.025007,0.00016023,0.0025167,-0.28555,0.0092279,0.023756,6.6579e-07,0.94,0.86,0
0.048022,-0.0018244,0.025001,0.00016728,0.0025168,-6.8617e-05,0,0,0.049466,-0.005169,0,-0.00030191,0,0,0,0.025001,0.00016709,0.0025168,-0.15831,0.0092284,0.023747,6.651e-07,0.96,0.86,0
0.049011,-0.0018317,0.025,0.00017125,0.0025171,-4.8275e-05,0,0,0.049462,-0.0051609,0,-0.00021241,0,0,0,0.025,0.00017116,0.0025171,-0.1114,0.0092294,0.023743,6.6485e-07,0.98,0.86,0
0.05,-0.0018342,0.024998,0.00016075,0.0025158,-2.7927e-05,0,0,0.04946,-0.0051812,0,-0.00012288,0,0,0,0.024998,0.00016072,0.0025158,-0.064424,0.0092247,0.023747,6.6503e-07,1,0.86,0
0,0,0.025473,0.0028304,0.0028304,-0.0019,0,0,0.049814,8.1315e-20,0,-0.0083602,0,0,0,0.025632,0.002672,0.0028304,-4.7635,0.010378,0.022881,6.1513e-07,0,0.88,0
0.00099629,-0.0001672,0.02549,0.0025138,0.0028004,-0.0018484,0,0,0.049918,-0.00063061,0,-0.008133,0,0,0,0.025638,0.002366,0.0028004,-4.5702,0.010268,0.023058,6.2888e-07,0.02,0.88,0
0.0019988,-0.00033648,0.025652,0.0021653,0.0027817,-0.0017794,0,0,0.050315,-0.0013562,0,-0.0078295,0,0,0,0.025786,0.0020312,0.0027817,-4.3081,0.0102,0.023389,6.5483e-07,0.04,0.88,0
0.003007,-0.00050359,0.025696,0.0017999,0.0027496,-0.0016737,0,0,0.050482,-0.0020894,0,-0.0073642,0,0,0,0.025813,0.0016832,0.0027496,-3.987,0.010082,0.023614,6.7167e-07,0.06,0.88,0
0.0040195,-0.00066411,0.025778,0.0014741,0.0027252,-0.0014773,0,0,0.050715,-0.0027524,0,-0.0065002,0,0,0,0.025867,0.0013846,0.0027252,-3.4657,0.0099923,0.023841,6.8852e-07,0.08,0.88,0
0.0050347,-0.00081434,0.025776,0.0011951,0.0026971,-0.0013338,0,0,0.050774,-0.0033044,0,-0.0058689,0,0,0,0.025848,0.001123,0.0026971,-3.0969,0.0098895,0.023977,6.977e-07,0.1,0.88,0
0.0060508,-0.00095182,0.025758,0.00097289,0.0026731,-0.0010913,0,0,0.050787,-0.0037405,0,-0.0048018,0,0,0,0.025806,0.00092493,0.0026731,-2.5163,0.0098014,0.024055,7.0217e-07,0.12,0.88,0
0.0070664,-0.0010752,0.02572,0.00082953,0.002655,-0.00095488,0,0,0.050743,-0.0040159,0,-0.0042015,0,0,0,0.025757,0.00079295,0.002655,-2.1938,0.0097348,0.024087,7.0327e-07,0.14,0.88,0
0.0080805,-0.0011841,0.025661,0.00069079,0.0026352,-0.00078375,0,0,0.050658,-0.0042777,0,-0.0034485,0,0,0,0.025686,0.00066621,0.0026352,-1.796,0.0096624,0.024096,7.0236e-07,0.16,0.88,0
0.0090927,-0.0012784,0.025596,0.00058173,0.0026178,-0.00062832,0,0,0.050552,-0.0044793,0,-0.0027646,0,0,0,0.025612,0.00056596,0.0026178,-1.438,0.0095986,0.024086,7.001e-07,0.18,0.88,0
0.010103,-0.0013588,0.02553,0.00049515,0.0026025,-0.00048876,0,0,0.050441,-0.0046363,0,-0.0021506,0,0,0,0.02554,0.00048562,0.0026025,-1.118,0.0095427,0.024066,6.972e-07,0.2,0.88,0
0.01111,-0.0014259,0.025468,0.0004253,0.0025893,-0.00036416,0,0,0.050332,-0.0047608,0,-0.0016023,0,0,0,0.025473,0.00042,0.0025893,-0.83295,0.0094941,0.024042,6.9415e-07,0.22,0.88,0
0.012116,-0.0014805,0.02541,0.00036764,0.0025778,-0.00025323,0,0,0.050232,-0.0048623,0,-0.0011142,0,0,0,0.025413,0.00036509,0.0025778,-0.57929,0.009452,0.024018,6.9128e-07,0.24,0.88,0
0.01312,-0.0015234,0.02536,0.00031868,0.0025679,-0.00015473,0,0,0.050143,-0.0049482,0,-0.00068081,0,0,0,0.025361,0.00031772,0.0025679,-0.35401,0.0094156,0.023998,6.8878e-07,0.26,0.88,0
0.014122,-0.0015555,0.025317,0.00027567,0.0025593,-6.7624e-05,0,0,0.050068,-0.005024,0,-0.00029755,0,0,0,0.025318,0.00027549,0.0025593,-0.15472,0.0093842,0.023982,6.8678e-07,0.28,0.88,0
0.015122,-0.0015779,0.025283,0.00023651,0.0025519,8.8417e-06,0,0,0.050008,-0.0050939,0,3.8903e-05,0,0,0,0.025283,0.00023651,0.0025519,0.020226,0.009357,0.023973,6.8535e-07,0.3,0.88,0
0.016122,-0.0015915,0.025256,0.00019959,0.0025455,7.5143e-05,0,0,0.049962,-0.0051611,0,0.00033063,0,0,0,0.025256,0.00019937,0.0025455,0.17183,0.0093336,0.02397,6.8452e-07,0.32,0.88,0
0.017121,-0.0015975,0.025236,0.00016373,0.00254,0.0001315,0,0,0.049932,-0.0052278,0,0.00057861,0,0,0,0.025237,0.00016304,0.00254,0.3005,0.0093133,0.023974,6.8428e-07,0.34,0.88,0
0.018119,-0.0015968,0.025224,0.00012811,0.0025352,0.00017795,0,0,0.049915,-0.0052955,0,0.00078297,0,0,0,0.025225,0.00012685,0.0025352,0.40625,0.0092957,0.023985,6.8461e-07,0.36,0.88,0
0.019117,-0.0015907,0.025218,9.2312e-05,0.002531,0.00021437,0,0,0.04991,-0.0053651,0,0.00094323,0,0,0,0.025219,9.0483e-05,0.002531,0.48881,0.0092803,0.024002,6.8547e-07,0.38,0.88,0
0.020116,-0.0015803,0.025217,5.6205e-05,0.0025273,0.00024061,0,0,0.049917,-0.0054364,0,0.0010587,0,0,0,0.025219,5.3904e-05,0.0025273,0.54784,0.0092668,0.024024,6.8677e-07,0.4,0.88,0
0.021114,-0.0015668,0.025221,1.9987e-05,0.0025241,0.00025651,0,0,0.049933,-0.005509,0,0.0011286,0,0,0,0.025223,1.7377e-05,0.0025241,0.58311,0.009255,0.024051,6.8842e-07,0.42,0.88,0
0.022113,-0.0015513,0.025226,-1.5791e-05,0.002521,0.00026168,0,0,0.049951,-0.005581,0,0.0011514,0,0,0,0.025229,-1.8503e-05,0.002521,0.59389,0.0092438,0.024078,6.9015e-07,0.44,0.88,0
0.023112,-0.001535,0.025239,-4.4917e-05,0.0025194,0.00025957,0,0,0.049983,-0.0056415,0,0.0011421,0,0,0,0.025242,-4.7582e-05,0.0025194,0.58813,0.0092378,0.024109,6.9223e-07,0.46,0.88,0
0.024112,-0.0015191,0.025251,-7.3206e-05,0.0025178,0.00024417,0,0,0.050012,-0.0057001,0,0.0010744,0,0,0,0.025253,-7.556e-05,0.0025178,0.55238,0.0092317,0.024137,6.9416e-07,0.48,0.88,0
0.025113,-0.0015045,0.025262,-9.8942e-05,0.0025163,0.00021991,0,0,0.050041,-0.0057536,0,0.00096758,0,0,0,0.025264,-0.00010085,0.0025163,0.49676,0.0092266,0.024163,6.9598e-07,0.5,0.88,0
0.026114,-0.0014922,0.025273,-0.00012129,0.0025151,0.00018769,0,0,0.050067,-0.0058002,0,0.00082583,0,0,0,0.025274,-0.00012267,0.0025151,0.42344,0.0092222,0.024186,6.9758e-07,0.52,0.88,0
0.027116,-0.001483,0.025281,-0.00015342,0.0025128,0.00014091,0,0,0.05009,-0.0058656,0,0.00061999,0,0,0,0.025282,-0.0001542,0.0025128,0.31741,0.0092134,0.024213,6.9932e-07,0.54,0.88,0
0.028117,-0.0014777,0.025284,-0.0001685,0.0025115,0.00011193,0,0,0.050099,-0.005896,0,0.00049247,0,0,0,0.025284,-0.00016899,0.0025115,0.25195,0.0092089,0.024224,7.0005e-07,0.56,0.88,0
0.029119,-0.0014768,0.025288,-0.00016087,0.0025127,5.6612e-05,0,0,0.050105,-0.0058818,0,0.00024909,0,0,0,0.025288,-0.00016099,0.0025127,0.12746,0.0092131,0.024223,7.0006e-07,0.58,0.88,0
0.030122,-0.0014805,0.025282,-0.00018025,0.0025102,-3.8623e-06,0,0,0.050098,-0.0059189,0,-1.6994e-05,0,0,0,0.025282,-0.00018025,0.0025102,-0.0086912,0.0092039,0.024229,7.0025e-07,0.6,0.88,0
0.031123,-0.0014891,0.025274,-0.00018502,0.0025089,-4.5871e-05,0,0,0.050084,-0.0059267,0,-0.00020183,0,0,0,0.025274,-0.0001851,0.0025089,-0.10323,0.0091995,0.024225,6.9982e-07,0.62,0.88,0
0.032125,-0.0015025,0.025263,-0.00017536,0.0025088,-9.4539e-05,0,0,0.050059,-0.005905,0,-0.00041597,0,0,0,0.025263,-0.00017572,0.0025088,-0.21293,0.0091987,0.024209,6.9855e-07,0.64,0.88,0
0.033126,-0.0015206,0.025247,-0.00016017,0.0025087,-0.00013976,0,0,0.050025,-0.0058715,0,-0.00061494,0,0,0,0.025248,-0.00016094,0.0025087,-0.31516,0.0091986,0.024185,6.9677e-07,0.66,0.88,0
0.034126,-0.0015429,0.025228,-0.00014028,0.0025088,-0.00018006,0,0,0.049982,-0.0058279,0,-0.00079226,0,0,0,0.025229,-0.00014156,0.0025088,-0.40665,0.0091989,0.024155,6.9455e-07,0.68,0.88,0
0.035125,-0.001569,0.025206,-0.00011669,0.0025089,-0.00021425,0,0,0.049934,-0.0057764,0,-0.00094272,0,0,0,0.025208,-0.0001185,0.0025089,-0.48473,0.0091995,0.02412,6.9198e-07,0.7,0.88,0
0.036123,-0.0015983,0.025182,-9.0511e-05,0.0025092,-0.00024148,0,0,0.049881,-0.0057193,0,-0.0010625,0,0,0,0.025184,-9.2818e-05,0.0025092,-0.54739,0.0092003,0.024082,6.8915e-07,0.72,0.88,0
0.03712,-0.00163,0.025157,-6.2878e-05,0.0025094,-0.0002612,0,0,0.049825,-0.005659,0,-0.0011493,0,0,0,0.02516,-6.5583e-05,0.0025094,-0.59333,0.0092012,0.024042,6.8616e-07,0.74,0.88,0
0.038116,-0.0016634,0.025131,-3.4871e-05,0.0025096,-0.00027323,0,0,0.049768,-0.0055979,0,-0.0012022,0,0,0,0.025134,-3.7837e-05,0.0025096,-0.62197,0.009202,0.024,6.831e-07,0.76,0.88,0
0.039111,-0.0016977,0.025106,-7.4582e-06,0.0025099,-0.00027767,0,0,0.049712,-0.0055381,0,-0.0012218,0,0,0,0.025109,-1.0528e-05,0.0025099,-0.6334,0.0092028,0.023959,6.8008e-07,0.78,0.88,0
0.040105,-0.0017321,0.025082,1.8548e-05,0.00251,-0.00027487,0,0,0.049658,-0.0054812,0,-0.0012094,0,0,0,0.025085,1.5534e-05,0.00251,-0.62828,0.0092034,0.02392,6.7718e-07,0.8,0.88,0
0.041097,-0.0017658,0.025059,4.2521e-05,0.0025101,-0.00026539,0,0,0.049607,-0.0054288,0,-0.0011677,0,0,0,0.025062,3.9706e-05,0.0025101,-0.60774,0.0092038,0.023883,6.7446e-07,0.82,0.88,0
0.042089,-0.0017981,0.025038,6.4024e-05,0.0025102,-0.0002499,0,0,0.049561,-0.0053816,0,-0.0010996,0,0,0,0.02504,6.1524e-05,0.0025102,-0.57326,0.009204,0.023849,6.7198e-07,0.84,0.88,0
0.04308,-0.0018282,0.025019,8.2801e-05,0.0025102,-0.00022918,0,0,0.04952,-0.0053403,0,-0.0010084,0,0,0,0.025021,8.0694e-05,0.0025102,-0.52652,0.0092041,0.023819,6.6977e-07,0.86,0.88,0
0.04407,-0.0018556,0.025003,9.8749e-05,0.0025102,-0.00020401,0,0,0.049484,-0.0053051,0,-0.00089764,0,0,0,0.025005,9.7078e-05,0.0025102,-0.46931,0.009204,0.023793,6.6784e-07,0.88,0.88,0
0.045059,-0.0018798,0.024989,0.00011189,0.0025101,-0.00017518,0,0,0.049454,-0.0052761,0,-0.00077078,0,0,0,0.02499,0.00011066,0.0025101,-0.40343,0.0092037,0.023771,6.6623e-07,0.9,0.88,0
0.046048,-0.0019001,0.024978,0.00012233,0.00251,-0.00014342,0,0,0.04943,-0.005253,0,-0.00063104,0,0,0,0.024979,0.0001215,0.00251,-0.33059,0.0092035,0.023753,6.6492e-07,0.92,0.88,0
0.047036,-0.0019164,0.024969,0.00013022,0.00251,-0.00010942,0,0,0.049411,-0.0052354,0,-0.00048146,0,0,0,0.02497,0.00012973,0.00251,-0.2524,0.0092032,0.02374,6.6391e-07,0.94,0.88,0
0.048024,-0.0019282,0.024963,0.00013571,0.0025099,-7.3813e-05,0,0,0.049397,-0.0052232,0,-0.00032478,0,0,0,0.024963,0.00013549,0.0025099,-0.17034,0.009203,0.02373,6.632e-07,0.96,0.88,0
0.049012,-0.0019354,0.02496,0.00013894,0.0025099,-3.7162e-05,0,0,0.04939,-0.005216,0,-0.00016351,0,0,0,0.02496,0.00013889,0.0025099,-0.085783,0.0092028,0.023724,6.6277e-07,0.98,0.88,0
0.05,-0.0019378,0.024958,0.00014001,0.0025098,-2.7343e-05,0,0,0.049387,-0.0052136,0,-0.00012031,0,0,0,0.024958,0.00013998,0.0025098,-0.063123,0.0092028,0.023723,6.6263e-07,1,0.88,0
0,0,0.025628,0.0028475,0.0028475,-0.0020503,0,0,0.050117,0,0,-0.0090214,0,0,0,0.025811,0.0026645,0.0028475,-5.1022,0.010441,0.023055,6.293e-07,0,0.9,0
0.0010023,-0.00018043,0.025677,0.002486,0.0028163,-0.0019836,0,0,0.050293,-0.00072655,0,-0.0087278,0,0,0,0.025845,0.0023176,0.0028163,-4.8537,0.010326,0.023282,6.4718e-07,0.02,0.9,0
0.0020117,-0.00036501,0.025795,0.0020689,0.0027864,-0.0018948,0,0,0.050619,-0.0015786,0,-0.0083369,0,0,0,0.025946,0.0019185,0.0027864,-4.5372,0.010217,0.023605,6.7245e-07,0.04,0.9,0
0.0030271,-0.0005475,0.025874,0.0016555,0.002753,-0.0017336,0,0,0.050867,-0.0024144,0,-0.007628,0,0,0,0.025998,0.001532,0.002753,-4.0737,0.010094,0.023879,6.9311e-07,0.06,0.9,0
0.0040464,-0.00072172,0.025899,0.0012989,0.0027198,-0.0015243,0,0,0.050995,-0.003126,0,-0.0067071,0,0,0,0.025993,0.0012048,0.0027198,-3.5322,0.0099727,0.024067,7.064e-07,0.08,0.9,0
0.0050669,-0.00088313,0.025873,0.0010174,0.0026891,-0.0012985,0,0,0.051005,-0.0036778,0,-0.0057133,0,0,0,0.025941,0.00094971,0.0026891,-2.9823,0.0098599,0.024169,7.1241e-07,0.1,0.9,0
0.0060866,-0.0010292,0.02581,0.0008046,0.0026614,-0.0010801,0,0,0.050926,-0.004085,0,-0.0047526,0,0,0,0.025856,0.00075803,0.0026614,-2.4689,0.0097586,0.024203,7.1299e-07,0.12,0.9,0
0.007104,-0.0011591,0.025726,0.00064573,0.0026371,-0.00088122,0,0,0.050795,-0.0043811,0,-0.0038773,0,0,0,0.025757,0.0006148,0.0026371,-2.0099,0.0096695,0.024194,7.1024e-07,0.14,0.9,0
0.0081184,-0.0012728,0.025634,0.00052673,0.0026161,-0.00070519,0,0,0.05064,-0.0045966,0,-0.0031028,0,0,0,0.025654,0.00050694,0.0026161,-1.6076,0.0095923,0.024161,7.0585e-07,0.16,0.9,0
0.0091296,-0.0013709,0.025544,0.00043658,0.0025981,-0.00055132,0,0,0.050482,-0.0047553,0,-0.0024258,0,0,0,0.025556,0.00042448,0.0025981,-1.2573,0.0095264,0.024119,7.0089e-07,0.18,0.9,0
0.010138,-0.0014541,0.025462,0.0003671,0.0025829,-0.00041725,0,0,0.050333,-0.0048747,0,-0.0018359,0,0,0,0.025469,0.00036016,0.0025829,-0.95231,0.0094705,0.024074,6.9603e-07,0.2,0.9,0
0.011143,-0.0015233,0.025388,0.00031234,0.0025701,-0.00030036,0,0,0.0502,-0.004967,0,-0.0013216,0,0,0,0.025392,0.00030875,0.0025701,-0.68615,0.0094236,0.024032,6.9164e-07,0.22,0.9,0
0.012146,-0.0015796,0.025326,0.000268,0.0025594,-0.00019826,0,0,0.050086,-0.0050411,0,-0.00087234,0,0,0,0.025327,0.00026644,0.0025594,-0.45329,0.0093844,0.023997,6.8792e-07,0.24,0.9,0
0.013146,-0.001624,0.025275,0.00023091,0.0025505,-0.00010901,0,0,0.049993,-0.0051032,0,-0.00047965,0,0,0,0.025275,0.00023043,0.0025505,-0.24939,0.009352,0.023969,6.8495e-07,0.26,0.9,0
0.014145,-0.0016574,0.025234,0.0001987,0.0025433,-3.1134e-05,0,0,0.04992,-0.0051581,0,-0.00013699,0,0,0,0.025234,0.00019866,0.0025433,-0.071252,0.0093253,0.023949,6.8276e-07,0.28,0.9,0
0.015143,-0.001681,0.025204,0.00016961,0.0025373,3.6413e-05,0,0,0.049866,-0.005209,0,0.00016022,0,0,0,0.025204,0.00016956,0.0025373,0.083339,0.0093036,0.023938,6.8136e-07,0.3,0.9,0
0.01614,-0.0016958,0.025183,0.00014235,0.0025326,9.4304e-05,0,0,0.049832,-0.0052584,0,0.00041494,0,0,0,0.025184,0.000142,0.0025326,0.21577,0.0092861,0.023936,6.807e-07,0.32,0.9,0
0.017136,-0.0017029,0.025171,0.00011598,0.0025287,0.00014291,0,0,0.049814,-0.005308,0,0.00062882,0,0,0,0.025172,0.00011517,0.0025287,0.3268,0.009272,0.023942,6.8073e-07,0.34,0.9,0
0.018133,-0.0017035,0.025167,8.9879e-05,0.0025257,0.0001824,0,0,0.049811,-0.0053588,0,0.00080255,0,0,0,0.025168,8.8553e-05,0.0025257,0.41671,0.0092609,0.023955,6.8139e-07,0.36,0.9,0
0.019129,-0.0016986,0.02517,6.3699e-05,0.0025233,0.00021277,0,0,0.049822,-0.0054112,0,0.00093617,0,0,0,0.025171,6.1896e-05,0.0025233,0.48552,0.0092523,0.023974,6.8259e-07,0.38,0.9,0
0.020125,-0.0016894,0.025178,3.7349e-05,0.0025215,0.00023397,0,0,0.049844,-0.0054652,0,0.0010294,0,0,0,0.02518,3.5172e-05,0.0025215,0.53315,0.0092456,0.023998,6.8424e-07,0.4,0.9,0
0.021123,-0.0016771,0.02519,1.0968e-05,0.0025201,0.00024595,0,0,0.049875,-0.0055202,0,0.0010822,0,0,0,0.025193,8.5659e-06,0.0025201,0.55959,0.0092405,0.024027,6.8622e-07,0.42,0.9,0
0.02212,-0.0016629,0.025206,-1.5102e-05,0.0025191,0.00024876,0,0,0.049911,-0.0055752,0,0.0010945,0,0,0,0.025208,-1.7555e-05,0.0025191,0.56504,0.0092367,0.024058,6.8844e-07,0.44,0.9,0
0.023119,-0.0016478,0.025223,-4.0353e-05,0.0025183,0.00024257,0,0,0.049951,-0.0056291,0,0.0010673,0,0,0,0.025226,-4.2682e-05,0.0025183,0.55006,0.0092338,0.02409,6.9075e-07,0.46,0.9,0
0.024119,-0.0016331,0.025241,-6.4154e-05,0.0025177,0.00022777,0,0,0.049992,-0.0056801,0,0.0010022,0,0,0,0.025243,-6.6204e-05,0.0025177,0.51566,0.0092317,0.024122,6.9304e-07,0.48,0.9,0
0.025119,-0.0016195,0.025259,-8.5802e-05,0.0025173,0.00020497,0,0,0.050031,-0.0057268,0,0.00090186,0,0,0,0.02526,-8.746e-05,0.0025173,0.46333,0.0092301,0.024151,6.9519e-07,0.5,0.9,0
0.02612,-0.0016082,0.025274,-0.00010459,0.002517,0.00017502,0,0,0.050066,-0.0057674,0,0.0007701,0,0,0,0.025275,-0.00010579,0.002517,0.39511,0.0092288,0.024177,6.9707e-07,0.52,0.9,0
0.027121,-0.0015998,0.025286,-0.00011984,0.0025167,0.00013904,0,0,0.050093,-0.0058003,0,0.00061176,0,0,0,0.025287,-0.00012061,0.0025167,0.31354,0.0092278,0.024197,6.9858e-07,0.54,0.9,0
0.028123,-0.001595,0.025295,-0.00013102,0.0025164,9.8328e-05,0,0,0.050113,-0.0058243,0,0.00043265,0,0,0,0.025295,-0.0001314,0.0025164,0.22157,0.0092268,0.024212,6.9965e-07,0.56,0.9,0
0.029126,-0.0015944,0.025299,-0.00013771,0.0025161,5.4383e-05,0,0,0.050123,-0.0058385,0,0.00023928,0,0,0,0.025299,-0.00013783,0.0025161,0.1225,0.0092258,0.024219,7.0019e-07,0.58,0.9,0
0.030128,-0.0015982,0.025298,-0.00013972,0.0025159,8.7932e-06,0,0,0.050121,-0.0058423,0,3.869e-05,0,0,0,0.025298,-0.00013972,0.0025159,0.019806,0.0092248,0.02422,7.0018e-07,0.6,0.9,0
0.031131,-0.0016067,0.025292,-0.00013705,0.0025155,-3.6814e-05,0,0,0.050109,-0.0058357,0,-0.00016198,0,0,0,0.025292,-0.00013711,0.0025155,-0.082946,0.0092236,0.024212,6.9959e-07,0.62,0.9,0
0.032133,-0.0016197,0.025281,-0.00012993,0.0025151,-8.0853e-05,0,0,0.050085,-0.0058191,0,-0.00035575,0,0,0,0.025281,-0.00013019,0.0025151,-0.1823,0.0092221,0.024198,6.9844e-07,0.64,0.9,0
0.033134,-0.0016372,0.025265,-0.00011878,0.0025146,-0.00012186,0,0,0.050051,-0.0057935,0,-0.00053618,0,0,0,0.025266,-0.00011936,0.0025146,-0.27505,0.0092204,0.024176,6.9677e-07,0.66,0.9,0
0.034135,-0.0016587,0.025245,-0.00010419,0.0025141,-0.00015855,0,0,0.050008,-0.0057602,0,-0.0006976,0,0,0,0.025246,-0.00010518,0.0025141,-0.35833,0.0092183,0.024148,6.9464e-07,0.68,0.9,0
0.035134,-0.001684,0.025221,-8.6888e-05,0.0025134,-0.00018986,0,0,0.049957,-0.0057207,0,-0.0008354,0,0,0,0.025223,-8.8312e-05,0.0025134,-0.4298,0.009216,0.024116,6.9213e-07,0.7,0.9,0
0.036133,-0.0017122,0.025195,-6.7669e-05,0.0025127,-0.00021503,0,0,0.049901,-0.0056768,0,-0.00094615,0,0,0,0.025197,-6.9499e-05,0.0025127,-0.48766,0.0092133,0.024079,6.8931e-07,0.72,0.9,0
0.03713,-0.0017429,0.025166,-4.7347e-05,0.0025119,-0.00023356,0,0,0.049839,-0.0056303,0,-0.0010277,0,0,0,0.025168,-4.951e-05,0.0025119,-0.53069,0.0092102,0.02404,6.8629e-07,0.74,0.9,0
0.038127,-0.0017752,0.025136,-2.6703e-05,0.002511,-0.00024523,0,0,0.049776,-0.0055829,0,-0.001079,0,0,0,0.025139,-2.9092e-05,0.002511,-0.5583,0.0092069,0.023999,6.8316e-07,0.76,0.9,0
0.039121,-0.0018084,0.025106,-6.4432e-06,0.00251,-0.00025007,0,0,0.049712,-0.0055362,0,-0.0011003,0,0,0,0.025109,-8.9331e-06,0.00251,-0.57046,0.0092033,0.023958,6.8001e-07,0.78,0.9,0
0.040115,-0.0018418,0.025077,1.2836e-05,0.002509,-0.00024836,0,0,0.049649,-0.0054915,0,-0.0010928,0,0,0,0.025079,1.0375e-05,0.002509,-0.56766,0.0091996,0.023918,6.7694e-07,0.8,0.9,0
0.041107,-0.0018746,0.025049,3.0667e-05,0.0025079,-0.00024052,0,0,0.04959,-0.00545,0,-0.0010583,0,0,0,0.025051,2.8355e-05,0.0025079,-0.55077,0.0091957,0.02388,6.74e-07,0.82,0.9,0
0.042099,-0.001906,0.025022,4.6719e-05,0.0025069,-0.00022714,0,0,0.049534,-0.0054124,0,-0.00099941,0,0,0,0.025024,4.4654e-05,0.0025069,-0.52102,0.0091919,0.023844,6.7127e-07,0.84,0.9,0
0.043089,-0.0019354,0.024998,6.0788e-05,0.0025059,-0.00020886,0,0,0.049482,-0.0053792,0,-0.00091898,0,0,0,0.025,5.9039e-05,0.0025059,-0.47983,0.0091882,0.023812,6.6879e-07,0.86,0.9,0
0.044078,-0.0019622,0.024976,7.2783e-05,0.0025049,-0.00018637,0,0,0.049437,-0.0053507,0,-0.00082003,0,0,0,0.024978,7.1388e-05,0.0025049,-0.42875,0.0091847,0.023783,6.6659e-07,0.88,0.9,0
0.045066,-0.0019858,0.024958,8.2704e-05,0.002504,-0.00016037,0,0,0.049398,-0.0053269,0,-0.00070563,0,0,0,0.024959,8.1671e-05,0.002504,-0.36937,0.0091815,0.023759,6.6471e-07,0.9,0.9,0
0.046054,-0.0020058,0.024942,9.0614e-05,0.0025033,-0.00013153,0,0,0.049366,-0.0053079,0,-0.00057875,0,0,0,0.024943,8.9917e-05,0.0025033,-0.30324,0.0091787,0.023739,6.6317e-07,0.92,0.9,0
0.047041,-0.0020217,0.02493,9.6608e-05,0.0025027,-0.0001005,0,0,0.049341,-0.0052934,0,-0.0004422,0,0,0,0.024931,9.6201e-05,0.0025027,-0.23186,0.0091765,0.023723,6.6196e-07,0.94,0.9,0
0.048028,-0.0020333,0.024921,0.00010079,0.0025022,-6.7864e-05,0,0,0.049322,-0.0052832,0,-0.0002986,0,0,0,0.024922,0.00010061,0.0025022,-0.15666,0.0091749,0.023712,6.6109e-07,0.96,0.9,0
0.049014,-0.0020403,0.024916,0.00010326,0.002502,-3.4188e-05,0,0,0.049312,-0.0052771,0,-0.00015043,0,0,0,0.024916,0.00010321,0.002502,-0.078945,0.0091738,0.023705,6.6057e-07,0.98,0.9,0
0.05,-0.0020427,0.024914,0.00010408,0.0025019,-2.6845e-05,0,0,0.049308,-0.0052751,0,-0.00011812,0,0,0,0.024915,0.00010405,0.0025019,-0.061993,0.0091735,0.023703,6.604e-07,1,0.9,0
0,0,0.02588,0.0028755,0.0028755,-0.0022303,0,0,0.05061,5.421e-20,0,-0.0098133,0,0,0,0.026094,0.0026613,0.0028755,-5.4868,0.010544,0.023326,6.517e-07,0,0.92,0
0.0010122,-0.00019627,0.025931,0.0024291,0.0028361,-0.002122,0,0,0.05081,-0.0008952,0,-0.0093367,0,0,0,0.026121,0.0022391,0.0028361,-5.118,0.010399,0.023589,6.7274e-07,0.02,0.92,0
0.0020324,-0.00039962,0.026049,0.0019015,0.0027951,-0.0019856,0,0,0.051159,-0.0019659,0,-0.0087365,0,0,0,0.026211,0.0017393,0.0027951,-4.6694,0.010249,0.023962,7.0198e-07,0.04,0.92,0
0.0030586,-0.00060017,0.026098,0.0014136,0.0027511,-0.0017535,0,0,0.051362,-0.0029426,0,-0.0077154,0,0,0,0.026221,0.0012896,0.0027511,-4.0431,0.010087,0.024234,7.2203e-07,0.06,0.92,0
0.0040869,-0.00078915,0.026064,0.0010376,0.0027102,-0.001477,0,0,0.051379,-0.0036797,0,-0.0064988,0,0,0,0.026151,0.00095069,0.0027102,-3.3659,0.0099373,0.024368,7.3014e-07,0.08,0.92,0
0.0051137,-0.00096145,0.025967,0.0007729,0.002674,-0.0012079,0,0,0.051245,-0.0041825,0,-0.0053148,0,0,0,0.026025,0.00071512,0.002674,-2.7386,0.0098048,0.02439,7.2896e-07,0.1,0.92,0
0.0061367,-0.0011152,0.025838,0.00058885,0.0026426,-0.00096982,0,0,0.051029,-0.0045184,0,-0.0042672,0,0,0,0.025875,0.00055166,0.0026426,-2.1965,0.0096897,0.024345,7.2267e-07,0.12,0.92,0
0.0071549,-0.0012505,0.025701,0.00045976,0.0026161,-0.00076756,0,0,0.050787,-0.0047439,0,-0.0033773,0,0,0,0.025724,0.00043644,0.0026161,-1.7402,0.0095922,0.024272,7.1443e-07,0.14,0.92,0
0.0081682,-0.0013679,0.025572,0.00036752,0.0025939,-0.00059768,0,0,0.050551,-0.004898,0,-0.0026298,0,0,0,0.025586,0.00035336,0.0025939,-1.3577,0.009511,0.02419,7.06e-07,0.16,0.92,0
0.0091769,-0.0014687,0.025456,0.00030012,0.0025756,-0.00045482,0,0,0.050337,-0.0050061,0,-0.0020012,0,0,0,0.025465,0.0002919,0.0025756,-1.0354,0.009444,0.024112,6.9825e-07,0.18,0.92,0
0.010182,-0.0015538,0.025358,0.0002496,0.0025607,-0.00033391,0,0,0.050153,-0.0050845,0,-0.0014692,0,0,0,0.025362,0.00024516,0.0025607,-0.76179,0.0093894,0.024043,6.9155e-07,0.2,0.92,0
0.011183,-0.0016246,0.025277,0.00021066,0.0025487,-0.00023077,0,0,0.050001,-0.0051437,0,-0.0010154,0,0,0,0.025279,0.00020854,0.0025487,-0.52744,0.0093453,0.023986,6.8604e-07,0.22,0.92,0
0.012182,-0.0016821,0.025212,0.00017966,0.0025391,-0.00014219,0,0,0.04988,-0.0051908,0,-0.00062563,0,0,0,0.025212,0.00017885,0.0025391,-0.32544,0.0093101,0.023941,6.8172e-07,0.24,0.92,0
0.013178,-0.0017275,0.025162,0.00015406,0.0025316,-6.5774e-05,0,0,0.049787,-0.0052306,0,-0.00028941,0,0,0,0.025162,0.00015389,0.0025316,-0.15069,0.0092826,0.023908,6.7855e-07,0.26,0.92,0
0.014173,-0.0017618,0.025127,0.00013203,0.0025259,1.7458e-07,0,0,0.049722,-0.0052665,0,7.6813e-07,0,0,0,0.025127,0.00013203,0.0025259,0.00040018,0.0092616,0.023888,6.7645e-07,0.28,0.92,0
0.015167,-0.0017863,0.025104,0.00011227,0.0025216,5.6822e-05,0,0,0.049681,-0.0053006,0,0.00025002,0,0,0,0.025104,0.00011214,0.0025216,0.13027,0.009246,0.023879,6.7533e-07,0.3,0.92,0
0.01616,-0.0018019,0.025092,9.3808e-05,0.0025186,0.00010491,0,0,0.049662,-0.0053346,0,0.00046161,0,0,0,0.025093,9.3368e-05,0.0025186,0.24045,0.009235,0.023879,6.7509e-07,0.32,0.92,0
0.017154,-0.0018098,0.025091,7.5981e-05,0.0025167,0.00014487,0,0,0.049663,-0.0053695,0,0.00063744,0,0,0,0.025091,7.5142e-05,0.0025167,0.33182,0.0092278,0.023889,6.7562e-07,0.34,0.92,0
0.018147,-0.0018112,0.025097,5.8347e-05,0.0025156,0.00017691,0,0,0.04968,-0.0054059,0,0.00077841,0,0,0,0.025098,5.7097e-05,0.0025156,0.4048,0.0092237,0.023907,6.7683e-07,0.36,0.92,0
0.019141,-0.0018072,0.025111,4.0662e-05,0.0025151,0.00020109,0,0,0.049711,-0.0054439,0,0.0008848,0,0,0,0.025112,3.905e-05,0.0025151,0.45954,0.0092222,0.023932,6.786e-07,0.38,0.92,0
0.020135,-0.0017989,0.02513,2.2866e-05,0.0025153,0.00021741,0,0,0.049752,-0.0054833,0,0.0009566,0,0,0,0.025132,2.0983e-05,0.0025153,0.49609,0.0092227,0.023961,6.8082e-07,0.4,0.92,0
0.021131,-0.0017876,0.025153,5.0521e-06,0.0025158,0.00022586,0,0,0.049802,-0.0055237,0,0.00099379,0,0,0,0.025155,3.0238e-06,0.0025158,0.51453,0.0092247,0.023995,6.8336e-07,0.42,0.92,0
0.022128,-0.0017743,0.025179,-1.2546e-05,0.0025167,0.00022652,0,0,0.049857,-0.0055642,0,0.00099668,0,0,0,0.025181,-1.4582e-05,0.0025167,0.51514,0.0092277,0.02403,6.8609e-07,0.44,0.92,0
0.023125,-0.0017602,0.025206,-2.9581e-05,0.0025176,0.00021956,0,0,0.049914,-0.0056039,0,0.00096609,0,0,0,0.025208,-3.1491e-05,0.0025176,0.49846,0.0092314,0.024066,6.8889e-07,0.46,0.92,0
0.024124,-0.0017463,0.025233,-4.5626e-05,0.0025187,0.00020535,0,0,0.049971,-0.0056415,0,0.00090353,0,0,0,0.025234,-4.7294e-05,0.0025187,0.4654,0.0092353,0.024101,6.9162e-07,0.48,0.92,0
0.025124,-0.0017335,0.025258,-6.0207e-05,0.0025197,0.00018441,0,0,0.050023,-0.0056759,0,0.00081139,0,0,0,0.025259,-6.155e-05,0.0025197,0.4173,0.0092391,0.024134,6.9416e-07,0.5,0.92,0
0.026125,-0.0017229,0.02528,-7.2842e-05,0.0025207,0.00015749,0,0,0.05007,-0.0057058,0,0.00069294,0,0,0,0.025281,-7.382e-05,0.0025207,0.35589,0.0092426,0.024162,6.9639e-07,0.52,0.92,0
0.027127,-0.0017151,0.025298,-8.3085e-05,0.0025215,0.00012553,0,0,0.050108,-0.0057301,0,0.00055231,0,0,0,0.025299,-8.3706e-05,0.0025215,0.28336,0.0092455,0.024185,6.9821e-07,0.54,0.92,0
0.028129,-0.0017107,0.025311,-9.0564e-05,0.0025221,8.9641e-05,0,0,0.050136,-0.0057478,0,0.00039442,0,0,0,0.025312,-9.088e-05,0.0025221,0.20219,0.0092476,0.024202,6.9954e-07,0.56,0.92,0
0.029132,-0.0017103,0.025319,-9.5008e-05,0.0025224,5.1086e-05,0,0,0.050152,-0.0057583,0,0.00022478,0,0,0,0.025319,-9.5111e-05,0.0025224,0.11517,0.0092487,0.024212,7.003e-07,0.58,0.92,0
0.030135,-0.0017142,0.02532,-9.6281e-05,0.0025224,1.1202e-05,0,0,0.050156,-0.0057611,0,4.9291e-05,0,0,0,0.02532,-9.6285e-05,0.0025224,0.025253,0.0092489,0.024214,7.0047e-07,0.6,0.92,0
0.031138,-0.0017225,0.025316,-9.4385e-05,0.0025221,-2.8642e-05,0,0,0.050146,-0.0057564,0,-0.00012603,0,0,0,0.025316,-9.4417e-05,0.0025221,-0.064584,0.0092479,0.024208,7.0003e-07,0.62,0.92,0
0.032141,-0.0017353,0.025305,-8.9471e-05,0.0025216,-6.7115e-05,0,0,0.050124,-0.0057443,0,-0.00029531,0,0,0,0.025305,-8.9648e-05,0.0025216,-0.15143,0.0092458,0.024195,6.9898e-07,0.64,0.92,0
0.033143,-0.0017523,0.025289,-8.1823e-05,0.0025207,-0.00010298,0,0,0.050089,-0.0057255,0,-0.0004531,0,0,0,0.025289,-8.2241e-05,0.0025207,-0.23256,0.0092425,0.024175,6.9737e-07,0.66,0.92,0
0.034145,-0.0017733,0.025267,-7.1839e-05,0.0025195,-0.00013514,0,0,0.050044,-0.0057009,0,-0.00059461,0,0,0,0.025267,-7.256e-05,0.0025195,-0.30556,0.0092381,0.024149,6.9525e-07,0.68,0.92,0
0.035145,-0.0017978,0.02524,-6.0005e-05,0.002518,-0.0001627,0,0,0.049989,-0.0056717,0,-0.00071589,0,0,0,0.025241,-6.1051e-05,0.002518,-0.36844,0.0092328,0.024116,6.9269e-07,0.7,0.92,0
0.036144,-0.0018253,0.02521,-4.6853e-05,0.0025163,-0.00018499,0,0,0.049926,-0.005639,0,-0.00081397,0,0,0,0.025212,-4.8208e-05,0.0025163,-0.41963,0.0092265,0.02408,6.8978e-07,0.72,0.92,0
0.037142,-0.0018552,0.025177,-3.2935e-05,0.0025144,-0.00020157,0,0,0.049858,-0.0056042,0,-0.0008869,0,0,0,0.025179,-3.4546e-05,0.0025144,-0.45807,0.0092195,0.02404,6.8661e-07,0.74,0.92,0
0.038139,-0.0018867,0.025142,-1.8778e-05,0.0025124,-0.00021222,0,0,0.049786,-0.0055685,0,-0.00093376,0,0,0,0.025144,-2.0568e-05,0.0025124,-0.48321,0.009212,0.023999,6.8329e-07,0.76,0.92,0
0.039134,-0.0019191,0.025107,-4.8629e-06,0.0025102,-0.00021695,0,0,0.049712,-0.0055331,0,-0.00095457,0,0,0,0.025109,-6.7371e-06,0.0025102,-0.49495,0.009204,0.023956,6.7991e-07,0.78,0.92,0
0.040127,-0.0019517,0.025071,8.4029e-06,0.002508,-0.00021596,0,0,0.049639,-0.005499,0,-0.00095021,0,0,0,0.025073,6.5423e-06,0.002508,-0.49365,0.0091958,0.023914,6.7655e-07,0.8,0.92,0
0.041119,-0.0019838,0.025036,2.0697e-05,0.0025057,-0.00020959,0,0,0.049568,-0.0054671,0,-0.00092221,0,0,0,0.025038,1.8941e-05,0.0025057,-0.48,0.0091876,0.023873,6.7331e-07,0.82,0.92,0
0.04211,-0.0020145,0.025004,3.1788e-05,0.0025035,-0.00019832,0,0,0.0495,-0.0054379,0,-0.00087263,0,0,0,0.025005,3.0213e-05,0.0025035,-0.455,0.0091797,0.023835,6.7025e-07,0.84,0.92,0
0.043099,-0.0020434,0.024973,4.1531e-05,0.0025015,-0.00018269,0,0,0.049438,-0.0054119,0,-0.00080385,0,0,0,0.024975,4.0192e-05,0.0025015,-0.41982,0.0091721,0.023799,6.6744e-07,0.86,0.92,0
0.044087,-0.0020697,0.024946,4.9856e-05,0.0024996,-0.00016329,0,0,0.049382,-0.0053894,0,-0.00071847,0,0,0,0.024947,4.8785e-05,0.0024996,-0.37577,0.0091651,0.023768,6.6492e-07,0.88,0.92,0
0.045075,-0.0020928,0.024922,5.6757e-05,0.0024979,-0.00014071,0,0,0.049333,-0.0053704,0,-0.00061912,0,0,0,0.024923,5.5961e-05,0.0024979,-0.32421,0.0091588,0.02374,6.6273e-07,0.9,0.92,0
0.046061,-0.0021125,0.024902,6.227e-05,0.0024964,-0.00011555,0,0,0.049292,-0.0053551,0,-0.0005084,0,0,0,0.024902,6.1733e-05,0.0024964,-0.26651,0.0091535,0.023717,6.6091e-07,0.92,0.92,0
0.047046,-0.0021281,0.024886,6.6456e-05,0.0024952,-8.8367e-05,0,0,0.04926,-0.0053433,0,-0.00038881,0,0,0,0.024886,6.6141e-05,0.0024952,-0.20399,0.0091492,0.023699,6.5948e-07,0.94,0.92,0
0.048031,-0.0021395,0.024875,6.9383e-05,0.0024944,-5.9713e-05,0,0,0.049236,-0.005335,0,-0.00026274,0,0,0,0.024875,6.9239e-05,0.0024944,-0.13793,0.0091461,0.023686,6.5844e-07,0.96,0.92,0
0.049016,-0.0021465,0.024868,7.1111e-05,0.0024939,-3.0095e-05,0,0,0.049222,-0.0053301,0,-0.00013242,0,0,0,0.024868,7.1075e-05,0.0024939,-0.069538,0.0091442,0.023678,6.5782e-07,0.98,0.92,0
0.05,-0.0021488,0.024865,7.1683e-05,0.0024937,-2.6433e-05,0,0,0.049217,-0.0053284,0,-0.00011631,0,0,0,0.024865,7.1654e-05,0.0024937,-0.061085,0.0091435,0.023676,6.5761e-07,1,0.92,0
0,0,0.026297,0.0029218,0.0029218,-0.0024572,0,0,0.051424,2.1684e-19,0,-0.010812,0,0,0,0.026552,0.0026663,0.0029218,-5.9366,0.010713,0.023759,6.8856e-07,0,0.94,0
0.0010285,-0.00021624,0.026346,0.0023285,0.0028675,-0.0022616,0,0,0.051654,-0.0011859,0,-0.0099511,0,0,0,0.026558,0.0021174,0.0028675,-5.3327,0.010514,0.024074,7.1423e-07,0.02,0.94,0
0.0020662,-0.00044365,0.026437,0.001624,0.0028061,-0.0020314,0,0,0.051988,-0.0026006,0,-0.0089383,0,0,0,0.026602,0.0014588,0.0028061,-4.6495,0.010289,0.024498,7.4739e-07,0.04,0.94,0
0.003108,-0.00066521,0.026401,0.0010695,0.0027471,-0.0016781,0,0,0.052039,-0.0036907,0,-0.0073835,0,0,0,0.026512,0.00095878,0.0027471,-3.7735,0.010072,0.024707,7.6098e-07,0.06,0.94,0
0.0041477,-0.00086891,0.026247,0.00072643,0.0026974,-0.0013273,0,0,0.05181,-0.0043361,0,-0.0058399,0,0,0,0.026316,0.00065759,0.0026974,-2.9691,0.0098903,0.024702,7.5635e-07,0.08,0.94,0
0.0051804,-0.0010504,0.026032,0.00051277,0.0026544,-0.0010312,0,0,0.05143,-0.0047117,0,-0.0045371,0,0,0,0.026073,0.00047117,0.0026544,-2.3102,0.009733,0.024583,7.4277e-07,0.1,0.94,0
0.0062049,-0.00121,0.025814,0.00037655,0.0026191,-0.00079617,0,0,0.051029,-0.0049336,0,-0.0035031,0,0,0,0.025839,0.00035165,0.0026191,-1.791,0.0096033,0.024433,7.2739e-07,0.12,0.94,0
0.0072216,-0.0013489,0.025619,0.00028654,0.0025905,-0.00061052,0,0,0.050662,-0.0050688,0,-0.0026863,0,0,0,0.025633,0.00027184,0.0025905,-1.3798,0.0094986,0.024285,7.1306e-07,0.14,0.94,0
0.0082314,-0.0014687,0.025453,0.00022497,0.0025678,-0.00046228,0,0,0.050347,-0.0051541,0,-0.002034,0,0,0,0.025461,0.0002165,0.0025678,-1.0494,0.0094151,0.024155,7.0076e-07,0.16,0.94,0
0.0092354,-0.0015711,0.025316,0.0001814,0.0025498,-0.00034195,0,0,0.050086,-0.0052104,0,-0.0015046,0,0,0,0.025321,0.00017675,0.0025498,-0.77929,0.0093491,0.024046,6.9066e-07,0.18,0.94,0
0.010235,-0.0016574,0.025208,0.00014955,0.0025357,-0.00024263,0,0,0.049878,-0.0052496,0,-0.0010676,0,0,0,0.02521,0.0001472,0.0025357,-0.55471,0.0092976,0.023958,6.8265e-07,0.2,0.94,0
0.011231,-0.0017291,0.025123,0.00012545,0.0025249,-0.00015942,0,0,0.049717,-0.0052788,0,-0.00070146,0,0,0,0.025125,0.00012443,0.0025249,-0.36538,0.0092579,0.02389,6.7654e-07,0.22,0.94,0
0.012223,-0.0017873,0.025061,0.00010653,0.0025168,-8.8897e-05,0,0,0.049598,-0.0053026,0,-0.00039115,0,0,0,0.025062,0.00010621,0.0025168,-0.2041,0.0092282,0.023842,6.7211e-07,0.24,0.94,0
0.013215,-0.0018332,0.025018,9.1063e-05,0.0025109,-2.8659e-05,0,0,0.049516,-0.0053237,0,-0.0001261,0,0,0,0.025018,9.1031e-05,0.0025109,-0.065872,0.0092068,0.02381,6.6916e-07,0.26,0.94,0
0.014204,-0.0018681,0.024992,7.7844e-05,0.002507,2.2921e-05,0,0,0.049467,-0.0053441,0,0.00010085,0,0,0,0.024992,7.7823e-05,0.002507,0.052711,0.0091923,0.023793,6.6752e-07,0.28,0.94,0
0.015193,-0.0018931,0.02498,6.602e-05,0.0025047,6.6918e-05,0,0,0.049447,-0.005365,0,0.00029444,0,0,0,0.024981,6.584e-05,0.0025047,0.15389,0.0091837,0.023789,6.6702e-07,0.3,0.94,0
0.016182,-0.0019092,0.024981,5.4985e-05,0.0025036,0.00010401,0,0,0.049451,-0.005387,0,0.00045764,0,0,0,0.024982,5.4551e-05,0.0025036,0.23907,0.00918,0.023797,6.6751e-07,0.32,0.94,0
0.017171,-0.0019177,0.024993,4.4318e-05,0.0025037,0.00013458,0,0,0.049476,-0.0054107,0,0.00059213,0,0,0,0.024994,4.3592e-05,0.0025037,0.30905,0.0091804,0.023815,6.6885e-07,0.34,0.94,0
0.018161,-0.0019197,0.025014,3.3748e-05,0.0025047,0.0001588,0,0,0.049519,-0.0054361,0,0.00069874,0,0,0,0.025014,3.2739e-05,0.0025047,0.36423,0.009184,0.023842,6.7091e-07,0.36,0.94,0
0.019152,-0.0019163,0.025041,2.3128e-05,0.0025064,0.00017675,0,0,0.049576,-0.0054633,0,0.00077772,0,0,0,0.025042,2.1879e-05,0.0025064,0.40477,0.0091902,0.023875,6.7354e-07,0.38,0.94,0
0.020144,-0.0019087,0.025074,1.2421e-05,0.0025086,0.00018843,0,0,0.049644,-0.0054917,0,0.00082909,0,0,0,0.025076,1.1004e-05,0.0025086,0.43075,0.0091984,0.023914,6.766e-07,0.4,0.94,0
0.021138,-0.0018981,0.025111,1.6884e-06,0.0025112,0.00019383,0,0,0.049719,-0.005521,0,0.00085287,0,0,0,0.025112,1.9216e-07,0.0025112,0.44227,0.0092079,0.023955,6.7996e-07,0.42,0.94,0
0.022133,-0.0018855,0.025149,-8.9246e-06,0.002514,0.00019303,0,0,0.049798,-0.0055505,0,0.00084931,0,0,0,0.025151,-1.0406e-05,0.002514,0.43956,0.0092182,0.023999,6.8348e-07,0.44,0.94,0
0.02313,-0.001872,0.025188,-1.9204e-05,0.0025169,0.00018616,0,0,0.049877,-0.0055794,0,0.0008191,0,0,0,0.02519,-2.0579e-05,0.0025169,0.4231,0.0092287,0.024042,6.8701e-07,0.46,0.94,0
0.024128,-0.0018587,0.025226,-2.8889e-05,0.0025197,0.00017352,0,0,0.049954,-0.0056069,0,0.00076348,0,0,0,0.025227,-3.0081e-05,0.0025197,0.39364,0.0092389,0.024084,6.9041e-07,0.48,0.94,0
0.025128,-0.0018466,0.025261,-3.7687e-05,0.0025223,0.00015554,0,0,0.050024,-0.005632,0,0.00068438,0,0,0,0.025262,-3.8643e-05,0.0025223,0.35225,0.0092485,0.024122,6.9356e-07,0.5,0.94,0
0.026129,-0.0018364,0.025291,-4.5306e-05,0.0025246,0.00013282,0,0,0.050087,-0.0056538,0,0.00058443,0,0,0,0.025292,-4.6002e-05,0.0025246,0.30035,0.0092569,0.024156,6.9633e-07,0.52,0.94,0
0.027131,-0.001829,0.025317,-5.1473e-05,0.0025265,0.00010613,0,0,0.050138,-0.0056716,0,0.00046695,0,0,0,0.025317,-5.1917e-05,0.0025265,0.23969,0.0092639,0.024183,6.9861e-07,0.54,0.94,0
0.028134,-0.0018249,0.025336,-5.5962e-05,0.002528,7.6337e-05,0,0,0.050177,-0.0056847,0,0.00033588,0,0,0,0.025336,-5.6191e-05,0.002528,0.17225,0.0092692,0.024204,7.0032e-07,0.56,0.94,0
0.029138,-0.0018247,0.025348,-5.8607e-05,0.0025289,4.4464e-05,0,0,0.050201,-0.0056925,0,0.00019564,0,0,0,0.025348,-5.8685e-05,0.0025289,0.10027,0.0092727,0.024217,7.0139e-07,0.58,0.94,0
0.030142,-0.0018287,0.025352,-5.9325e-05,0.0025293,1.1577e-05,0,0,0.05021,-0.0056949,0,5.0941e-05,0,0,0,0.025352,-5.933e-05,0.0025293,0.026104,0.0092741,0.024221,7.0178e-07,0.6,0.94,0
0.031147,-0.0018369,0.025349,-5.8117e-05,0.0025291,-2.1229e-05,0,0,0.050204,-0.0056919,0,-9.3408e-05,0,0,0,0.025349,-5.8135e-05,0.0025291,-0.047874,0.0092733,0.024217,7.0148e-07,0.62,0.94,0
0.032151,-0.0018495,0.025338,-5.5073e-05,0.0025283,-5.2888e-05,0,0,0.050182,-0.0056835,0,-0.00023271,0,0,0,0.025338,-5.5183e-05,0.0025283,-0.11933,0.0092705,0.024206,7.0049e-07,0.64,0.94,0
0.033154,-0.0018662,0.02532,-5.0365e-05,0.002527,-8.2407e-05,0,0,0.050145,-0.0056702,0,-0.00036259,0,0,0,0.025321,-5.0632e-05,0.002527,-0.1861,0.0092657,0.024186,6.9885e-07,0.66,0.94,0
0.034156,-0.0018868,0.025296,-4.4233e-05,0.0025252,-0.00010891,0,0,0.050096,-0.0056527,0,-0.0004792,0,0,0,0.025296,-4.4701e-05,0.0025252,-0.24624,0.0092589,0.024159,6.9663e-07,0.68,0.94,0
0.035158,-0.0019108,0.025265,-3.6973e-05,0.0025229,-0.00013167,0,0,0.050034,-0.0056316,0,-0.00057935,0,0,0,0.025266,-3.7658e-05,0.0025229,-0.29815,0.0092505,0.024126,6.939e-07,0.7,0.94,0
0.036158,-0.0019378,0.02523,-2.8906e-05,0.0025202,-0.00015014,0,0,0.049963,-0.0056079,0,-0.00066062,0,0,0,0.025231,-2.9799e-05,0.0025202,-0.34055,0.0092406,0.024088,6.9075e-07,0.72,0.94,0
0.037156,-0.001967,0.025192,-2.0369e-05,0.0025171,-0.00016396,0,0,0.049884,-0.0055825,0,-0.00072141,0,0,0,0.025193,-2.1435e-05,0.0025171,-0.37258,0.0092295,0.024046,6.8729e-07,0.74,0.94,0
0.038153,-0.0019979,0.02515,-1.1682e-05,0.0025139,-0.00017294,0,0,0.0498,-0.0055562,0,-0.00076092,0,0,0,0.025151,-1.287e-05,0.0025139,-0.39376,0.0092175,0.024001,6.8361e-07,0.76,0.94,0
0.039148,-0.0020298,0.025107,-3.1384e-06,0.0025104,-0.00017707,0,0,0.049713,-0.0055298,0,-0.00077912,0,0,0,0.025109,-4.387e-06,0.0025104,-0.40401,0.0092049,0.023955,6.7983e-07,0.78,0.94,0
0.040142,-0.0020618,0.025064,5.0125e-06,0.0025069,-0.00017652,0,0,0.049626,-0.0055042,0,-0.00077667,0,0,0,0.025066,3.7692e-06,0.0025069,-0.40356,0.0091921,0.023909,6.7605e-07,0.8,0.94,0
0.041133,-0.0020933,0.025022,1.2573e-05,0.0025035,-0.00017154,0,0,0.049541,-0.0054799,0,-0.00075476,0,0,0,0.025023,1.1396e-05,0.0025035,-0.39296,0.0091793,0.023864,6.7236e-07,0.82,0.94,0
0.042123,-0.0021235,0.024982,1.9399e-05,0.0025001,-0.0001625,0,0,0.049459,-0.0054575,0,-0.00071502,0,0,0,0.024983,1.8341e-05,0.0025001,-0.37298,0.009167,0.023821,6.6885e-07,0.84,0.94,0
0.043112,-0.0021519,0.024944,2.54e-05,0.0024969,-0.00014986,0,0,0.049383,-0.0054373,0,-0.00065936,0,0,0,0.024945,2.4499e-05,0.0024969,-0.34455,0.0091554,0.023781,6.656e-07,0.86,0.94,0
0.044099,-0.0021778,0.02491,3.0534e-05,0.002494,-0.00013406,0,0,0.049314,-0.0054197,0,-0.00058988,0,0,0,0.02491,2.9811e-05,0.002494,-0.30873,0.0091447,0.023745,6.6266e-07,0.88,0.94,0
0.045084,-0.0022006,0.02488,3.4792e-05,0.0024914,-0.00011562,0,0,0.049254,-0.0054046,0,-0.00050872,0,0,0,0.02488,3.4254e-05,0.0024914,-0.26663,0.0091353,0.023713,6.601e-07,0.9,0.94,0
0.046069,-0.00222,0.024854,3.8196e-05,0.0024893,-9.5006e-05,0,0,0.049203,-0.0053923,0,-0.00041803,0,0,0,0.024855,3.7833e-05,0.0024893,-0.21935,0.0091272,0.023686,6.5794e-07,0.92,0.94,0
0.047052,-0.0022354,0.024834,4.0783e-05,0.0024875,-7.2698e-05,0,0,0.049163,-0.0053828,0,-0.00031987,0,0,0,0.024834,4.057e-05,0.0024875,-0.168,0.0091208,0.023665,6.5624e-07,0.94,0.94,0
0.048035,-0.0022467,0.02482,4.2593e-05,0.0024862,-4.9144e-05,0,0,0.049133,-0.005376,0,-0.00021624,0,0,0,0.02482,4.2495e-05,0.0024862,-0.11364,0.0091161,0.02365,6.5501e-07,0.96,0.94,0
0.049018,-0.0022535,0.024811,4.3662e-05,0.0024854,-2.4774e-05,0,0,0.049116,-0.0053719,0,-0.00010901,0,0,0,0.024811,4.3637e-05,0.0024854,-0.057312,0.0091133,0.023641,6.5426e-07,0.98,0.94,0
0.05,-0.0022558,0.024808,4.4015e-05,0.0024852,-2.6098e-05,0,0,0.04911,-0.0053706,0,-0.00011483,0,0,0,0.024808,4.3988e-05,0.0024852,-0.060383,0.0091123,0.023638,6.5401e-07,1,0.94,0
0,0,0.027046,0.0030051,0.0030051,-0.0027693,0,0,0.05289,1.0842e-19,0,-0.012185,0,0,0,0.027361,0.0026902,0.0030051,-6.4869,0.011019,0.024515,7.5624e-07,0,0.96,0
0.0010578,-0.0002437,0.027047,0.0020818,0.0029129,-0.0023721,0,0,0.053096,-0.0018284,0,-0.010438,0,0,0,0.027271,0.0018584,0.0029129,-5.3799,0.010681,0.024902,7.8829e-07,0.02,0.96,0
0.0021238,-0.00050365,0.027026,0.0011096,0.0028136,-0.0018877,0,0,0.053267,-0.0037487,0,-0.0083057,0,0,0,0.027163,0.00097284,0.0028136,-4.1441,0.010316,0.02532,8.1884e-07,0.04,0.96,0
0.0031885,-0.0007478,0.026773,0.00064895,0.0027422,-0.0014036,0,0,0.052867,-0.004605,0,-0.0061758,0,0,0,0.026848,0.00057375,0.0027422,-3.0667,0.010054,0.02526,8.0723e-07,0.06,0.96,0
0.0042385,-0.00096259,0.026369,0.00040693,0.0026776,-0.0010209,0,0,0.05212,-0.0049954,0,-0.0044919,0,0,0,0.026409,0.00036685,0.0026776,-2.2484,0.0098177,0.024967,7.7627e-07,0.08,0.96,0
0.0052733,-0.0011499,0.025996,0.00027355,0.002627,-0.0007524,0,0,0.051413,-0.0051776,0,-0.0033106,0,0,0,0.026018,0.00025156,0.002627,-1.674,0.0096324,0.024665,7.4663e-07,0.1,0.96,0
0.006295,-0.0013126,0.02569,0.00019454,0.0025884,-0.00055953,0,0,0.050822,-0.0052665,0,-0.0024619,0,0,0,0.025702,0.00018227,0.0025884,-1.2567,0.0094908,0.024406,7.2219e-07,0.12,0.96,0
0.0073062,-0.0014532,0.025445,0.00014495,0.0025591,-0.00041669,0,0,0.05035,-0.005311,0,-0.0018334,0,0,0,0.025452,0.00013809,0.0025591,-0.94329,0.0093832,0.024195,7.0293e-07,0.14,0.96,0
0.008309,-0.0015741,0.025255,0.00011221,0.0025367,-0.00030721,0,0,0.049981,-0.005334,0,-0.0013517,0,0,0,0.025259,0.00010846,0.0025367,-0.69992,0.0093014,0.024029,6.8806e-07,0.16,0.96,0
0.0093054,-0.0016771,0.025109,8.9648e-05,0.0025199,-0.00022073,0,0,0.049697,-0.0053466,0,-0.00097123,0,0,0,0.025111,8.77e-05,0.0025199,-0.50543,0.0092397,0.023901,6.7679e-07,0.18,0.96,0
0.010297,-0.0017638,0.025,7.3463e-05,0.0025074,-0.00015066,0,0,0.049485,-0.0053546,0,-0.00066288,0,0,0,0.025001,7.2552e-05,0.0025074,-0.34627,0.0091938,0.023805,6.6845e-07,0.2,0.96,0
0.011285,-0.0018358,0.024922,6.1394e-05,0.0024983,-9.2665e-05,0,0,0.049332,-0.0053613,0,-0.00040773,0,0,0,0.024922,6.1048e-05,0.0024983,-0.21356,0.0091606,0.023737,6.6253e-07,0.22,0.96,0
0.01227,-0.0018942,0.024869,5.2019e-05,0.0024921,-4.3916e-05,0,0,0.04923,-0.0053683,0,-0.00019323,0,0,0,0.02487,5.1941e-05,0.0024921,-0.10139,0.0091379,0.023692,6.5864e-07,0.24,0.96,0
0.013254,-0.0019404,0.024839,4.4406e-05,0.0024883,-2.5145e-06,0,0,0.049171,-0.0053766,0,-1.1064e-05,0,0,0,0.024839,4.4406e-05,0.0024883,-0.0058106,0.0091239,0.023667,6.5647e-07,0.26,0.96,0
0.014237,-0.0019756,0.024827,3.7921e-05,0.0024865,3.2785e-05,0,0,0.049149,-0.0053869,0,0.00014426,0,0,0,0.024827,3.7877e-05,0.0024865,0.075778,0.0091171,0.02366,6.5575e-07,0.28,0.96,0
0.01522,-0.0020009,0.024831,3.2121e-05,0.0024863,6.2785e-05,0,0,0.049159,-0.0053993,0,0.00027625,0,0,0,0.024831,3.1962e-05,0.0024863,0.14506,0.0091165,0.023668,6.5629e-07,0.3,0.96,0
0.016203,-0.0020173,0.024849,2.6698e-05,0.0024875,8.7969e-05,0,0,0.049195,-0.0054139,0,0.00038706,0,0,0,0.024849,2.6386e-05,0.0024875,0.20305,0.009121,0.023688,6.5789e-07,0.32,0.96,0
0.017188,-0.0020262,0.024878,2.1438e-05,0.0024899,0.0001086,0,0,0.049253,-0.0054306,0,0.00047785,0,0,0,0.024878,2.0963e-05,0.0024899,0.25033,0.0091296,0.023719,6.6039e-07,0.34,0.96,0
0.018173,-0.0020286,0.024916,1.6205e-05,0.0024932,0.0001248,0,0,0.049329,-0.0054493,0,0.00054914,0,0,0,0.024916,1.5579e-05,0.0024932,0.28718,0.0091416,0.023759,6.6362e-07,0.36,0.96,0
0.019161,-0.0020257,0.024961,1.0926e-05,0.0024972,0.0001366,0,0,0.04942,-0.0054697,0,0.00060104,0,0,0,0.024961,1.0178e-05,0.0024972,0.31368,0.0091562,0.023805,6.6743e-07,0.38,0.96,0
0.02015,-0.0020186,0.025011,5.5867e-06,0.0025016,0.00014397,0,0,0.04952,-0.0054913,0,0.00063349,0,0,0,0.025012,4.7578e-06,0.0025016,0.32988,0.0091727,0.023857,6.7167e-07,0.4,0.96,0
0.021142,-0.0020084,0.025064,2.197e-07,0.0025064,0.00014692,0,0,0.049627,-0.0055137,0,0.00064646,0,0,0,0.025065,-6.4151e-07,0.0025064,0.33585,0.0091903,0.023911,6.7617e-07,0.42,0.96,0
0.022135,-0.0019963,0.025119,-5.0988e-06,0.0025114,0.00014547,0,0,0.049736,-0.0055362,0,0.00064007,0,0,0,0.02512,-5.941e-06,0.0025114,0.33173,0.0092084,0.023966,6.8078e-07,0.44,0.96,0
0.023131,-0.0019834,0.025173,-1.0258e-05,0.0025162,0.00013972,0,0,0.049844,-0.0055583,0,0.00061477,0,0,0,0.025173,-1.1033e-05,0.0025162,0.31788,0.0092262,0.024021,6.8534e-07,0.46,0.96,0
0.024129,-0.0019705,0.025224,-1.5123e-05,0.0025209,0.00012987,0,0,0.049947,-0.0055792,0,0.00057144,0,0,0,0.025225,-1.5792e-05,0.0025209,0.29481,0.0092432,0.024073,6.897e-07,0.48,0.96,0
0.025129,-0.0019588,0.025271,-1.9545e-05,0.0025251,0.00011623,0,0,0.050041,-0.0055983,0,0.00051143,0,0,0,0.025272,-2.0079e-05,0.0025251,0.26332,0.0092589,0.02412,6.9371e-07,0.5,0.96,0
0.026131,-0.001949,0.025312,-2.3374e-05,0.0025289,9.9233e-05,0,0,0.050124,-0.005615,0,0.00043662,0,0,0,0.025313,-2.3762e-05,0.0025289,0.22441,0.0092726,0.024162,6.9724e-07,0.52,0.96,0
0.027134,-0.0019419,0.025347,-2.6469e-05,0.002532,7.9409e-05,0,0,0.050192,-0.0056287,0,0.0003494,0,0,0,0.025347,-2.6718e-05,0.002532,0.17931,0.0092841,0.024196,7.0017e-07,0.54,0.96,0
0.028139,-0.0019381,0.025373,-2.8716e-05,0.0025344,5.7404e-05,0,0,0.050244,-0.0056389,0,0.00025258,0,0,0,0.025373,-2.8845e-05,0.0025344,0.12948,0.0092928,0.024222,7.024e-07,0.56,0.96,0
0.029144,-0.001938,0.02539,-3.0029e-05,0.002536,3.3937e-05,0,0,0.050279,-0.0056452,0,0.00014932,0,0,0,0.02539,-3.0074e-05,0.002536,0.076493,0.0092986,0.024239,7.0386e-07,0.58,0.96,0
0.03015,-0.001942,0.025398,-3.0365e-05,0.0025367,9.7787e-06,0,0,0.050294,-0.0056476,0,4.3026e-05,0,0,0,0.025398,-3.0369e-05,0.0025367,0.022034,0.0093013,0.024247,7.0451e-07,0.6,0.96,0
0.031155,-0.0019502,0.025396,-2.9725e-05,0.0025366,-1.4285e-05,0,0,0.05029,-0.0056459,0,-6.2853e-05,0,0,0,0.025396,-2.9733e-05,0.0025366,-0.03219,0.0093009,0.024244,7.0433e-07,0.62,0.96,0
0.032161,-0.0019626,0.025384,-2.8153e-05,0.0025356,-3.7486e-05,0,0,0.050267,-0.0056403,0,-0.00016494,0,0,0,0.025384,-2.8209e-05,0.0025356,-0.084516,0.0092973,0.024233,7.0334e-07,0.64,0.96,0
0.033166,-0.0019791,0.025364,-2.5738e-05,0.0025338,-5.9109e-05,0,0,0.050227,-0.0056311,0,-0.00026008,0,0,0,0.025364,-2.5875e-05,0.0025338,-0.13339,0.0092907,0.024212,7.0158e-07,0.66,0.96,0
0.03417,-0.0019994,0.025336,-2.2601e-05,0.0025313,-7.8525e-05,0,0,0.050169,-0.0056186,0,-0.00034551,0,0,0,0.025336,-2.2844e-05,0.0025313,-0.17742,0.0092814,0.024183,6.9911e-07,0.68,0.96,0
0.035173,-0.0020231,0.0253,-1.8891e-05,0.0025281,-9.5208e-05,0,0,0.050098,-0.0056033,0,-0.00041892,0,0,0,0.0253,-1.9249e-05,0.0025281,-0.21545,0.0092696,0.024147,6.9603e-07,0.7,0.96,0
0.036174,-0.0020497,0.025258,-1.4772e-05,0.0025243,-0.00010876,0,0,0.050014,-0.005586,0,-0.00047856,0,0,0,0.025258,-1.524e-05,0.0025243,-0.24657,0.0092558,0.024104,6.9244e-07,0.72,0.96,0
0.037174,-0.0020785,0.025211,-1.0416e-05,0.0025201,-0.00011892,0,0,0.04992,-0.0055671,0,-0.00052326,0,0,0,0.025212,-1.0976e-05,0.0025201,-0.27015,0.0092403,0.024057,6.8847e-07,0.74,0.96,0
0.038171,-0.002109,0.025161,-5.984e-06,0.0025155,-0.00012556,0,0,0.04982,-0.0055473,0,-0.00055246,0,0,0,0.025162,-6.6104e-06,0.0025155,-0.28584,0.0092235,0.024007,6.8422e-07,0.76,0.96,0
0.039166,-0.0021403,0.025109,-1.6266e-06,0.0025107,-0.00012866,0,0,0.049716,-0.0055272,0,-0.00056611,0,0,0,0.02511,-2.2858e-06,0.0025107,-0.29356,0.009206,0.023955,6.7984e-07,0.78,0.96,0
0.04016,-0.0021719,0.025056,2.5296e-06,0.0025059,-0.00012834,0,0,0.049611,-0.0055074,0,-0.00056469,0,0,0,0.025057,1.8722e-06,0.0025059,-0.29349,0.0091883,0.023902,6.7542e-07,0.8,0.96,0
0.041151,-0.002203,0.025004,6.384e-06,0.0025011,-0.00012479,0,0,0.049508,-0.0054884,0,-0.00054906,0,0,0,0.025005,5.7611e-06,0.0025011,-0.286,0.0091707,0.02385,6.711e-07,0.82,0.96,0
0.04214,-0.0022329,0.024955,9.8634e-06,0.0024965,-0.00011827,0,0,0.049408,-0.0054705,0,-0.00052039,0,0,0,0.024955,9.3027e-06,0.0024965,-0.27165,0.0091537,0.0238,6.6697e-07,0.84,0.96,0
0.043127,-0.0022609,0.024908,1.2922e-05,0.0024921,-0.00010911,0,0,0.049315,-0.0054542,0,-0.00048007,0,0,0,0.024909,1.2444e-05,0.0024921,-0.2511,0.0091377,0.023754,6.6313e-07,0.86,0.96,0
0.044112,-0.0022864,0.024866,1.5537e-05,0.0024881,-9.7642e-05,0,0,0.049231,-0.0054397,0,-0.00042963,0,0,0,0.024866,1.5153e-05,0.0024881,-0.22512,0.0091232,0.023711,6.5965e-07,0.88,0.96,0
0.045096,-0.002309,0.024828,1.7706e-05,0.0024846,-8.4232e-05,0,0,0.049157,-0.0054272,0,-0.00037062,0,0,0,0.024829,1.742e-05,0.0024846,-0.19451,0.0091103,0.023674,6.566e-07,0.9,0.96,0
0.046079,-0.0023282,0.024797,1.944e-05,0.0024817,-6.9231e-05,0,0,0.049094,-0.0054169,0,-0.00030461,0,0,0,0.024797,1.9246e-05,0.0024817,-0.16009,0.0090994,0.023643,6.5404e-07,0.92,0.96,0
0.04706,-0.0023434,0.024772,2.0756e-05,0.0024793,-5.2984e-05,0,0,0.049044,-0.0054087,0,-0.00023313,0,0,0,0.024772,2.0643e-05,0.0024793,-0.12265,0.0090907,0.023618,6.52e-07,0.94,0.96,0
0.048041,-0.0023546,0.024754,2.1677e-05,0.0024775,-3.5822e-05,0,0,0.049008,-0.0054029,0,-0.00015762,0,0,0,0.024754,2.1625e-05,0.0024775,-0.082986,0.0090843,0.0236,6.5052e-07,0.96,0.96,0
0.04902,-0.0023613,0.024743,2.2221e-05,0.0024765,-1.8059e-05,0,0,0.048986,-0.0053994,0,-7.9461e-05,0,0,0,0.024743,2.2208e-05,0.0024765,-0.041857,0.0090805,0.023589,6.4963e-07,0.98,0.96,0
0.05,-0.0023636,0.024739,2.2401e-05,0.0024761,-2.5819e-05,0,0,0.048978,-0.0053982,0,-0.0001136,0,0,0,0.024739,2.2374e-05,0.0024761,-0.059851,0.0090792,0.023586,6.4933e-07,1,0.96,0
0,0,0.028499,0.0031666,0.0031666,-0.0032883,0,0,0.055732,-2.1684e-19,0,-0.014469,0,0,0,0.028919,0.0027467,0.0031666,-7.2766,0.011611,0.025965,8.9828e-07,0,0.98,0
0.0011146,-0.00028937,0.028388,0.0011699,0.0029558,-0.0018563,0,0,0.05595,-0.0039289,0,-0.0081677,0,0,0,0.028514,0.0010439,0.0029558,-3.8837,0.010838,0.026566,9.461e-07,0.02,0.98,0
0.002238,-0.0005936,0.027905,0.00054328,0.0028448,-0.0012928,0,0,0.055132,-0.0050634,0,-0.0056885,0,0,0,0.027966,0.00048233,0.0028448,-2.6992,0.010431,0.026382,9.1759e-07,0.04,0.98,0
0.0033199,-0.00084941,0.026952,0.00027622,0.0027228,-0.00081599,0,0,0.053303,-0.0053824,0,-0.0035903,0,0,0,0.026977,0.00025129,0.0027228,-1.7505,0.0099835,0.025579,8.3258e-07,0.06,0.98,0
0.0043701,-0.0010687,0.026256,0.00016128,0.0026417,-0.00055507,0,0,0.051951,-0.0054569,0,-0.0024423,0,0,0,0.026267,0.00014948,0.0026417,-1.2181,0.0096862,0.024965,7.7238e-07,0.08,0.98,0
0.005398,-0.0012575,0.025764,0.00010379,0.0025867,-0.00039182,0,0,0.050989,-0.0054625,0,-0.001724,0,0,0,0.02577,9.7807e-05,0.0025867,-0.87462,0.0094847,0.024522,7.3111e-07,0.1,0.98,0
0.0064097,-0.0014206,0.025409,7.1949e-05,0.0025481,-0.00028346,0,0,0.050295,-0.0054476,0,-0.0012472,0,0,0,0.025413,6.8778e-05,0.0025481,-0.64087,0.0093431,0.024199,7.0215e-07,0.12,0.98,0
0.0074097,-0.0015613,0.025151,5.2764e-05,0.0025203,-0.00020643,0,0,0.049787,-0.0054287,0,-0.00090829,0,0,0,0.025152,5.1066e-05,0.0025203,-0.47121,0.0092412,0.023962,6.8142e-07,0.14,0.98,0
0.0084012,-0.0016821,0.024961,4.0451e-05,0.0025002,-0.00014892,0,0,0.049415,-0.0054114,0,-0.00065523,0,0,0,0.024962,3.9561e-05,0.0025002,-0.34236,0.0091673,0.023788,6.6647e-07,0.16,0.98,0
0.0093863,-0.001785,0.024825,3.2128e-05,0.0024857,-0.00010421,0,0,0.049146,-0.0053978,0,-0.00045851,0,0,0,0.024825,3.169e-05,0.0024857,-0.24082,0.0091141,0.023662,6.5581e-07,0.18,0.98,0
0.010367,-0.0018716,0.024729,2.6243e-05,0.0024755,-6.833e-05,0,0,0.048958,-0.0053885,0,-0.00030065,0,0,0,0.024729,2.6054e-05,0.0024755,-0.15848,0.009077,0.023574,6.4845e-07,0.2,0.98,0
0.011345,-0.0019435,0.024667,2.1899e-05,0.0024689,-3.8814e-05,0,0,0.048836,-0.0053834,0,-0.00017078,0,0,0,0.024667,2.1838e-05,0.0024689,-0.090234,0.0090527,0.023518,6.4371e-07,0.22,0.98,0
0.01232,-0.002002,0.024633,1.8548e-05,0.0024651,-1.4081e-05,0,0,0.048769,-0.0053825,0,-6.1956e-05,0,0,0,0.024633,1.854e-05,0.0024651,-0.032777,0.0090388,0.023487,6.4113e-07,0.24,0.98,0
0.013295,-0.0020483,0.024622,1.5836e-05,0.0024637,6.889e-06,0,0,0.048747,-0.0053854,0,3.0311e-05,0,0,0,0.024622,1.5834e-05,0.0024637,0.016041,0.0090337,0.023478,6.4034e-07,0.26,0.98,0
0.01427,-0.0020836,0.02463,1.3527e-05,0.0024643,2.4753e-05,0,0,0.048764,-0.0053918,0,0.00010891,0,0,0,0.02463,1.3502e-05,0.0024643,0.057614,0.0090359,0.023487,6.4106e-07,0.28,0.98,0
0.015246,-0.002109,0.024655,1.1458e-05,0.0024666,3.9922e-05,0,0,0.048814,-0.0054013,0,0.00017566,0,0,0,0.024655,1.1393e-05,0.0024666,0.092819,0.0090442,0.023512,6.4309e-07,0.3,0.98,0
0.016223,-0.0021258,0.024694,9.5142e-06,0.0024703,5.2637e-05,0,0,0.048891,-0.0054137,0,0.0002316,0,0,0,0.024694,9.402e-06,0.0024703,0.12218,0.0090577,0.02355,6.462e-07,0.32,0.98,0
0.017202,-0.0021349,0.024744,7.6188e-06,0.0024752,6.302e-05,0,0,0.048991,-0.0054286,0,0.00027729,0,0,0,0.024744,7.4582e-06,0.0024752,0.14597,0.0090755,0.0236,6.5024e-07,0.34,0.98,0
0.018183,-0.0021377,0.024803,5.7223e-06,0.0024809,7.1119e-05,0,0,0.04911,-0.0054454,0,0.00031292,0,0,0,0.024804,5.5183e-06,0.0024809,0.16432,0.0090967,0.023658,6.5502e-07,0.36,0.98,0
0.019166,-0.0021351,0.02487,3.7993e-06,0.0024874,7.6931e-05,0,0,0.049242,-0.0054639,0,0.0003385,0,0,0,0.02487,3.5613e-06,0.0024874,0.17726,0.0091204,0.023723,6.6038e-07,0.38,0.98,0
0.020152,-0.0021284,0.024941,1.8454e-06,0.0024943,8.0436e-05,0,0,0.049384,-0.0054835,0,0.00035392,0,0,0,0.024942,1.586e-06,0.0024943,0.18479,0.0091459,0.023792,6.6616e-07,0.4,0.98,0
0.021141,-0.0021186,0.025015,-1.2588e-07,0.0025015,8.1619e-05,0,0,0.04953,-0.0055036,0,0.00035912,0,0,0,0.025016,-3.9217e-07,0.0025015,0.18694,0.0091723,0.023864,6.7216e-07,0.42,0.98,0
0.022133,-0.0021069,0.02509,-2.0849e-06,0.0025088,8.0484e-05,0,0,0.049678,-0.0055238,0,0.00035413,0,0,0,0.02509,-2.3431e-06,0.0025088,0.18378,0.0091988,0.023936,6.7823e-07,0.44,0.98,0
0.023128,-0.0020943,0.025162,-3.9895e-06,0.0025158,7.708e-05,0,0,0.049821,-0.0055435,0,0.00033915,0,0,0,0.025162,-4.2256e-06,0.0025158,0.17549,0.0092246,0.024006,6.8418e-07,0.46,0.98,0
0.024126,-0.0020819,0.02523,-5.7881e-06,0.0025224,7.1505e-05,0,0,0.049957,-0.0055621,0,0.00031462,0,0,0,0.02523,-5.9907e-06,0.0025224,0.16234,0.009249,0.024072,6.8982e-07,0.48,0.98,0
0.025127,-0.0020705,0.025292,-7.4243e-06,0.0025285,6.3921e-05,0,0,0.050081,-0.0055791,0,0.00028125,0,0,0,0.025293,-7.5858e-06,0.0025285,0.14476,0.0092712,0.024132,6.95e-07,0.5,0.98,0
0.026129,-0.002061,0.025347,-8.8412e-06,0.0025338,5.4554e-05,0,0,0.050189,-0.0055939,0,0.00024004,0,0,0,0.025347,-8.9585e-06,0.0025338,0.12327,0.0092907,0.024185,6.9956e-07,0.52,0.98,0
0.027134,-0.0020541,0.025392,-9.9859e-06,0.0025382,4.369e-05,0,0,0.050279,-0.0056061,0,0.00019224,0,0,0,0.025392,-1.0061e-05,0.0025382,0.098545,0.0093069,0.024229,7.0335e-07,0.54,0.98,0
0.028141,-0.0020505,0.025427,-1.0814e-05,0.0025416,3.1673e-05,0,0,0.050348,-0.0056154,0,0.00013936,0,0,0,0.025427,-1.0854e-05,0.0025416,0.07134,0.0093193,0.024263,7.0626e-07,0.56,0.98,0
0.029148,-0.0020505,0.02545,-1.1295e-05,0.0025439,1.8889e-05,0,0,0.050394,-0.0056214,0,8.3109e-05,0,0,0,0.02545,-1.1309e-05,0.0025439,0.042504,0.0093276,0.024285,7.0822e-07,0.58,0.98,0
0.030156,-0.0020546,0.025462,-1.1411e-05,0.002545,5.749e-06,0,0,0.050417,-0.0056241,0,2.5296e-05,0,0,0,0.025462,-1.1412e-05,0.002545,0.012931,0.0093317,0.024296,7.0916e-07,0.6,0.98,0
0.031165,-0.0020627,0.025461,-1.1162e-05,0.0025449,-7.3227e-06,0,0,0.050415,-0.0056235,0,-3.222e-05,0,0,0,0.025461,-1.1164e-05,0.0025449,-0.016471,0.0093315,0.024295,7.0907e-07,0.62,0.98,0
0.032173,-0.0020751,0.025448,-1.0565e-05,0.0025437,-1.9914e-05,0,0,0.050389,-0.0056195,0,-8.7622e-05,0,0,0,0.025448,-1.0581e-05,0.0025437,-0.044818,0.009327,0.024282,7.0799e-07,0.64,0.98,0
0.03318,-0.0020914,0.025424,-9.6537e-06,0.0025414,-3.1641e-05,0,0,0.050341,-0.0056124,0,-0.00013922,0,0,0,0.025424,-9.693e-06,0.0025414,-0.071279,0.0093185,0.024259,7.0595e-07,0.66,0.98,0
0.034187,-0.0021115,0.025389,-8.4726e-06,0.0025381,-4.2164e-05,0,0,0.050273,-0.0056024,0,-0.00018552,0,0,0,0.025389,-8.5426e-06,0.0025381,-0.095119,0.0093063,0.024225,7.0304e-07,0.68,0.98,0
0.035191,-0.002135,0.025346,-7.078e-06,0.0025339,-5.1203e-05,0,0,0.050186,-0.0055901,0,-0.00022529,0,0,0,0.025346,-7.1814e-06,0.0025339,-0.11571,0.0092909,0.024183,6.9938e-07,0.7,0.98,0
0.036194,-0.0021612,0.025295,-5.5317e-06,0.0025289,-5.8543e-05,0,0,0.050084,-0.0055758,0,-0.00025759,0,0,0,0.025295,-5.6672e-06,0.0025289,-0.13258,0.0092726,0.024133,6.951e-07,0.72,0.98,0
0.037195,-0.0021897,0.025237,-3.8974e-06,0.0025233,-6.4045e-05,0,0,0.049971,-0.0055599,0,-0.0002818,0,0,0,0.025237,-4.0599e-06,0.0025233,-0.14538,0.0092523,0.024078,6.9034e-07,0.74,0.98,0
0.038193,-0.0022198,0.025176,-2.2365e-06,0.0025174,-6.7638e-05,0,0,0.049849,-0.0055431,0,-0.00029761,0,0,0,0.025176,-2.4182e-06,0.0025174,-0.15392,0.0092303,0.024018,6.8525e-07,0.76,0.98,0
0.039189,-0.0022508,0.025112,-6.046e-07,0.0025111,-6.9321e-05,0,0,0.049722,-0.0055258,0,-0.00030501,0,0,0,0.025112,-7.9595e-07,0.0025111,-0.15816,0.0092074,0.023956,6.7998e-07,0.78,0.98,0
0.040182,-0.0022821,0.025047,9.5063e-07,0.0025048,-6.9152e-05,0,0,0.049593,-0.0055085,0,-0.00030427,0,0,0,0.025047,7.5971e-07,0.0025048,-0.15819,0.0091843,0.023893,6.7467e-07,0.8,0.98,0
0.041172,-0.0023128,0.024983,2.3916e-06,0.0024986,-6.7238e-05,0,0,0.049466,-0.0054916,0,-0.00029584,0,0,0,0.024983,2.2106e-06,0.0024986,-0.15421,0.0091614,0.023831,6.6947e-07,0.82,0.98,0
0.04216,-0.0023423,0.024922,3.6912e-06,0.0024926,-6.3724e-05,0,0,0.049344,-0.0054755,0,-0.00028039,0,0,0,0.024922,3.5283e-06,0.0024926,-0.14652,0.0091394,0.023772,6.6451e-07,0.84,0.98,0
0.043146,-0.0023701,0.024864,4.8324e-06,0.0024869,-5.8783e-05,0,0,0.04923,-0.0054606,0,-0.00025865,0,0,0,0.024865,4.6934e-06,0.0024869,-0.13548,0.0091187,0.023716,6.5988e-07,0.86,0.98,0
0.04413,-0.0023954,0.024812,5.8072e-06,0.0024818,-5.2602e-05,0,0,0.049127,-0.0054472,0,-0.00023145,0,0,0,0.024812,5.6957e-06,0.0024818,-0.1215,0.0090999,0.023666,6.5569e-07,0.88,0.98,0
0.045111,-0.0024177,0.024766,6.6148e-06,0.0024773,-4.5374e-05,0,0,0.049036,-0.0054354,0,-0.00019964,0,0,0,0.024766,6.5316e-06,0.0024773,-0.105,0.0090833,0.023621,6.5202e-07,0.9,0.98,0
0.046091,-0.0024367,0.024727,7.2595e-06,0.0024735,-3.729e-05,0,0,0.048959,-0.0054256,0,-0.00016408,0,0,0,0.024727,7.2033e-06,0.0024735,-0.08643,0.0090693,0.023584,6.4893e-07,0.92,0.98,0
0.04707,-0.0024518,0.024696,7.7487e-06,0.0024704,-2.8537e-05,0,0,0.048897,-0.0054179,0,-0.00012556,0,0,0,0.024696,7.7158e-06,0.0024704,-0.066226,0.0090582,0.023554,6.4648e-07,0.94,0.98,0
0.048047,-0.0024628,0.024674,8.0907e-06,0.0024682,-1.9292e-05,0,0,0.048853,-0.0054122,0,-8.4886e-05,0,0,0,0.024674,8.0756e-06,0.0024682,-0.044814,0.0090501,0.023532,6.447e-07,0.96,0.98,0
0.049024,-0.0024695,0.02466,8.2925e-06,0.0024669,-9.7257e-06,0,0,0.048826,-0.0054088,0,-4.2793e-05,0,0,0,0.02466,8.2887e-06,0.0024669,-0.022604,0.0090451,0.023519,6.4363e-07,0.98,0.98,0
0.05,-0.0024718,0.024656,8.3592e-06,0.0024664,-2.5566e-05,0,0,0.048816,-0.0054077,0,-0.00011249,0,0,0,0.024656,8.3327e-06,0.0024664,-0.059431,0.0090435,0.023515,6.4327e-07,1,0.98,0
0,0,0.03387,0.0037633,0.0037633,-0.0045552,0,0,0.066234,8.6736e-19,0,-0.020043,0,0,0,0.034544,0.0030892,0.0037633,-8.4181,0.013799,0.031123,1.5459e-06,0,1,0
0.0013247,-0.00040086,0.031085,0.00063859,0.0031724,-0.0016256,0,0,0.061408,-0.0055743,0,-0.0071526,0,0,0,0.031172,0.00055204,0.0031724,-3.0476,0.011632,0.029397,1.2699e-06,0.02,1,0
0.0024563,-0.00070619,0.027745,0.00023963,0.0027985,-0.00071371,0,0,0.054883,-0.0056295,0,-0.0031403,0,0,0,0.027764,0.00022112,0.0027985,-1.4854,0.010261,0.026349,9.0926e-07,0.04,1,0
0.00352,-0.00096309,0.026429,6.575e-05,0.0026495,-0.00042361,0,0,0.052315,-0.0056842,0,-0.0018639,0,0,0,0.026436,5.8946e-05,0.0026495,-0.92031,0.0097148,0.025182,7.9094e-07,0.06,1,0
0.0045489,-0.0011809,0.025713,2.5095e-05,0.0025738,-0.00027144,0,0,0.050906,-0.0056072,0,-0.0011944,0,0,0,0.025716,2.2227e-05,0.0025738,-0.60535,0.0094373,0.024518,7.2937e-07,0.08,1,0
0.0055562,-0.0013684,0.025253,5.6673e-06,0.0025259,-0.00018768,0,0,0.05,-0.0055444,0,-0.00082582,0,0,0,0.025254,4.2722e-06,0.0025259,-0.4259,0.0092615,0.024088,6.9143e-07,0.1,1,0
0.0065489,-0.0015305,0.024938,-2.8796e-06,0.0024935,-0.00013359,0,0,0.049377,-0.005492,0,-0.00058778,0,0,0,0.024938,-3.5951e-06,0.0024935,-0.30688,0.0091427,0.023792,6.6606e-07,0.12,1,0
0.0075313,-0.0016703,0.024716,-7.2124e-06,0.0024709,-9.6047e-05,0,0,0.048939,-0.0054518,0,-0.00042261,0,0,0,0.024716,-7.5855e-06,0.0024709,-0.22258,0.0090598,0.023582,6.4856e-07,0.14,1,0
0.0085065,-0.0017905,0.024561,-9.3341e-06,0.0024551,-6.8327e-05,0,0,0.048632,-0.0054218,0,-0.00030064,0,0,0,0.024561,-9.5241e-06,0.0024551,-0.15933,0.0090021,0.023435,6.3647e-07,0.16,1,0
0.0094766,-0.001893,0.024455,-1.0272e-05,0.0024445,-4.6926e-05,0,0,0.048424,-0.0054005,0,-0.00020647,0,0,0,0.024456,-1.0362e-05,0.0024445,-0.10989,0.0089632,0.023335,6.2835e-07,0.18,1,0
0.010443,-0.0019794,0.024389,-1.0518e-05,0.0024379,-2.9812e-05,0,0,0.048293,-0.0053865,0,-0.00013117,0,0,0,0.02439,-1.0554e-05,0.0024379,-0.070004,0.0089389,0.023273,6.2328e-07,0.2,1,0
0.011408,-0.0020511,0.024355,-1.0342e-05,0.0024345,-1.5754e-05,0,0,0.048226,-0.0053787,0,-6.9318e-05,0,0,0,0.024355,-1.0352e-05,0.0024345,-0.037046,0.0089265,0.02324,6.2067e-07,0.22,1,0
0.012372,-0.0021095,0.024348,-9.8997e-06,0.0024338,-3.9782e-06,0,0,0.048211,-0.0053762,0,-1.7504e-05,0,0,0,0.024348,-9.9004e-06,0.0024338,-0.0093577,0.008924,0.023233,6.2009e-07,0.24,1,0
0.013337,-0.0021558,0.024363,-9.2844e-06,0.0024354,6.0104e-06,0,0,0.048241,-0.0053783,0,2.6446e-05,0,0,0,0.024363,-9.2859e-06,0.0024354,0.014129,0.0089298,0.023247,6.2124e-07,0.26,1,0
0.014302,-0.0021913,0.024398,-8.5577e-06,0.0024389,1.4525e-05,0,0,0.04831,-0.0053845,0,6.3912e-05,0,0,0,0.024398,-8.5664e-06,0.0024389,0.034099,0.0089427,0.023279,6.2386e-07,0.28,1,0
0.015269,-0.0022169,0.024449,-7.762e-06,0.0024441,2.176e-05,0,0,0.048411,-0.0053941,0,9.5742e-05,0,0,0,0.024449,-7.7814e-06,0.0024441,0.050977,0.0089617,0.023328,6.2776e-07,0.3,1,0
0.016239,-0.0022339,0.024514,-6.9283e-06,0.0024507,2.7823e-05,0,0,0.048539,-0.0054068,0,0.00012242,0,0,0,0.024514,-6.9599e-06,0.0024507,0.06501,0.0089859,0.023389,6.3276e-07,0.32,1,0
0.017211,-0.0022434,0.024591,-6.0807e-06,0.0024585,3.2767e-05,0,0,0.048691,-0.005422,0,0.00014418,0,0,0,0.024591,-6.1244e-06,0.0024585,0.076328,0.0090143,0.023462,6.3868e-07,0.34,1,0
0.018186,-0.0022464,0.024677,-5.2386e-06,0.0024671,3.6609e-05,0,0,0.048861,-0.0054392,0,0.00016108,0,0,0,0.024677,-5.2929e-06,0.0024671,0.084984,0.0090462,0.023543,6.4538e-07,0.36,1,0
0.019165,-0.0022443,0.024769,-4.4178e-06,0.0024765,3.9342e-05,0,0,0.049044,-0.005458,0,0.00017311,0,0,0,0.024769,-4.4803e-06,0.0024765,0.090988,0.0090805,0.023631,6.5266e-07,0.38,1,0
0.020148,-0.0022379,0.024867,-3.6316e-06,0.0024863,4.095e-05,0,0,0.049237,-0.0054778,0,0.00018018,0,0,0,0.024867,-3.699e-06,0.0024863,0.09434,0.0091164,0.023724,6.6034e-07,0.4,1,0
0.021135,-0.0022286,0.024966,-2.8903e-06,0.0024963,4.142e-05,0,0,0.049433,-0.0054982,0,0.00018225,0,0,0,0.024966,-2.9591e-06,0.0024963,0.095046,0.009153,0.023818,6.6824e-07,0.42,1,0
0.022125,-0.0022173,0.025064,-2.2023e-06,0.0025062,4.0751e-05,0,0,0.049627,-0.0055185,0,0.0001793,0,0,0,0.025064,-2.2686e-06,0.0025062,0.093147,0.0091893,0.023911,6.7615e-07,0.44,1,0
0.02312,-0.0022051,0.025159,-1.5734e-06,0.0025158,3.8964e-05,0,0,0.049815,-0.0055381,0,0.00017144,0,0,0,0.025159,-1.6338e-06,0.0025158,0.088728,0.0092245,0.024001,6.8385e-07,0.46,1,0
0.024118,-0.002193,0.025249,-1.0076e-06,0.0025248,3.6106e-05,0,0,0.049992,-0.0055567,0,0.00015887,0,0,0,0.025249,-1.0592e-06,0.0025248,0.08193,0.0092575,0.024086,6.9115e-07,0.48,1,0
0.025119,-0.002182,0.02533,-5.0682e-07,0.0025329,3.2254e-05,0,0,0.050153,-0.0055736,0,0.00014192,0,0,0,0.02533,-5.4789e-07,0.0025329,0.072957,0.0092874,0.024164,6.9782e-07,0.5,1,0
0.026124,-0.0021728,0.025401,-7.1882e-08,0.0025401,2.7521e-05,0,0,0.050294,-0.0055883,0,0.00012109,0,0,0,0.025401,-1.017e-07,0.0025401,0.062077,0.0093136,0.024231,7.0369e-07,0.52,1,0
0.027131,-0.0021661,0.02546,2.9758e-07,0.002546,2.2047e-05,0,0,0.05041,-0.0056006,0,9.7009e-05,0,0,0,0.02546,2.7849e-07,0.002546,0.049617,0.0093354,0.024287,7.0858e-07,0.54,1,0
0.02814,-0.0021627,0.025505,6.0252e-07,0.0025506,1.6004e-05,0,0,0.0505,-0.0056099,0,7.0419e-05,0,0,0,0.025505,5.9248e-07,0.0025506,0.035954,0.0093521,0.02433,7.1235e-07,0.56,1,0
0.029151,-0.0021629,0.025535,8.4413e-07,0.0025536,9.5838e-06,0,0,0.05056,-0.0056161,0,4.2169e-05,0,0,0,0.025535,8.4053e-07,0.0025536,0.021505,0.0093633,0.024359,7.149e-07,0.58,1,0
0.030163,-0.0021669,0.025551,1.0236e-06,0.0025552,2.9916e-06,0,0,0.05059,-0.0056191,0,1.3163e-05,0,0,0,0.025551,1.0232e-06,0.0025552,0.0067087,0.0093689,0.024373,7.1616e-07,0.6,1,0
0.031175,-0.0021751,0.02555,1.1418e-06,0.0025551,-3.5616e-06,0,0,0.050589,-0.0056188,0,-1.5671e-05,0,0,0,0.02555,1.1413e-06,0.0025551,-0.0079872,0.0093688,0.024373,7.1613e-07,0.62,1,0
0.032186,-0.0021874,0.025535,1.1996e-06,0.0025536,-9.8699e-06,0,0,0.050558,-0.0056153,0,-4.3427e-05,0,0,0,0.025535,1.1957e-06,0.0025536,-0.022147,0.0093632,0.024358,7.1482e-07,0.64,1,0
0.033197,-0.0022036,0.025505,1.1976e-06,0.0025506,-1.5741e-05,0,0,0.050499,-0.0056087,0,-6.9262e-05,0,0,0,0.025505,1.1879e-06,0.0025506,-0.035364,0.0093522,0.024329,7.1232e-07,0.66,1,0
0.034206,-0.0022235,0.025462,1.1369e-06,0.0025463,-2.1007e-05,0,0,0.050415,-0.0055994,0,-9.2432e-05,0,0,0,0.025462,1.1196e-06,0.0025463,-0.047274,0.0093365,0.024289,7.0874e-07,0.68,1,0
0.035214,-0.0022467,0.025408,1.0189e-06,0.0025409,-2.5527e-05,0,0,0.050307,-0.0055877,0,-0.00011232,0,0,0,0.025408,9.9325e-07,0.0025409,-0.057568,0.0093165,0.024237,7.0421e-07,0.7,1,0
0.036219,-0.0022727,0.025344,8.4605e-07,0.0025345,-2.9196e-05,0,0,0.05018,-0.005574,0,-0.00012846,0,0,0,0.025344,8.1242e-07,0.0025345,-0.066007,0.009293,0.024176,6.9892e-07,0.72,1,0
0.037221,-0.0023009,0.025272,6.2209e-07,0.0025273,-3.1943e-05,0,0,0.050039,-0.0055587,0,-0.00014055,0,0,0,0.025272,5.8172e-07,0.0025273,-0.072421,0.0092668,0.024108,6.9304e-07,0.74,1,0
0.03822,-0.0023307,0.025196,3.5233e-07,0.0025196,-3.3735e-05,0,0,0.049888,-0.0055424,0,-0.00014843,0,0,0,0.025196,3.0716e-07,0.0025196,-0.076715,0.0092386,0.024035,6.8677e-07,0.76,1,0
0.039216,-0.0023614,0.025116,4.3776e-08,0.0025116,-3.4571e-05,0,0,0.04973,-0.0055255,0,-0.00015211,0,0,0,0.025116,-3.81e-09,0.0025116,-0.078865,0.0092093,0.023959,6.8029e-07,0.78,1,0
0.040209,-0.0023922,0.025036,-2.9482e-07,0.0025035,-3.4482e-05,0,0,0.049571,-0.0055084,0,-0.00015172,0,0,0,0.025036,-3.4231e-07,0.0025035,-0.078913,0.0091797,0.023883,6.7379e-07,0.8,1,0
0.041199,-0.0024226,0.024957,-6.5318e-07,0.0024956,-3.3522e-05,0,0,0.049414,-0.0054918,0,-0.0001475,0,0,0,0.024957,-6.9821e-07,0.0024956,-0.076958,0.0091505,0.023808,6.6743e-07,0.82,1,0
0.042186,-0.0024519,0.024881,-1.0198e-06,0.002488,-3.1764e-05,0,0,0.049264,-0.0054758,0,-0.00013976,0,0,0,0.024881,-1.0604e-06,0.002488,-0.073145,0.0091226,0.023735,6.6138e-07,0.84,1,0
0.04317,-0.0024793,0.02481,-1.3824e-06,0.0024809,-2.9296e-05,0,0,0.049124,-0.0054609,0,-0.0001289,0,0,0,0.02481,-1.417e-06,0.0024809,-0.067652,0.0090964,0.023668,6.5575e-07,0.86,1,0
0.044151,-0.0025043,0.024745,-1.7285e-06,0.0024744,-2.6211e-05,0,0,0.048996,-0.0054474,0,-0.00011533,0,0,0,0.024746,-1.7563e-06,0.0024744,-0.060684,0.0090727,0.023607,6.5067e-07,0.88,1,0
0.04513,-0.0025264,0.024689,-2.0458e-06,0.0024687,-2.2605e-05,0,0,0.048884,-0.0054356,0,-9.9462e-05,0,0,0,0.024689,-2.0665e-06,0.0024687,-0.052455,0.0090518,0.023553,6.4622e-07,0.9,1,0
0.046106,-0.0025452,0.024641,-2.3229e-06,0.0024639,-1.8575e-05,0,0,0.04879,-0.0054256,0,-8.1729e-05,0,0,0,0.024641,-2.3368e-06,0.0024639,-0.043186,0.0090342,0.023508,6.4249e-07,0.92,1,0
0.047081,-0.0025602,0.024603,-2.5496e-06,0.0024601,-1.4213e-05,0,0,0.048715,-0.0054177,0,-6.2537e-05,0,0,0,0.024603,-2.5578e-06,0.0024601,-0.033096,0.0090202,0.023471,6.3954e-07,0.94,1,0
0.048055,-0.0025711,0.024576,-2.7179e-06,0.0024573,-9.6078e-06,0,0,0.04866,-0.005412,0,-4.2274e-05,0,0,0,0.024576,-2.7216e-06,0.0024573,-0.022397,0.0090101,0.023445,6.3739e-07,0.96,1,0
0.049028,-0.0025777,0.024559,-2.8213e-06,0.0024556,-4.8432e-06,0,0,0.048627,-0.0054085,0,-2.131e-05,0,0,0,0.024559,-2.8223e-06,0.0024556,-0.011298,0.0090039,0.023429,6.361e-07,0.98,1,0
0.05,-0.0025799,0.024553,-2.8562e-06,0.002455,-2.5301e-05,0,0,0.048616,-0.0054074,0,-0.00011133,0,0,0,0.024553,-2.8823e-06,0.002455,-0.059034,0.0090018,0.023424,6.3567e-07,1,1,0
