"Displacements:0","Displacements:1","Stress/Strain:0","Stress/Strain:1","Stress/Strain:2","Stress/Strain:3","Stress/Strain:4","Stress/Strain:5","Stress/Strain:6","Stress/Strain:7","Stress/Strain:8","Stress/Strain:9","Stress/Strain:10","Stress/Strain:11","Stress/Strain:12","Principal Stress:0","Principal Stress:1","Principal Stress:2","Principal Stress:3","Principal Stress:4","Principal Stress:5","Principal Stress:6","nodes:0","nodes:1","nodes:2"
0,0,0.028362,0.012155,0.012155,0.0079778,0,0,0.21069,0,0,0.20742,0,0,0,0.03163,0.0088868,0.012155,22.276,0.017557,0.021298,4.5702e-07,0,0,0
0.0042137,0.0041485,0.020433,0.0015316,0.0065894,0.0031563,0,0,0.17997,-0.065751,0,0.082063,0,0,0,0.020946,0.0010185,0.0065894,9.2339,0.009518,0.017808,1.9724e-07,0.02,0,0
0.0071987,0.0068393,0.015166,0.0007124,0.0047634,0.0010749,0,0,0.13523,-0.052663,0,0.027946,0,0,0,0.015245,0.0006329,0.0047634,4.23,0.0068804,0.013047,7.6708e-08,0.04,0,0
0.0096228,0.0092671,0.012576,6.041e-05,0.0037908,0.00068667,0,0,0.1142,-0.048495,0,0.017853,0,0,0,0.012613,2.2847e-05,0.0037908,3.1311,0.0054756,0.011193,4.5465e-08,0.06,0,0
0.011767,0.011447,0.011239,-2.4547e-05,0.0033645,0.00046117,0,0,0.10237,-0.044057,0,0.01199,0,0,0,0.011258,-4.3397e-05,0.0033645,2.3406,0.0048598,0.010041,3.2528e-08,0.08,0,0
0.013718,0.013464,0.010291,-6.7413e-05,0.0030671,0.00035269,0,0,0.093912,-0.040749,0,0.0091701,0,0,0,0.010303,-7.9408e-05,0.0030671,1.9478,0.0044303,0.0092211,2.5033e-08,0.1,0,0
0.015523,0.015352,0.0095585,-8.0066e-05,0.0028435,0.00028653,0,0,0.087294,-0.038007,0,0.0074498,0,0,0,0.009567,-8.8576e-05,0.0028435,1.7013,0.0041073,0.0085741,2.0074e-08,0.12,0,0
0.01721,0.017133,0.0089474,-8.6195e-05,0.0026583,0.00024466,0,0,0.081757,-0.035679,0,0.0063613,0,0,0,0.008954,-9.2816e-05,0.0026583,1.5503,0.0038398,0.0080327,1.6476e-08,0.14,0,0
0.018794,0.01882,0.0084139,-8.9524e-05,0.0024973,0.00021659,0,0,0.076915,-0.033629,0,0.0056314,0,0,0,0.0084194,-9.5037e-05,0.0024973,1.4581,0.0036072,0.0075593,1.3711e-08,0.16,0,0
0.020286,0.020422,0.0079318,-9.2238e-05,0.0023519,0.00019709,0,0,0.072539,-0.031773,0,0.0051244,0,0,0,0.0079366,-9.7076e-05,0.0023519,1.4062,0.0033971,0.0071319,1.1496e-08,0.18,0,0
0.021695,0.021945,0.0074853,-9.5037e-05,0.0022171,0.0001829,0,0,0.068487,-0.030057,0,0.0047555,0,0,0,0.0074897,-9.9448e-05,0.0022171,1.3814,0.0032024,0.0067365,9.6716e-09,0.2,0,0
0.023026,0.023389,0.0070651,-9.8153e-05,0.0020901,0.00017185,0,0,0.064675,-0.028447,0,0.004468,0,0,0,0.0070692,-0.00010227,0.0020901,1.3735,0.003019,0.0063651,8.1424e-09,0.22,0,0
0.024282,0.024755,0.0066665,-0.00010152,0.0019695,0.00016229,0,0,0.061061,-0.026923,0,0.0042196,0,0,0,0.0066704,-0.00010541,0.0019695,1.3728,0.0028448,0.0060131,6.8499e-09,0.24,0,0
0.025468,0.026041,0.0062883,-0.00010488,0.001855,0.00015294,0,0,0.057633,-0.025479,0,0.0039764,0,0,0,0.006292,-0.00010854,0.001855,1.3696,0.0026795,0.0056793,5.7575e-09,0.26,0,0
0.026587,0.027245,0.0059324,-0.00010784,0.0017474,0.0001427,0,0,0.054405,-0.024118,0,0.0037103,0,0,0,0.0059358,-0.00011121,0.0017474,1.3526,0.002524,0.0053648,4.8412e-09,0.28,0,0
0.027644,0.028363,0.0056031,-0.0001099,0.001648,0.00013071,0,0,0.051417,-0.022852,0,0.0033985,0,0,0,0.0056061,-0.00011289,0.001648,1.31,0.0023804,0.0050732,4.0843e-09,0.3,0,0
0.028644,0.02939,0.0053069,-0.00011048,0.0015589,0.00011628,0,0,0.048724,-0.021702,0,0.0030233,0,0,0,0.0053094,-0.00011297,0.0015589,1.2291,0.0022518,0.0048095,3.4735e-09,0.32,0,0
0.029593,0.030324,0.0050516,-0.00010893,0.0014828,9.9016e-05,0,0,0.046395,-0.020693,0,0.0025744,0,0,0,0.0050535,-0.00011083,0.0014828,1.0988,0.0021418,0.0045804,2.9972e-09,0.34,0,0
0.0305,0.031162,0.0048459,-0.00010465,0.0014224,7.8877e-05,0,0,0.044506,-0.019852,0,0.0020508,0,0,0,0.0048472,-0.00010591,0.0014224,0.91257,0.0020546,0.0043931,2.6446e-09,0.36,0,0
0.031373,0.031904,0.0046978,-9.7136e-05,0.0013802,5.6272e-05,0,0,0.043129,-0.019206,0,0.0014631,0,0,0,0.0046985,-9.7796e-05,0.0013802,0.67227,0.0019936,0.0042544,2.4061e-09,0.38,0,0
0.032225,0.032552,0.0046136,-8.6111e-05,0.0013582,3.2164e-05,0,0,0.042319,-0.018777,0,0.00083626,0,0,0,0.0046138,-8.6331e-05,0.0013582,0.3921,0.0019619,0.0041699,2.2734e-09,0.4,0,0
0.033066,0.033113,0.0045956,-7.1681e-05,0.0013572,8.1357e-06,0,0,0.0421,-0.018575,0,0.00021153,0,0,0,0.0045956,-7.1695e-05,0.0013572,0.099873,0.0019604,0.0041421,2.2396e-09,0.42,0,0
0.033909,0.033599,0.0046412,-5.4378e-05,0.001376,-1.3658e-05,0,0,0.042447,-0.018596,0,-0.00035511,0,0,0,0.0046413,-5.4418e-05,0.001376,-0.16665,0.0019876,0.0041688,2.2978e-09,0.44,0,0
0.034764,0.034024,0.0047407,-3.5057e-05,0.0014117,-3.0741e-05,0,0,0.043277,-0.018808,0,-0.00079927,0,0,0,0.0047409,-3.5255e-05,0.0014117,-0.36878,0.0020391,0.004242,2.4382e-09,0.46,0,0
0.03564,0.034409,0.0048778,-1.4658e-05,0.0014589,-4.0849e-05,0,0,0.044445,-0.019157,0,-0.0010621,0,0,0,0.0048781,-1.4999e-05,0.0014589,-0.47835,0.0021073,0.0043477,2.6438e-09,0.48,0,0
0.036542,0.034777,0.0050306,6.0044e-06,0.001511,-4.2589e-05,0,0,0.045755,-0.019565,0,-0.0011073,0,0,0,0.0050309,5.6435e-06,0.001511,-0.4856,0.0021825,0.0044671,2.8872e-09,0.5,0,0
0.03747,0.035152,0.0051754,2.6209e-05,0.0015605,-3.5952e-05,0,0,0.046994,-0.019946,0,-0.00093475,0,0,0,0.0051757,2.5958e-05,0.0015605,-0.40001,0.0022541,0.0045795,3.1304e-09,0.52,0,0
0.038422,0.035558,0.0052905,4.5058e-05,0.0016007,-2.228e-05,0,0,0.047968,-0.020223,0,-0.00057927,0,0,0,0.0052906,4.4964e-05,0.0016007,-0.24336,0.0023121,0.0046665,3.3308e-09,0.54,0,0
0.039389,0.036014,0.0053586,6.1296e-05,0.001626,-3.6887e-06,0,0,0.048524,-0.020341,0,-9.5907e-05,0,0,0,0.0053586,6.1294e-05,0.001626,-0.039897,0.0023486,0.0047139,3.4497e-09,0.56,0,0
0.040363,0.036535,0.0053686,7.3455e-05,0.0016326,1.777e-05,0,0,0.048568,-0.020269,0,0.00046203,0,0,0,0.0053687,7.3396e-05,0.0016326,0.19228,0.0023582,0.0047132,3.4606e-09,0.58,0,0
0.041332,0.037133,0.0053145,8.0297e-05,0.0016184,4.0661e-05,0,0,0.048049,-0.019996,0,0.0010572,0,0,0,0.0053148,7.9981e-05,0.0016184,0.44505,0.0023377,0.0046601,3.3522e-09,0.6,0,0
0.042285,0.037813,0.0051934,8.122e-05,0.0015824,6.4192e-05,0,0,0.046944,-0.019515,0,0.001669,0,0,0,0.0051943,8.0414e-05,0.0015824,0.71928,0.0022857,0.0045526,3.1278e-09,0.62,0,0
0.043209,0.038576,0.0050049,7.6394e-05,0.0015244,8.7797e-05,0,0,0.045247,-0.018824,0,0.0022827,0,0,0,0.0050065,7.483e-05,0.0015244,1.0202,0.0022019,0.0043902,2.8024e-09,0.64,0,0
0.044095,0.039418,0.0047504,6.6563e-05,0.0014451,0.00011067,0,0,0.042969,-0.017921,0,0.0028774,0,0,0,0.004753,6.395e-05,0.0014451,1.3528,0.0020873,0.0041735,2.4019e-09,0.66,0,0
0.044928,0.04033,0.004434,5.2679e-05,0.001346,0.00013155,0,0,0.040144,-0.016813,0,0.0034204,0,0,0,0.0044379,4.8733e-05,0.001346,1.7183,0.0019442,0.0039057,1.9606e-09,0.68,0,0
0.0457,0.041302,0.0040639,3.5608e-05,0.0012298,0.00014896,0,0,0.036842,-0.015525,0,0.0038728,0,0,0,0.0040694,3.0108e-05,0.0012298,2.1148,0.0017764,0.0035929,1.5175e-09,0.7,0,0
0.046402,0.042315,0.0036518,1.6064e-05,0.0011003,0.00016154,0,0,0.033168,-0.014096,0,0.0042,0,0,0,0.0036589,8.9008e-06,0.0011003,2.539,0.0015894,0.003245,1.1091e-09,0.72,0,0
0.047027,0.04335,0.0032124,-5.2857e-06,0.00096215,0.00016849,0,0,0.029254,-0.012577,0,0.0043806,0,0,0,0.0032212,-1.4084e-05,0.00096215,2.9892,0.0013898,0.0028743,7.6232e-10,0.74,0,0
0.047572,0.044386,0.0027618,-2.7707e-05,0.00082023,0.0001696,0,0,0.02524,-0.011023,0,0.0044097,0,0,0,0.0027721,-3.7981e-05,0.00082023,3.4666,0.0011848,0.0024942,4.9058e-10,0.76,0,0
0.048037,0.045401,0.0023154,-5.0408e-05,0.0006795,0.00016521,0,0,0.021267,-0.0094888,0,0.0042956,0,0,0,0.0023269,-6.1889e-05,0.0006795,3.9755,0.0009815,0.0021178,2.9395e-10,0.78,0,0
0.048423,0.046373,0.0018873,-7.2618e-05,0.00054441,0.00015595,0,0,0.017458,-0.0080213,0,0.0040548,0,0,0,0.0018996,-8.4949e-05,0.00054441,4.5211,0.00078637,0.0017566,1.6273e-10,0.8,0,0
0.048735,0.047282,0.0014893,-9.3672e-05,0.0004187,0.00014253,0,0,0.013918,-0.0066608,0,0.0037058,0,0,0,0.0015021,-0.0001064,0.0004187,5.1041,0.00060479,0.0014207,8.2337e-11,0.82,0,0
0.04898,0.048109,0.0011313,-0.00011302,0.00030549,0.00012556,0,0,0.010736,-0.0054407,0,0.0032646,0,0,0,0.0011439,-0.00012556,0.00030549,5.7048,0.00044127,0.0011181,3.7492e-11,0.84,0,0
0.049164,0.048838,0.00082162,-0.00013015,0.00020744,0.00010536,0,0,0.0079844,-0.0043887,0,0.0027393,0,0,0,0.00083315,-0.00014168,0.00020744,6.2418,0.00029964,0.00085547,1.5051e-11,0.86,0,0
0.049299,0.049453,0.00056829,-0.00014442,0.00012716,8.1742e-05,0,0,0.0057347,-0.0035305,0,0.0021253,0,0,0,0.00057755,-0.00015367,0.00012716,6.4596,0.00018368,0.0006389,5.2068e-12,0.88,0,0
0.049394,0.049941,0.00038112,-0.00015472,6.7922e-05,5.358e-05,0,0,0.0040716,-0.0028943,0,0.0013931,0,0,0,0.00038643,-0.00016002,6.7922e-05,5.6546,9.811e-05,0.0004754,1.5578e-12,0.9,0,0
0.049462,0.050289,0.00027672,-0.00015741,3.5792e-05,1.8276e-05,0,0,0.003132,-0.0025116,0,0.00047518,0,0,0,0.00027748,-0.00015818,3.5792e-05,2.4064,5.17e-05,0.00037805,5.2266e-13,0.92,0,0
0.049519,0.050484,0.00028624,-0.00014674,4.1848e-05,-3.2726e-05,0,0,0.0031771,-0.0024517,0,-0.00085089,0,0,0,0.0002887,-0.0001492,4.1848e-05,-4.2981,6.0447e-05,0.00038026,6.1711e-13,0.94,0,0
0.049589,0.050513,0.00051646,-6.9019e-05,0.00013423,-0.00010863,0,0,0.004969,-0.0026423,0,-0.0028244,0,0,0,0.00053597,-8.8524e-05,0.00013423,-10.179,0.00019389,0.00054818,3.9962e-12,0.96,0,0
0.049718,0.050373,0.0011631,7.8227e-05,0.0003724,-0.00032534,0,0,0.010279,-0.0038243,0,-0.0084587,0,0,0,0.0012532,-1.1854e-05,0.0003724,-15.477,0.00053792,0.0011233,4.5128e-11,0.98,0,0
0.05,0.05,0.0018994,0.00081401,0.00081401,-0.00071741,0,0,0.01411,3.3393e-17,0,-0.018653,0,0,0,0.0022562,0.00045715,0.00081401,-26.447,0.0011758,0.0016499,1.9477e-10,1,0,0
0,0,0.016391,0.0070249,0.0070249,0.0054489,0,0,0.12176,-8.6736e-18,0,0.14167,0,0,0,0.018893,0.0045232,0.0070249,24.661,0.010147,0.013297,1.0648e-07,0,0.02,0
0.0024353,0.0028334,0.014883,0.0014037,0.0048859,0.0034284,0,0,0.12996,-0.045269,0,0.089137,0,0,0,0.015704,0.00058183,0.0048859,13.481,0.0070574,0.013496,8.4309e-08,0.02,0.02,0
0.0051983,0.0057861,0.01488,0.0011244,0.0048014,0.0023249,0,0,0.13102,-0.0478,0,0.060448,0,0,0,0.015263,0.0007421,0.0048014,9.3384,0.0069353,0.012976,7.6305e-08,0.04,0.02,0
0.0076763,0.0082972,0.013192,0.00058895,0.0041342,0.0014848,0,0,0.11775,-0.046089,0,0.038604,0,0,0,0.013364,0.00041639,0.0041342,6.6292,0.0059717,0.011547,5.2322e-08,0.06,0.02,0
0.0099083,0.010565,0.011883,0.0003391,0.0036665,0.0010717,0,0,0.10681,-0.043257,0,0.027863,0,0,0,0.011981,0.00024045,0.0036665,5.2592,0.0052961,0.010458,3.8188e-08,0.08,0.02,0
0.011949,0.012649,0.010884,0.00020679,0.0033272,0.00082696,0,0,0.098238,-0.040566,0,0.021501,0,0,0,0.010948,0.00014312,0.0033272,4.4026,0.004806,0.0096163,2.9363e-08,0.1,0.02,0
0.013838,0.014592,0.010096,0.00013351,0.0030687,0.00067642,0,0,0.091348,-0.038157,0,0.017587,0,0,0,0.010141,8.7795e-05,0.0030687,3.8667,0.0044326,0.0089436,2.3455e-08,0.12,0.02,0
0.015603,0.016419,0.0094436,8.9771e-05,0.00286,0.00057779,0,0,0.085587,-0.036013,0,0.015022,0,0,0,0.0094792,5.4217e-05,0.00286,3.5213,0.0041312,0.008382,1.9217e-08,0.14,0.02,0
0.017261,0.018148,0.0088834,6.2398e-05,0.0026838,0.00051072,0,0,0.080596,-0.034078,0,0.013279,0,0,0,0.0089129,3.2926e-05,0.0026838,3.3026,0.0038765,0.0078957,1.6009e-08,0.16,0.02,0
0.018826,0.019787,0.0083869,4.492e-05,0.0025296,0.00046346,0,0,0.076146,-0.0323,0,0.01205,0,0,0,0.0084126,1.9251e-05,0.0025296,3.1702,0.0036538,0.0074619,1.3482e-08,0.18,0.02,0
0.020307,0.021344,0.0079363,3.3996e-05,0.0023911,0.00042871,0,0,0.072088,-0.030642,0,0.011147,0,0,0,0.0079595,1.0806e-05,0.0023911,3.0963,0.0034538,0.0070659,1.1431e-08,0.2,0.02,0
0.02171,0.02282,0.0075206,2.7802e-05,0.0022645,0.00040151,0,0,0.068329,-0.029077,0,0.010439,0,0,0,0.007542,6.3485e-06,0.0022645,3.0586,0.003271,0.0066984,9.7302e-09,0.22,0.02,0
0.02304,0.024216,0.0071332,2.529e-05,0.0021475,0.00037814,0,0,0.064813,-0.027589,0,0.0098318,0,0,0,0.0071532,5.2291e-06,0.0021475,3.0367,0.003102,0.0063538,8.3026e-09,0.24,0.02,0
0.024303,0.025532,0.0067709,2.5793e-05,0.002039,0.00035568,0,0,0.061515,-0.026172,0,0.0092478,0,0,0,0.0067896,7.0892e-06,0.002039,3.0102,0.0029452,0.0060291,7.0974e-09,0.26,0.02,0
0.025501,0.026763,0.0064332,2.8799e-05,0.0019386,0.00033171,0,0,0.05843,-0.024828,0,0.0086245,0,0,0,0.0064504,1.1664e-05,0.0019386,2.957,0.0028002,0.0057239,6.0808e-09,0.28,0.02,0
0.02664,0.027906,0.0061216,3.3799e-05,0.0018466,0.00030427,0,0,0.055575,-0.023567,0,0.007911,0,0,0,0.0061368,1.863e-05,0.0018466,2.8542,0.0026673,0.0054396,5.2293e-09,0.3,0.02,0
0.027724,0.028956,0.005839,4.0182e-05,0.0017638,0.00027189,0,0,0.052978,-0.022407,0,0.0070691,0,0,0,0.0058518,2.7462e-05,0.0017638,2.6786,0.0025477,0.0051792,4.5259e-09,0.32,0.02,0
0.028759,0.02991,0.0055895,4.7167e-05,0.001691,0.00023371,0,0,0.050681,-0.02137,0,0.0060765,0,0,0,0.0055994,3.7329e-05,0.001691,2.4104,0.0024426,0.004947,3.9566e-09,0.34,0.02,0
0.029751,0.030765,0.0053774,5.3765e-05,0.0016293,0.00018966,0,0,0.048725,-0.020483,0,0.0049311,0,0,0,0.0053841,4.7017e-05,0.0016293,2.0378,0.0023535,0.004748,3.5097e-09,0.36,0.02,0
0.030708,0.03152,0.0052065,5.8764e-05,0.0015796,0.00014061,0,0,0.04715,-0.019771,0,0.0036559,0,0,0,0.0052104,5.4926e-05,0.0015796,1.5635,0.0022816,0.0045873,3.1744e-09,0.38,0.02,0
0.031637,0.032177,0.0050795,6.0741e-05,0.0015421,8.86e-05,0,0,0.045987,-0.019258,0,0.0023036,0,0,0,0.0050811,5.9178e-05,0.0015421,1.0111,0.0022275,0.004469,2.9404e-09,0.4,0.02,0
0.032547,0.032742,0.0049967,5.8169e-05,0.0015165,3.6931e-05,0,0,0.045243,-0.018958,0,0.00096021,0,0,0,0.004997,5.7893e-05,0.0015165,0.42844,0.0021904,0.0043952,2.7969e-09,0.42,0.02,0
0.033447,0.033227,0.0049551,4.9772e-05,0.0015015,-9.8915e-06,0,0,0.044897,-0.018872,0,-0.00025718,0,0,0,0.0049551,4.9752e-05,0.0015015,-0.11554,0.0021688,0.0043645,2.7318e-09,0.44,0.02,0
0.034343,0.033647,0.0049481,3.5153e-05,0.001495,-4.6681e-05,0,0,0.04489,-0.018978,0,-0.0012137,0,0,0,0.0049485,3.471e-05,0.001495,-0.54434,0.0021594,0.0043706,2.7301e-09,0.46,0.02,0
0.035242,0.034026,0.0049653,1.5546e-05,0.0014943,-6.8633e-05,0,0,0.045124,-0.019223,0,-0.0017845,0,0,0,0.0049663,1.4595e-05,0.0014943,-0.79425,0.0021584,0.0044025,2.7718e-09,0.48,0.02,0
0.036148,0.034385,0.0049939,-6.0106e-06,0.0014964,-7.2801e-05,0,0,0.045468,-0.019531,0,-0.0018928,0,0,0,0.0049949,-7.0704e-06,0.0014964,-0.83402,0.0021614,0.0044452,2.8333e-09,0.5,0.02,0
0.037061,0.034753,0.0050197,-2.5595e-05,0.0014982,-5.9188e-05,0,0,0.045779,-0.01981,0,-0.0015389,0,0,0,0.0050204,-2.629e-05,0.0014982,-0.67204,0.0021641,0.0044833,2.8886e-09,0.52,0.02,0
0.037979,0.035153,0.00503,-4.018e-05,0.0014969,-3.0761e-05,0,0,0.04593,-0.019983,0,-0.00079979,0,0,0,0.0050302,-4.0367e-05,0.0014969,-0.3476,0.0021623,0.0045032,2.914e-09,0.54,0.02,0
0.038898,0.035607,0.0050144,-4.8999e-05,0.0014896,7.9066e-06,0,0,0.045822,-0.020002,0,0.00020557,0,0,0,0.0050144,-4.9011e-05,0.0014896,0.089469,0.0021517,0.0044961,2.8919e-09,0.56,0.02,0
0.039812,0.03613,0.0049655,-5.3425e-05,0.0014736,5.2455e-05,0,0,0.045395,-0.019852,0,0.0013638,0,0,0,0.0049661,-5.3973e-05,0.0014736,0.59873,0.0021286,0.0044571,2.8124e-09,0.58,0.02,0
0.040714,0.036733,0.0048791,-5.5576e-05,0.0014471,9.9976e-05,0,0,0.044617,-0.019534,0,0.0025994,0,0,0,0.0048811,-5.76e-05,0.0014471,1.1602,0.0020902,0.0043845,2.6731e-09,0.6,0.02,0
0.041597,0.037423,0.0047526,-5.6741e-05,0.0014088,0.00014898,0,0,0.04347,-0.019052,0,0.0038734,0,0,0,0.0047572,-6.1352e-05,0.0014088,1.7726,0.0020349,0.0042774,2.4774e-09,0.62,0.02,0
0.042453,0.038199,0.0045851,-5.6688e-05,0.0013585,0.00019843,0,0,0.041945,-0.018398,0,0.0051591,0,0,0,0.0045935,-6.5155e-05,0.0013585,2.4433,0.0019623,0.004135,2.2333e-09,0.64,0.02,0
0.043275,0.039059,0.0043769,-5.4107e-05,0.0012968,0.00024666,0,0,0.040041,-0.017562,0,0.0064131,0,0,0,0.0043906,-6.7795e-05,0.0012968,3.1764,0.0018732,0.0039567,1.9527e-09,0.66,0.02,0
0.044055,0.039994,0.0041303,-4.7764e-05,0.0012248,0.00029095,0,0,0.037772,-0.016543,0,0.0075648,0,0,0,0.0041505,-6.7928e-05,0.0012248,3.9644,0.0017691,0.0037434,1.6511e-09,0.68,0.02,0
0.044785,0.040991,0.0038501,-3.7472e-05,0.0011438,0.00032801,0,0,0.035182,-0.015356,0,0.0085283,0,0,0,0.0038776,-6.4953e-05,0.0011438,4.7892,0.0016521,0.0034984,1.3469e-09,0.7,0.02,0
0.045462,0.042033,0.0035432,-2.4244e-05,0.0010557,0.00035487,0,0,0.032338,-0.014039,0,0.0092266,0,0,0,0.0035782,-5.9202e-05,0.0010557,5.626,0.0015249,0.0032277,1.0581e-09,0.72,0.02,0
0.046079,0.043099,0.0032187,-9.7111e-06,0.0009627,0.00036969,0,0,0.029328,-0.012641,0,0.0096118,0,0,0,0.0032605,-5.1503e-05,0.0009627,6.4497,0.0013906,0.0029392,7.9998e-10,0.74,0.02,0
0.046635,0.044166,0.0028868,4.6034e-06,0.00086743,0.00037197,0,0,0.026252,-0.011217,0,0.0096712,0,0,0,0.0029341,-4.2628e-05,0.00086743,7.2364,0.001253,0.002642,5.822e-10,0.76,0.02,0
0.047129,0.045211,0.0025581,1.7685e-05,0.00077273,0.00036232,0,0,0.023209,-0.0098155,0,0.0094204,0,0,0,0.0026087,-3.2982e-05,0.00077273,7.9604,0.0011162,0.0023451,4.0842e-10,0.78,0.02,0
0.047563,0.046212,0.0022424,2.9079e-05,0.00068144,0.00034199,0,0,0.020292,-0.0084807,0,0.0088918,0,0,0,0.002294,-2.2559e-05,0.00068144,8.5864,0.0009843,0.002057,2.7692e-10,0.8,0.02,0
0.047941,0.047149,0.001949,3.8816e-05,0.00059634,0.00031241,0,0,0.017584,-0.0072477,0,0.0081227,0,0,0,0.0019988,-1.0982e-05,0.00059634,9.0566,0.00086137,0.0017853,1.8233e-10,0.82,0.02,0
0.048267,0.048001,0.0016861,4.734e-05,0.00052002,0.00027481,0,0,0.015159,-0.0061449,0,0.0071452,0,0,0,0.0017309,2.4814e-06,0.00052002,9.2707,0.00075114,0.0015365,1.1755e-10,0.84,0.02,0
0.048547,0.04875,0.0014614,5.5524e-05,0.00045507,0.00022986,0,0,0.013082,-0.0051941,0,0.0059763,0,0,0,0.001498,1.8897e-05,0.00045507,9.0538,0.00065733,0.0013164,7.5266e-11,0.86,0.02,0
0.04879,0.049383,0.0012827,6.4788e-05,0.00040425,0.00017717,0,0,0.01142,-0.004413,0,0.0046065,0,0,0,0.0013079,3.9538e-05,0.00040425,8.111,0.00058391,0.0011311,4.9101e-11,0.88,0.02,0
0.049004,0.049883,0.001159,7.7428e-05,0.00037091,0.00011475,0,0,0.010245,-0.0038153,0,0.0029835,0,0,0,0.001171,6.5386e-05,0.00037091,5.9903,0.00053577,0.0009889,3.4153e-11,0.9,0.02,0
0.0492,0.050238,0.0011014,9.7463e-05,0.00035967,3.7522e-05,0,0,0.0096429,-0.0034087,0,0.00097558,0,0,0,0.0011028,9.6062e-05,0.00035967,2.1374,0.00051952,0.00090425,2.7377e-11,0.92,0.02,0
0.04939,0.050435,0.0011227,0.00013153,0.00037626,-6.3885e-05,0,0,0.0097033,-0.0031815,0,-0.001661,0,0,0,0.0011268,0.00012743,0.00037626,-3.6728,0.00054349,0.00090107,2.8138e-11,0.94,0.02,0
0.049588,0.05046,0.0012243,0.00019256,0.00042507,-0.00021416,0,0,0.010391,-0.0030227,0,-0.0055682,0,0,0,0.001267,0.00014987,0.00042507,-11.272,0.00061399,0.0010081,3.9702e-11,0.96,0.02,0
0.049805,0.050297,0.0012323,0.0002334,0.00043969,-0.00040108,0,0,0.010303,-0.0026819,0,-0.010428,0,0,0,0.0013734,9.2283e-05,0.00043969,-19.384,0.00063511,0.0011475,5.4299e-11,0.98,0.02,0
0.05,0.05,0.0013104,0.0005616,0.0005616,-0.00057032,0,0,0.0097343,1.5016e-16,0,-0.014828,0,0,0,0.0016182,0.00025376,0.0005616,-28.358,0.00081119,0.0012396,7.7854e-11,1,0.02,0
0,0,0.013415,0.0057494,0.0057494,0.0044956,0,0,0.099657,8.6736e-19,0,0.11689,0,0,0,0.01549,0.0036746,0.0057494,24.774,0.0083047,0.010927,5.8945e-08,0,0.04,0
0.0019931,0.0023377,0.0129,0.0034791,0.0049137,0.0040735,0,0,0.10382,-0.01865,0,0.10591,0,0,0,0.014417,0.0019621,0.0049137,20.426,0.0070976,0.011273,5.6919e-08,0.02,0.04,0
0.0041529,0.0049273,0.012783,0.0016563,0.0043317,0.003371,0,0,0.10986,-0.03478,0,0.087645,0,0,0,0.013724,0.00071471,0.0043317,15.607,0.0062569,0.011631,5.5244e-08,0.04,0.04,0
0.0063876,0.0074235,0.012468,0.0010354,0.0040511,0.0025901,0,0,0.10942,-0.039204,0,0.067344,0,0,0,0.013028,0.000476,0.0040511,12.188,0.0058516,0.011201,4.8157e-08,0.06,0.04,0
0.0085298,0.0097163,0.011717,0.00064771,0.0037095,0.0019912,0,0,0.1041,-0.039804,0,0.05177,0,0,0,0.012065,0.00030044,0.0037095,9.8932,0.0053582,0.010484,3.8775e-08,0.08,0.04,0
0.010552,0.011841,0.010969,0.0004234,0.0034177,0.0015944,0,0,0.098165,-0.038926,0,0.041455,0,0,0,0.011205,0.0001876,0.0034177,8.4125,0.0049366,0.0098093,3.135e-08,0.1,0.04,0
0.012456,0.013825,0.010295,0.00028541,0.003174,0.001326,0,0,0.092569,-0.037552,0,0.034476,0,0,0,0.010467,0.00011272,0.003174,7.4199,0.0045847,0.0092137,2.5731e-08,0.12,0.04,0
0.014254,0.015692,0.0097012,0.00019777,0.0029697,0.0011415,0,0,0.087509,-0.036035,0,0.029679,0,0,0,0.0098364,6.2589e-05,0.0029697,6.754,0.0042895,0.0086928,2.1457e-08,0.14,0.04,0
0.015957,0.017457,0.009175,0.00014054,0.0027947,0.0010115,0,0,0.082944,-0.034503,0,0.026298,0,0,0,0.0092868,2.8688e-05,0.0027947,6.3105,0.0040367,0.0082314,1.8122e-08,0.16,0.04,0
0.017572,0.019131,0.0087019,0.00010289,0.0026414,0.00091741,0,0,0.078786,-0.033001,0,0.023853,0,0,0,0.0087987,6.1041e-06,0.0026414,6.0225,0.0038154,0.0078156,1.5452e-08,0.18,0.04,0
0.019108,0.020719,0.0082704,7.8743e-05,0.0025047,0.00084694,0,0,0.074953,-0.031538,0,0.02202,0,0,0,0.008357,-7.9073e-06,0.0025047,5.8416,0.0036179,0.0074342,1.3263e-08,0.2,0.04,0
0.02057,0.022226,0.0078719,6.4586e-05,0.002381,0.00079124,0,0,0.071383,-0.030113,0,0.020572,0,0,0,0.0079513,-1.4796e-05,0.002381,5.7291,0.0034392,0.0070791,1.1435e-08,0.22,0.04,0
0.021964,0.023651,0.0075008,5.831e-05,0.0022677,0.00074362,0,0,0.06803,-0.028723,0,0.019334,0,0,0,0.0075744,-1.5261e-05,0.0022677,5.6503,0.0032756,0.0067445,9.8863e-09,0.24,0.04,0
0.023292,0.024994,0.0071536,5.853e-05,0.0021637,0.00069874,0,0,0.06487,-0.027366,0,0.018167,0,0,0,0.0072218,-9.6285e-06,0.0021637,5.5713,0.0031253,0.0064266,8.5625e-09,0.26,0.04,0
0.024558,0.026252,0.0068287,6.4154e-05,0.0020679,0.00065221,0,0,0.061891,-0.026048,0,0.016958,0,0,0,0.006891,1.8442e-06,0.0020679,5.4573,0.0029869,0.0061234,7.4263e-09,0.28,0.04,0
0.025767,0.02742,0.006526,7.4085e-05,0.00198,0.00060049,0,0,0.059098,-0.024777,0,0.015613,0,0,0,0.0065814,1.8672e-05,0.00198,5.2723,0.00286,0.0058348,6.4518e-09,0.3,0.04,0
0.026922,0.028494,0.0062467,8.7005e-05,0.0019001,0.00054095,0,0,0.056506,-0.02357,0,0.014065,0,0,0,0.0062938,3.986e-05,0.0019001,4.9809,0.0027446,0.0055623,5.621e-09,0.32,0.04,0
0.028028,0.029469,0.0059925,0.00010124,0.0018281,0.00047204,0,0,0.054137,-0.02245,0,0.012273,0,0,0,0.0060301,6.3662e-05,0.0018281,4.5521,0.0026406,0.0053089,4.9207e-09,0.34,0.04,0
0.029088,0.030343,0.0057658,0.00011472,0.0017642,0.00039361,0,0,0.052022,-0.021443,0,0.010234,0,0,0,0.0057931,8.7437e-05,0.0017642,3.9652,0.0025482,0.0050793,4.341e-09,0.36,0.04,0
0.030108,0.031113,0.0055686,0.00012495,0.0017081,0.00030713,0,0,0.050187,-0.020581,0,0.0079853,0,0,0,0.0055859,0.00010768,0.0017081,3.219,0.0024672,0.004879,3.8732e-09,0.38,0.04,0
0.031095,0.031782,0.0054023,0.00012905,0.0016594,0.00021594,0,0,0.048657,-0.019895,0,0.0056144,0,0,0,0.0054111,0.00012022,0.0016594,2.341,0.0023969,0.0047137,3.5092e-09,0.4,0.04,0
0.032055,0.032355,0.0052672,0.00012391,0.0016173,0.00012548,0,0,0.047448,-0.019415,0,0.0032625,0,0,0,0.0052702,0.00012085,0.0016173,1.3967,0.0023361,0.004588,3.2395e-09,0.42,0.04,0
0.032993,0.032844,0.0051616,0.00010664,0.0015805,4.3221e-05,0,0,0.046555,-0.01916,0,0.0011237,0,0,0,0.005162,0.00010627,0.0015805,0.48984,0.0022829,0.0045034,3.0522e-09,0.44,0.04,0
0.033917,0.033265,0.0050815,7.6008e-05,0.0015473,-2.1927e-05,0,0,0.045945,-0.019126,0,-0.00057011,0,0,0,0.0050816,7.5912e-05,0.0015473,-0.25099,0.0022349,0.0044561,2.9304e-09,0.46,0.04,0
0.034831,0.03364,0.0050197,3.4225e-05,0.0015162,-6.145e-05,0,0,0.045546,-0.019266,0,-0.0015977,0,0,0,0.0050205,3.3468e-05,0.0015162,-0.70607,0.00219,0.0044356,2.852e-09,0.48,0.04,0
0.035739,0.033995,0.0049673,-1.1992e-05,0.0014866,-6.9907e-05,0,0,0.045249,-0.019482,0,-0.0018176,0,0,0,0.0049683,-1.2973e-05,0.0014866,-0.8042,0.0021473,0.0044263,2.7918e-09,0.5,0.04,0
0.036641,0.03436,0.0049147,-5.3445e-05,0.0014584,-4.7505e-05,0,0,0.044932,-0.019654,0,-0.0012351,0,0,0,0.0049151,-5.3899e-05,0.0014584,-0.54779,0.0021065,0.0044118,2.7269e-09,0.52,0.04,0
0.037536,0.034758,0.0048535,-8.3081e-05,0.0014311,-8.2747e-08,0,0,0.044491,-0.019685,0,-2.1514e-06,0,0,0,0.0048535,-8.3081e-05,0.0014311,-0.00096038,0.0020672,0.0043804,2.6424e-09,0.54,0.04,0
0.038421,0.035214,0.0047784,-9.962e-05,0.0014036,6.3569e-05,0,0,0.043872,-0.019542,0,0.0016528,0,0,0,0.0047792,-0.00010045,0.0014036,0.7465,0.0020275,0.0043283,2.5327e-09,0.56,0.04,0
0.039291,0.035741,0.0046862,-0.0001071,0.0013737,0.00013574,0,0,0.043062,-0.019251,0,0.0035291,0,0,0,0.0046901,-0.00011093,0.0013737,1.6207,0.0019843,0.0042575,2.4e-09,0.58,0.04,0
0.040143,0.036352,0.004576,-0.00011096,0.0013395,0.00021203,0,0,0.042074,-0.018856,0,0.0055128,0,0,0,0.0045855,-0.00012053,0.0013395,2.5849,0.0019348,0.0041723,2.2489e-09,0.6,0.04,0
0.040974,0.037051,0.0044467,-0.00011424,0.0012997,0.00029108,0,0,0.040911,-0.018382,0,0.0075681,0,0,0,0.0044652,-0.00013275,0.0012997,3.637,0.0018774,0.0040751,2.0835e-09,0.62,0.04,0
0.041779,0.03784,0.004297,-0.00011596,0.0012543,0.00037217,0,0,0.039555,-0.017814,0,0.0096765,0,0,0,0.0043282,-0.00014713,0.0012543,4.787,0.0018118,0.0039649,1.9054e-09,0.64,0.04,0
0.042556,0.038715,0.0041255,-0.00011244,0.0012039,0.00045291,0,0,0.03798,-0.017112,0,0.011776,0,0,0,0.0041733,-0.0001603,0.0012039,6.0325,0.001739,0.0038379,1.7153e-09,0.66,0.04,0
0.043299,0.039669,0.0039315,-0.0001003,0.0011493,0.00052833,0,0,0.036167,-0.016245,0,0.013737,0,0,0,0.0039995,-0.00016838,0.0011493,7.343,0.0016602,0.00369,1.5151e-09,0.68,0.04,0
0.044003,0.040688,0.0037164,-7.8994e-05,0.0010912,0.00059207,0,0,0.034127,-0.015213,0,0.015394,0,0,0,0.0038066,-0.00016921,0.0010912,8.6637,0.0015762,0.0035192,1.3091e-09,0.7,0.04,0
0.044664,0.041753,0.0034842,-5.0996e-05,0.00103,0.0006384,0,0,0.031905,-0.014052,0,0.016598,0,0,0,0.0035959,-0.00016275,0.00103,9.9292,0.0014877,0.0033267,1.1044e-09,0.72,0.04,0
0.045279,0.042845,0.0032406,-2.0107e-05,0.00096614,0.00066383,0,0,0.029568,-0.012821,0,0.01726,0,0,0,0.0033705,-0.00015007,0.00096614,11.077,0.0013955,0.0031162,9.0884e-10,0.74,0.04,0
0.045846,0.043937,0.0029927,1.0372e-05,0.00090092,0.00066731,0,0,0.027193,-0.011577,0,0.01735,0,0,0,0.0031352,-0.00013213,0.00090092,12.055,0.0013013,0.0028926,7.2983e-10,0.76,0.04,0
0.046367,0.045008,0.002748,3.8347e-05,0.0008359,0.00064973,0,0,0.024857,-0.010368,0,0.016893,0,0,0,0.0028957,-0.00010939,0.0008359,12.81,0.0012074,0.0026615,5.7268e-10,0.78,0.04,0
0.046841,0.046034,0.0025137,6.2906e-05,0.00077299,0.00061304,0,0,0.02263,-0.0092311,0,0.015939,0,0,0,0.0026585,-8.1883e-05,0.00077299,13.289,0.0011165,0.0024286,4.4019e-10,0.8,0.04,0
0.047272,0.046992,0.0022966,8.4043e-05,0.0007142,0.00055954,0,0,0.020572,-0.0081921,0,0.014548,0,0,0,0.0024301,-4.941e-05,0.0007142,13.415,0.0010316,0.0021995,3.3273e-10,0.82,0.04,0
0.047664,0.047864,0.0021029,0.00010256,0.00066164,0.00049129,0,0,0.018737,-0.0072681,0,0.012774,0,0,0,0.0022171,-1.1584e-05,0.00066164,13.08,0.00095571,0.0019798,2.4877e-10,0.84,0.04,0
0.048021,0.048631,0.0019382,0.00012008,0.00061748,0.00040951,0,0,0.017169,-0.0064661,0,0.010647,0,0,0,0.0020262,3.2102e-05,0.00061748,12.125,0.00089191,0.0017753,1.8557e-10,0.86,0.04,0
0.04835,0.049277,0.0018074,0.00013914,0.00058395,0.00031402,0,0,0.015904,-0.0057825,0,0.0081645,0,0,0,0.0018645,8.1987e-05,0.00058395,10.315,0.00084348,0.001592,1.3991e-10,0.88,0.04,0
0.048657,0.049788,0.0017143,0.00016346,0.00056333,0.00020254,0,0,0.014963,-0.0051983,0,0.005266,0,0,0,0.0017403,0.00013745,0.00056333,7.3192,0.0008137,0.001438,1.0878e-10,0.9,0.04,0
0.048949,0.050152,0.0016596,0.0001985,0.00055742,7.0367e-05,0,0,0.014328,-0.004666,0,0.0018295,0,0,0,0.001663,0.00019511,0.00055742,2.7509,0.00080517,0.0013244,8.989e-11,0.92,0.04,0
0.049231,0.050357,0.0016352,0.00025324,0.00056654,-9.0129e-05,0,0,0.013893,-0.0040729,0,-0.0023434,0,0,0,0.0016411,0.00024738,0.00056654,-3.7157,0.00081833,0.0012647,8.201e-11,0.94,0.04,0
0.049505,0.050392,0.0016022,0.00033676,0.00058169,-0.00027743,0,0,0.013267,-0.003184,0,-0.0072131,0,0,0,0.0016603,0.00027861,0.00058169,-11.838,0.00084021,0.0012579,8.2561e-11,0.96,0.04,0
0.049761,0.050266,0.0015849,0.00052262,0.00063227,-0.00047348,0,0,0.012385,-0.0014255,0,-0.01231,0,0,0,0.0017653,0.00034222,0.00063227,-20.857,0.00091328,0.0013025,9.4804e-11,0.98,0.04,0
0.05,0.05,0.0016073,0.00068884,0.00068884,-0.00051111,0,0,0.01194,1.0316e-16,0,-0.013289,0,0,0,0.0018352,0.00046096,0.00068884,-24.03,0.000995,0.0012756,9.5245e-11,1,0.04,0
0,0,0.011742,0.0050321,0.0050321,0.0040143,0,0,0.087223,2.6021e-18,0,0.10437,0,0,0,0.013618,0.0031553,0.0050321,25.057,0.0072686,0.0096623,4.0502e-08,0,0.06,0
0.0017445,0.0020874,0.011591,0.0038504,0.0046323,0.0038464,0,0,0.090458,-0.010165,0,0.10001,0,0,0,0.013177,0.0022641,0.0046323,22.412,0.0066911,0.0099426,4.0988e-08,0.02,0.06,0
0.0036183,0.0043949,0.011628,0.0025394,0.0042503,0.0036333,0,0,0.095915,-0.022242,0,0.094465,0,0,0,0.012902,0.0012656,0.0042503,19.321,0.0061394,0.010468,4.3172e-08,0.04,0.06,0
0.005581,0.006729,0.011519,0.0015999,0.0039356,0.003133,0,0,0.098581,-0.030364,0,0.081458,0,0,0,0.012426,0.00069314,0.0039356,16.141,0.0056847,0.010494,4.0807e-08,0.06,0.06,0
0.0075616,0.0089732,0.011218,0.0010676,0.0036856,0.0026208,0,0,0.097919,-0.034035,0,0.068141,0,0,0,0.011855,0.00043081,0.0036856,13.656,0.0053237,0.010194,3.6293e-08,0.08,0.06,0
0.0094978,0.011092,0.010763,0.00072728,0.003447,0.0021998,0,0,0.095105,-0.035357,0,0.057195,0,0,0,0.011224,0.00026625,0.003447,11.836,0.004979,0.0097638,3.1262e-08,0.1,0.06,0
0.011366,0.013089,0.010273,0.00050722,0.0032341,0.0018822,0,0,0.091507,-0.03545,0,0.048937,0,0,0,0.010623,0.00015702,0.0032341,10.54,0.0046715,0.009317,2.6779e-08,0.12,0.06,0
0.013158,0.014978,0.0097948,0.00036059,0.0030466,0.0016466,0,0,0.087726,-0.034918,0,0.042812,0,0,0,0.010074,8.1447e-05,0.0030466,9.6214,0.0044007,0.0088889,2.3006e-08,0.14,0.06,0
0.014875,0.016767,0.0093442,0.00026144,0.0028817,0.001472,0,0,0.084012,-0.034063,0,0.038272,0,0,0,0.0095768,2.8834e-05,0.0028817,8.9795,0.0041624,0.008489,1.9875e-08,0.16,0.06,0
0.016519,0.018467,0.0089238,0.0001944,0.0027354,0.0013409,0,0,0.080448,-0.033034,0,0.034864,0,0,0,0.0091251,-6.9345e-06,0.0027354,8.539,0.0039512,0.0081161,1.7263e-08,0.18,0.06,0
0.018093,0.020082,0.0085313,0.00015036,0.0026045,0.0012401,0,0,0.077049,-0.031904,0,0.032243,0,0,0,0.008711,-2.9284e-05,0.0026045,8.2427,0.0037621,0.0077659,1.5059e-08,0.2,0.06,0
0.0196,0.021615,0.0081633,0.0001238,0.0024861,0.0011593,0,0,0.073803,-0.03071,0,0.030141,0,0,0,0.0083272,-4.0022e-05,0.0024861,8.0436,0.0035911,0.0074333,1.3175e-08,0.22,0.06,0
0.021045,0.023067,0.0078165,0.00011127,0.0023783,0.0010901,0,0,0.070696,-0.029472,0,0.028344,0,0,0,0.0079677,-3.9992e-05,0.0023783,7.8998,0.0034354,0.0071138,1.1544e-08,0.24,0.06,0
0.022428,0.024437,0.0074882,0.00011043,0.0022796,0.0010259,0,0,0.067712,-0.028199,0,0.026673,0,0,0,0.0076282,-2.9563e-05,0.0022796,7.7707,0.0032927,0.0068037,1.0118e-08,0.26,0.06,0
0.023753,0.025721,0.0071769,0.00011939,0.0021889,0.00096081,0,0,0.064844,-0.026903,0,0.024981,0,0,0,0.0073054,-9.0717e-06,0.0021889,7.6156,0.0031617,0.0065004,8.8623e-09,0.28,0.06,0
0.025022,0.026915,0.0068818,0.00013622,0.0021054,0.00089021,0,0,0.062093,-0.0256,0,0.023145,0,0,0,0.0069973,2.0715e-05,0.0021054,7.3927,0.0030411,0.0062028,7.7528e-09,0.3,0.06,0
0.026237,0.028014,0.0066031,0.00015853,0.0020285,0.00081057,0,0,0.05947,-0.024309,0,0.021075,0,0,0,0.0067035,5.8147e-05,0.0020285,7.06,0.00293,0.0059118,6.7741e-09,0.32,0.06,0
0.027401,0.029012,0.0063414,0.00018331,0.0019574,0.00071979,0,0,0.056992,-0.023063,0,0.018714,0,0,0,0.0064244,0.0001003,0.0019574,6.5789,0.0028274,0.0056302,5.917e-09,0.34,0.06,0
0.028517,0.029908,0.0060979,0.0002068,0.0018914,0.00061754,0,0,0.054684,-0.0219,0,0.016056,0,0,0,0.0061619,0.00014276,0.0018914,5.9204,0.002732,0.0053631,5.1762e-09,0.36,0.06,0
0.029588,0.030697,0.0058736,0.00022462,0.0018295,0.00050553,0,0,0.052574,-0.020863,0,0.013144,0,0,0,0.0059185,0.00017974,0.0018295,5.0737,0.0026426,0.0051174,4.5485e-09,0.38,0.06,0
0.03062,0.031381,0.0056698,0.00023197,0.0017705,0.00038771,0,0,0.050691,-0.020001,0,0.01008,0,0,0,0.0056973,0.00020446,0.0017705,4.0577,0.0025574,0.0049012,4.031e-09,0.4,0.06,0
0.031616,0.031965,0.0054873,0.00022349,0.0017132,0.00027034,0,0,0.049063,-0.019367,0,0.0070289,0,0,0,0.0055011,0.00020964,0.0017132,2.9324,0.0024747,0.0047228,3.6192e-09,0.42,0.06,0
0.032582,0.03246,0.0053263,0.00019398,0.0016561,0.00016243,0,0,0.047712,-0.019007,0,0.0042233,0,0,0,0.0053314,0.00018884,0.0016561,1.811,0.0023921,0.0045884,3.3049e-09,0.44,0.06,0
0.033524,0.032883,0.0051847,0.00013987,0.0015974,7.5354e-05,0,0,0.046635,-0.018947,0,0.0019592,0,0,0,0.0051858,0.00013875,0.0015974,0.85557,0.0023073,0.0044987,3.0727e-09,0.46,0.06,0
0.034448,0.033255,0.005058,6.4012e-05,0.0015366,2.1394e-05,0,0,0.045778,-0.019144,0,0.00055625,0,0,0,0.0050581,6.3921e-05,0.0015366,0.24545,0.0022195,0.0044447,2.8973e-09,0.48,0.06,0
0.035355,0.033606,0.004939,-2.1099e-05,0.0014754,8.7854e-06,0,0,0.045027,-0.019454,0,0.00022842,0,0,0,0.004939,-2.1115e-05,0.0014754,0.10148,0.0021311,0.0044068,2.7475e-09,0.5,0.06,0
0.036249,0.033967,0.0048205,-9.609e-05,0.0014173,3.7227e-05,0,0,0.044242,-0.019675,0,0.00096791,0,0,0,0.0048208,-9.6372e-05,0.0014173,0.43379,0.0020473,0.004362,2.5968e-09,0.52,0.06,0
0.037125,0.034366,0.0046978,-0.00014608,0.0013655,9.6372e-05,0,0,0.04332,-0.019651,0,0.0025057,0,0,0,0.0046998,-0.000148,0.0013655,1.1393,0.0019724,0.0042959,2.4335e-09,0.54,0.06,0
0.037982,0.034825,0.0045697,-0.00017007,0.0013199,0.00017201,0,0,0.042247,-0.019369,0,0.0044722,0,0,0,0.0045759,-0.0001763,0.0013199,2.0756,0.0019065,0.0042086,2.2614e-09,0.56,0.06,0
0.038815,0.03536,0.0044385,-0.00017839,0.001278,0.00025311,0,0,0.041086,-0.018933,0,0.0065808,0,0,0,0.0044523,-0.00019222,0.001278,3.1286,0.0018461,0.0041116,2.0922e-09,0.58,0.06,0
0.039625,0.035979,0.0043077,-0.00018355,0.0012373,0.00033608,0,0,0.039916,-0.01847,0,0.0087381,0,0,0,0.0043327,-0.00020856,0.0012373,4.2558,0.0017871,0.0040184,1.937e-09,0.6,0.06,0
0.040412,0.036687,0.0041786,-0.00019156,0.0011961,0.00042267,0,0,0.038772,-0.01804,0,0.010989,0,0,0,0.0042191,-0.00023206,0.0011961,5.4739,0.0017277,0.0039364,1.7997e-09,0.62,0.06,0
0.041176,0.037487,0.0040489,-0.00019937,0.0011549,0.00051533,0,0,0.037623,-0.017605,0,0.013399,0,0,0,0.0041106,-0.00026098,0.0011549,6.8184,0.0016681,0.0038634,1.6768e-09,0.64,0.06,0
0.041917,0.038375,0.0039141,-0.00019797,0.0011148,0.00061236,0,0,0.03639,-0.017066,0,0.015921,0,0,0,0.0040034,-0.00028722,0.0011148,8.2927,0.0016103,0.0037893,1.56e-09,0.66,0.06,0
0.042632,0.039344,0.0037697,-0.00017919,0.0010771,0.00070667,0,0,0.035003,-0.016332,0,0.018373,0,0,0,0.0038923,-0.00030185,0.0010771,9.8464,0.0015559,0.0037026,1.4407e-09,0.68,0.06,0
0.043317,0.040383,0.0036134,-0.00014175,0.0010415,0.00078797,0,0,0.033435,-0.015382,0,0.020487,0,0,0,0.003772,-0.00030039,0.0010415,11.383,0.0015044,0.0035945,1.3135e-09,0.7,0.06,0
0.043969,0.041471,0.0034461,-9.1277e-05,0.0010065,0.00084732,0,0,0.031715,-0.01427,0,0.02203,0,0,0,0.0036386,-0.00028377,0.0010065,12.799,0.0014537,0.0034625,1.1774e-09,0.72,0.06,0
0.044585,0.042586,0.0032713,-3.5542e-05,0.00097074,0.0008795,0,0,0.029908,-0.013082,0,0.022867,0,0,0,0.0034907,-0.0002549,0.00097074,14.005,0.0014022,0.0033077,1.0353e-09,0.74,0.06,0
0.045165,0.043702,0.0030941,1.9374e-05,0.00093404,0.00088318,0,0,0.028081,-0.011891,0,0.022963,0,0,0,0.0033297,-0.00021625,0.00093404,14.938,0.0013492,0.0031334,8.9241e-10,0.76,0.06,0
0.045709,0.044796,0.0029197,7.0046e-05,0.00089693,0.00085937,0,0,0.026296,-0.01075,0,0.022344,0,0,0,0.0031588,-0.00016905,0.00089693,15.548,0.0012956,0.0029434,7.5428e-10,0.78,0.06,0
0.046217,0.045843,0.0027532,0.00011483,0.00086042,0.00081038,0,0,0.024607,-0.0096927,0,0.02107,0,0,0,0.0029823,-0.00011419,0.00086042,15.781,0.0012428,0.0027423,6.2587e-10,0.8,0.06,0
0.046693,0.046821,0.0025993,0.00015356,0.00082586,0.000739,0,0,0.023055,-0.0087399,0,0.019214,0,0,0,0.0028053,-5.2396e-05,0.00082586,15.573,0.0011929,0.0025353,5.11e-10,0.82,0.06,0
0.047139,0.04771,0.002462,0.00018735,0.00079481,0.00064801,0,0,0.021674,-0.0078969,0,0.016848,0,0,0,0.0026337,1.5698e-05,0.00079481,14.836,0.0011481,0.0023283,4.1203e-10,0.84,0.06,0
0.04756,0.048492,0.0023446,0.00021878,0.00076901,0.00053945,0,0,0.020482,-0.0071529,0,0.014026,0,0,0,0.0024736,8.9725e-05,0.00076901,13.454,0.0011108,0.0021272,3.2977e-10,0.86,0.06,0
0.047959,0.049151,0.0022489,0.00025181,0.00075021,0.00041413,0,0,0.019483,-0.0064792,0,0.010767,0,0,0,0.0023314,0.00016934,0.00075021,11.263,0.0010836,0.001938,2.6374e-10,0.88,0.06,0
0.048339,0.049675,0.0021746,0.00029189,0.00073995,0.00027152,0,0,0.018651,-0.0058247,0,0.0070595,0,0,0,0.002213,0.00025351,0.00073995,8.0447,0.0010688,0.0017672,2.1271e-10,0.9,0.06,0
0.048704,0.050052,0.0021175,0.00034649,0.00073919,0.00011027,0,0,0.017918,-0.0051051,0,0.0028671,0,0,0,0.0021243,0.00033965,0.00073919,3.5494,0.0010677,0.0016222,1.7523e-10,0.92,0.06,0
0.049056,0.050272,0.0020665,0.00042519,0.00074751,-6.8173e-05,0,0,0.017147,-0.0041902,0,-0.0017725,0,0,0,0.0020693,0.00042236,0.00074751,-2.3744,0.0010797,0.0015109,1.4985e-10,0.94,0.06,0
0.04939,0.050333,0.0020189,0.00054725,0.00076985,-0.00025496,0,0,0.016238,-0.0028938,0,-0.0066289,0,0,0,0.0020619,0.00050433,0.00076985,-9.5553,0.001112,0.0014432,1.3693e-10,0.96,0.06,0
0.049705,0.050239,0.0019747,0.00070008,0.00080243,-0.00043111,0,0,0.015239,-0.0013306,0,-0.011209,0,0,0,0.0021068,0.00056796,0.00080243,-17.038,0.0011591,0.001436,1.3853e-10,0.98,0.06,0
0.05,0.05,0.0019832,0.00084996,0.00084996,-0.00046067,0,0,0.014733,1.6263e-19,0,-0.011977,0,0,0,0.0021469,0.00068632,0.00084996,-19.555,0.0012277,0.001386,1.3034e-10,1,0.06,0
0,0,0.01076,0.0046112,0.0046112,0.0037137,0,0,0.079928,3.0358e-18,0,0.096556,0,0,0,0.012506,0.0028644,0.0046112,25.191,0.0066607,0.0088981,3.1535e-08,0,0.08,0
0.0015986,0.0019311,0.010686,0.003846,0.0043597,0.0036483,0,0,0.082247,-0.0066782,0,0.094855,0,0,0,0.012267,0.0022655,0.0043597,23.424,0.0062974,0.0091362,3.2337e-08,0.02,0.08,0
0.0032899,0.0040376,0.010785,0.0029285,0.0041142,0.0035905,0,0,0.086726,-0.015413,0,0.093354,0,0,0,0.012179,0.0015349,0.0041142,21.213,0.0059427,0.0096175,3.4851e-08,0.04,0.08,0
0.0050676,0.0062089,0.010797,0.0020977,0.0038685,0.0033259,0,0,0.090073,-0.023019,0,0.086472,0,0,0,0.011923,0.00097194,0.0038685,18.701,0.0055878,0.0098283,3.486e-08,0.06,0.08,0
0.0068928,0.0083549,0.010678,0.0014807,0.0036476,0.0029646,0,0,0.091394,-0.02817,0,0.077079,0,0,0,0.011551,0.00060792,0.0036476,16.404,0.0052687,0.0097837,3.2911e-08,0.08,0.08,0
0.0087234,0.010427,0.01044,0.0010572,0.003449,0.0026098,0,0,0.090877,-0.031094,0,0.067856,0,0,0,0.011117,0.00038012,0.003449,14.544,0.004982,0.0095782,3.0006e-08,0.1,0.08,0
0.010528,0.012407,0.010123,0.00076257,0.0032655,0.0023055,0,0,0.089141,-0.032539,0,0.059942,0,0,0,0.01066,0.00022552,0.0032655,13.113,0.0047169,0.0092947,2.6859e-08,0.12,0.08,0
0.012289,0.014295,0.0097728,0.00055668,0.0030989,0.0020599,0,0,0.086762,-0.033048,0,0.053559,0,0,0,0.010212,0.00011721,0.0030989,12.043,0.0044761,0.0089834,2.3877e-08,0.14,0.08,0
0.013998,0.016095,0.0094162,0.00041213,0.0029485,0.0018665,0,0,0.08408,-0.032973,0,0.04853,0,0,0,0.0097878,4.0534e-05,0.0029485,11.259,0.004259,0.0086672,2.1192e-08,0.16,0.08,0
0.015652,0.017809,0.0090656,0.00031149,0.0028131,0.0017149,0,0,0.081282,-0.032521,0,0.044588,0,0,0,0.0093896,-1.2465e-05,0.0028131,10.697,0.0040634,0.0083556,1.8819e-08,0.18,0.08,0
0.01725,0.019443,0.0087262,0.00024364,0.002691,0.0015947,0,0,0.078458,-0.031815,0,0.041461,0,0,0,0.0090161,-4.6234e-05,0.002691,10.303,0.0038869,0.0080506,1.6729e-08,0.2,0.08,0
0.018791,0.020997,0.0083993,0.0002015,0.0025802,0.0014965,0,0,0.075648,-0.030923,0,0.038908,0,0,0,0.0086639,-6.3123e-05,0.0025802,10.028,0.003727,0.0077511,1.4878e-08,0.22,0.08,0
0.020275,0.022472,0.0080843,0.00018046,0.0024794,0.0014121,0,0,0.072863,-0.029887,0,0.036714,0,0,0,0.008329,-6.4239e-05,0.0024794,9.8312,0.0035814,0.0074544,1.3225e-08,0.24,0.08,0
0.021705,0.023866,0.0077802,0.0001773,0.0023873,0.0013343,0,0,0.070109,-0.02873,0,0.034692,0,0,0,0.0080076,-5.0074e-05,0.0023873,9.6705,0.0034483,0.0071573,1.1734e-08,0.26,0.08,0
0.02308,0.025176,0.0074858,0.00018932,0.0023025,0.0012568,0,0,0.067383,-0.027472,0,0.032677,0,0,0,0.0076962,-2.1094e-05,0.0023025,9.5044,0.0033259,0.0068574,1.0379e-08,0.28,0.08,0
0.0244,0.026396,0.0072004,0.00021369,0.0022242,0.0011742,0,0,0.06469,-0.026137,0,0.030529,0,0,0,0.0073924,2.1633e-05,0.0022242,9.2893,0.0032127,0.0065532,9.1419e-09,0.3,0.08,0
0.025667,0.027522,0.0069235,0.00024679,0.0021511,0.0010822,0,0,0.062041,-0.024756,0,0.028136,0,0,0,0.0070945,7.5772e-05,0.0021511,8.9804,0.0031071,0.0062453,8.0124e-09,0.32,0.08,0
0.026882,0.028547,0.0066555,0.00028392,0.0020818,0.00097815,0,0,0.059458,-0.023373,0,0.025432,0,0,0,0.0068023,0.00013714,0.0020818,8.5342,0.0030071,0.0059367,6.9876e-09,0.34,0.08,0
0.028046,0.029467,0.0063968,0.00031915,0.0020148,0.00086155,0,0,0.056966,-0.022043,0,0.0224,0,0,0,0.0065166,0.00019938,0.0020148,7.9144,0.0029103,0.0056333,6.0699e-09,0.36,0.08,0
0.029161,0.030279,0.0061481,0.00034579,0.0019482,0.00073424,0,0,0.0546,-0.020831,0,0.01909,0,0,0,0.0062396,0.00025432,0.0019482,7.1012,0.002814,0.0053437,5.2642e-09,0.38,0.08,0
0.03023,0.030982,0.00591,0.00035668,0.00188,0.00060034,0,0,0.05239,-0.019803,0,0.015609,0,0,0,0.0059742,0.00029253,0.00188,6.1001,0.0027156,0.0050776,4.5744e-09,0.4,0.08,0
0.031256,0.03158,0.0056839,0.00034516,0.0018087,0.00046625,0,0,0.050378,-0.019026,0,0.012122,0,0,0,0.0057243,0.00030474,0.0018087,4.9538,0.0026126,0.0048459,4.0028e-09,0.42,0.08,0
0.032245,0.032084,0.0054713,0.00030286,0.0017322,0.00034048,0,0,0.048607,-0.018582,0,0.0088523,0,0,0,0.0054936,0.00028053,0.0017322,3.7528,0.0025021,0.00466,3.5476e-09,0.44,0.08,0
0.033201,0.032507,0.0052731,0.00022269,0.0016487,0.00023614,0,0,0.047117,-0.018539,0,0.0061396,0,0,0,0.0052841,0.00021167,0.0016487,2.6712,0.0023815,0.0045283,3.2e-09,0.46,0.08,0
0.03413,0.032874,0.005086,0.00010373,0.0015569,0.00016905,0,0,0.045878,-0.018891,0,0.0043953,0,0,0,0.0050917,9.7999e-05,0.0015569,1.9411,0.0022489,0.0044475,2.9337e-09,0.48,0.08,0
0.035036,0.033217,0.0049039,-3.3912e-05,0.001461,0.00015373,0,0,0.044758,-0.019434,0,0.0039969,0,0,0,0.0049087,-3.8694e-05,0.001461,1.7815,0.0021103,0.0043939,2.7075e-09,0.5,0.08,0
0.03592,0.033573,0.0047211,-0.00015184,0.0013708,0.00018881,0,0,0.043554,-0.019794,0,0.0049091,0,0,0,0.0047284,-0.00015914,0.0013708,2.2156,0.00198,0.0043303,2.4835e-09,0.52,0.08,0
0.036778,0.033972,0.0045359,-0.00022075,0.0012945,0.00025691,0,0,0.042138,-0.019699,0,0.0066797,0,0,0,0.0045497,-0.00023458,0.0012945,3.0826,0.0018699,0.0042323,2.2498e-09,0.54,0.08,0
0.037605,0.034439,0.0043527,-0.00024261,0.001233,0.00033318,0,0,0.040556,-0.019183,0,0.0086627,0,0,0,0.0043768,-0.00026664,0.001233,4.1254,0.0017811,0.0041045,2.0196e-09,0.56,0.08,0
0.0384,0.034984,0.0041808,-0.0002433,0.0011812,0.00040376,0,0,0.038994,-0.018519,0,0.010498,0,0,0,0.0042173,-0.00027985,0.0011812,5.1721,0.0017062,0.0039735,1.8154e-09,0.58,0.08,0
0.039165,0.035613,0.0040306,-0.00024722,0.001135,0.00046885,0,0,0.037643,-0.017969,0,0.01219,0,0,0,0.0040814,-0.00029801,0.001135,6.1819,0.0016395,0.0038674,1.6548e-09,0.6,0.08,0
0.039906,0.036329,0.0039061,-0.00026479,0.0010924,0.00053859,0,0,0.036578,-0.017643,0,0.014003,0,0,0,0.0039745,-0.00033322,0.0010924,7.2404,0.0015779,0.003801,1.5418e-09,0.62,0.08,0
0.040628,0.037136,0.0038027,-0.00028854,0.0010542,0.00062253,0,0,0.03573,-0.017456,0,0.016186,0,0,0,0.0038953,-0.00038117,0.0010542,8.4632,0.0015228,0.0037696,1.4675e-09,0.64,0.08,0
0.041335,0.038032,0.0037106,-0.00029846,0.0010236,0.00072222,0,0,0.034931,-0.017187,0,0.018778,0,0,0,0.0038367,-0.0004246,0.0010236,9.9069,0.0014786,0.003753,1.4157e-09,0.66,0.08,0
0.042025,0.039016,0.0036196,-0.0002764,0.001003,0.00082709,0,0,0.034017,-0.016632,0,0.021504,0,0,0,0.003788,-0.00044471,0.001003,11.503,0.0014487,0.0037261,1.369e-09,0.68,0.08,0
0.042696,0.040072,0.003523,-0.00021965,0.00099101,0.00092092,0,0,0.032916,-0.015738,0,0.023944,0,0,0,0.0037373,-0.00043397,0.00099101,13.101,0.0014314,0.0036724,1.3136e-09,0.7,0.08,0
0.043342,0.041182,0.0034182,-0.00014085,0.00098322,0.0009895,0,0,0.031655,-0.014613,0,0.025727,0,0,0,0.0036748,-0.00039745,0.00098322,14.538,0.0014202,0.0035871,1.2417e-09,0.72,0.08,0
0.043962,0.042321,0.0033071,-5.4709e-05,0.00097572,0.0010266,0,0,0.030308,-0.013396,0,0.026691,0,0,0,0.0035958,-0.00034341,0.00097572,15.707,0.0014094,0.0034729,1.1523e-09,0.74,0.08,0
0.044554,0.043462,0.0031935,3.0211e-05,0.00096711,0.0010307,0,0,0.028943,-0.01218,0,0.026798,0,0,0,0.0034997,-0.00027598,0.00096711,16.545,0.0013969,0.0033328,1.0484e-09,0.76,0.08,0
0.04512,0.044578,0.0030809,0.00010911,0.00095701,0.001003,0,0,0.027611,-0.011023,0,0.026079,0,0,0,0.0033878,-0.00019775,0.00095701,17.01,0.0013824,0.00317,9.3451e-10,0.78,0.08,0
0.045659,0.045646,0.0029729,0.00017961,0.00094575,0.00094579,0,0,0.026353,-0.0099598,0,0.024591,0,0,0,0.003263,-0.0001105,0.00094575,17.053,0.0013661,0.0029888,8.1631e-10,0.8,0.08,0
0.046174,0.046643,0.0028724,0.00024061,0.0009339,0.00086217,0,0,0.0252,-0.0090128,0,0.022416,0,0,0,0.0031297,-1.6689e-05,0.0009339,16.616,0.001349,0.002795,6.9985e-10,0.82,0.08,0
0.046667,0.047548,0.0027821,0.00029335,0.00092262,0.00075579,0,0,0.024173,-0.0081806,0,0.01965,0,0,0,0.0029936,8.1807e-05,0.00092262,15.637,0.0013327,0.0025956,5.9069e-10,0.84,0.08,0
0.047141,0.048344,0.0027034,0.0003413,0.00091341,0.00062994,0,0,0.02327,-0.0074374,0,0.016379,0,0,0,0.0028609,0.0001838,0.00091341,14.037,0.0013194,0.0023971,4.9272e-10,0.86,0.08,0
0.047598,0.049018,0.0026363,0.00038984,0.00090783,0.00048703,0,0,0.02247,-0.0067339,0,0.012663,0,0,0,0.0027373,0.0002888,0.00090783,11.721,0.0013113,0.0022052,4.0792e-10,0.88,0.08,0
0.048039,0.049556,0.0025786,0.00044578,0.00090731,0.00032868,0,0,0.021727,-0.0059999,0,0.0085456,0,0,0,0.0026281,0.00039628,0.00090731,8.5649,0.0013106,0.0020253,3.368e-10,0.9,0.08,0
0.048467,0.049948,0.002526,0.00051688,0.00091287,0.00015693,0,0,0.020971,-0.0051479,0,0.0040802,0,0,0,0.0025382,0.00050469,0.00091287,4.4393,0.0013186,0.0018633,2.7924e-10,0.92,0.08,0
0.048878,0.050189,0.0024748,0.00061189,0.00092601,-2.3726e-05,0,0,0.020134,-0.0040835,0,-0.00061687,0,0,0,0.0024751,0.00061159,0.00092601,-0.72956,0.0013376,0.0017279,2.3566e-10,0.94,0.08,0
0.049272,0.050277,0.0024232,0.00073284,0.0009468,-0.00020486,0,0,0.019193,-0.0027815,0,-0.0053263,0,0,0,0.0024476,0.00070836,0.0009468,-6.8126,0.0013676,0.0016332,2.0774e-10,0.96,0.08,0
0.049646,0.050213,0.0023715,0.00086727,0.00097163,-0.0003801,0,0,0.018198,-0.0013568,0,-0.0098826,0,0,0,0.0024621,0.00077668,0.00097163,-13.405,0.0014035,0.0015969,1.9868e-10,0.98,0.08,0
0.05,0.05,0.0023827,0.0010212,0.0010212,-0.00040875,0,0,0.0177,-7.3726e-17,0,-0.010628,0,0,0,0.002496,0.00090788,0.0010212,-15.491,0.001475,0.0015346,1.8222e-10,1,0.08,0
0,0,0.010103,0.00433,0.00433,0.0035006,0,0,0.075053,-2.8189e-18,0,0.091015,0,0,0,0.011754,0.0026794,0.00433,25.245,0.0062544,0.0083722,2.6234e-08,0,0.1,0
0.0015011,0.0018203,0.010062,0.0037689,0.0041493,0.0034735,0,0,0.076867,-0.004945,0,0.09031,0,0,0,0.011602,0.0022287,0.0041493,23.913,0.0059934,0.0085761,2.7e-08,0.02,0.1,0
0.0030747,0.0037783,0.010176,0.0030916,0.0039802,0.003484,0,0,0.080541,-0.011551,0,0.090585,0,0,0,0.011602,0.0016653,0.0039802,22.264,0.0057491,0.0090052,2.9317e-08,0.04,0.1,0
0.0047227,0.0058083,0.010239,0.0024025,0.0037925,0.0033493,0,0,0.083806,-0.018069,0,0.087082,0,0,0,0.011475,0.0011661,0.0037925,20.262,0.005478,0.0092793,3.0223e-08,0.06,0.1,0
0.0064269,0.0078465,0.010219,0.001814,0.00361,0.0031184,0,0,0.085922,-0.023348,0,0.081077,0,0,0,0.01125,0.00078346,0.00361,18.287,0.0052145,0.0093783,2.9751e-08,0.08,0.1,0
0.0081596,0.0098479,0.010108,0.0013557,0.0034393,0.0028526,0,0,0.086699,-0.027086,0,0.074166,0,0,0,0.010956,0.00050816,0.0034393,16.548,0.0049678,0.0093341,2.8303e-08,0.1,0.1,0
0.0098949,0.011788,0.0099227,0.0010133,0.0032808,0.0025967,0,0,0.086344,-0.029477,0,0.067514,0,0,0,0.010624,0.00031173,0.0032808,15.119,0.0047389,0.0091948,2.6342e-08,0.12,0.1,0
0.011613,0.013656,0.0096868,0.00076032,0.0031341,0.0023717,0,0,0.085185,-0.03086,0,0.061664,0,0,0,0.010278,0.0001693,0.0031341,13.993,0.0045271,0.0090002,2.4204e-08,0.14,0.1,0
0.013302,0.015449,0.0094236,0.0005753,0.0029997,0.002183,0,0,0.083511,-0.031517,0,0.056757,0,0,0,0.0099328,6.605e-05,0.0029997,13.131,0.0043328,0.0087758,2.2087e-08,0.16,0.1,0
0.014954,0.017166,0.0091478,0.00044222,0.002877,0.0020279,0,0,0.081521,-0.031652,0,0.052726,0,0,0,0.009597,-6.9922e-06,0.002877,12.49,0.0041557,0.0085356,2.0082e-08,0.18,0.1,0
0.016563,0.018809,0.0088683,0.00034993,0.0027655,0.0019009,0,0,0.079337,-0.031402,0,0.049423,0,0,0,0.0092733,-5.4999e-05,0.0027655,12.026,0.0039946,0.0082862,1.8217e-08,0.2,0.1,0
0.018127,0.020378,0.0085894,0.00029084,0.0026641,0.001795,0,0,0.077029,-0.030852,0,0.046671,0,0,0,0.008961,-8.0796e-05,0.0026641,11.697,0.0038481,0.0080293,1.6492e-08,0.22,0.1,0
0.019644,0.021872,0.0083126,0.00025979,0.0025717,0.0017035,0,0,0.074632,-0.030055,0,0.044291,0,0,0,0.0086582,-8.575e-05,0.0025717,11.466,0.0037147,0.0077641,1.4889e-08,0.24,0.1,0
0.021112,0.023288,0.0080382,0.00025303,0.0024874,0.0016196,0,0,0.072161,-0.029046,0,0.04211,0,0,0,0.0083617,-7.0467e-05,0.0024874,11.296,0.0035929,0.0074884,1.3391e-08,0.26,0.1,0
0.022531,0.024622,0.0077655,0.00026735,0.0024098,0.001537,0,0,0.069623,-0.027852,0,0.039962,0,0,0,0.0080683,-3.5482e-05,0.0024098,11.146,0.0034809,0.0071996,1.1979e-08,0.28,0.1,0
0.023897,0.025869,0.0074938,0.00029916,0.0023379,0.0014499,0,0,0.067027,-0.026504,0,0.037697,0,0,0,0.007775,1.7963e-05,0.0023379,10.976,0.003377,0.0068963,1.0643e-08,0.3,0.1,0
0.025212,0.027023,0.0072229,0.00034371,0.00227,0.0013535,0,0,0.064388,-0.025042,0,0.03519,0,0,0,0.0074797,8.6998e-05,0.00227,10.74,0.0032789,0.0065787,9.3795e-09,0.32,0.1,0
0.026473,0.028077,0.0069529,0.00039437,0.0022042,0.0012445,0,0,0.061734,-0.023528,0,0.032356,0,0,0,0.0071811,0.00016618,0.0022042,10.391,0.0031838,0.0062503,8.1933e-09,0.34,0.1,0
0.027681,0.029026,0.0066843,0.00044262,0.0021381,0.001122,0,0,0.059101,-0.022041,0,0.029173,0,0,0,0.0068798,0.00024705,0.0021381,9.8874,0.0030883,0.0059184,7.0978e-09,0.36,0.1,0
0.028837,0.029863,0.006417,0.00047846,0.0020687,0.00098829,0,0,0.056529,-0.020672,0,0.025695,0,0,0,0.0065772,0.0003183,0.0020687,9.2047,0.002988,0.005593,6.1084e-09,0.38,0.1,0
0.029942,0.030589,0.006151,0.00049251,0.0019931,0.00084834,0,0,0.054053,-0.019507,0,0.022057,0,0,0,0.0062755,0.00036806,0.0019931,8.3456,0.0028789,0.0052857,5.2378e-09,0.4,0.1,0
0.030999,0.031204,0.0058845,0.00047576,0.0019081,0.00070841,0,0,0.051694,-0.01862,0,0.018419,0,0,0,0.0059758,0.00038451,0.0019081,7.3394,0.0027561,0.0050065,4.4898e-09,0.42,0.1,0
0.03201,0.031717,0.0056221,0.0004238,0.0018138,0.00057621,0,0,0.049508,-0.018069,0,0.014982,0,0,0,0.0056852,0.00036069,0.0018138,6.25,0.0026199,0.004767,3.8706e-09,0.44,0.1,0
0.03298,0.032141,0.0053645,0.00031969,0.0017052,0.00046006,0,0,0.04757,-0.018012,0,0.011962,0,0,0,0.0054061,0.00027807,0.0017052,5.1683,0.0024631,0.0045842,3.3792e-09,0.46,0.1,0
0.033913,0.032499,0.0051134,0.00015394,0.0015802,0.00038334,0,0,0.045931,-0.018541,0,0.0099668,0,0,0,0.0051428,0.00012448,0.0015802,4.3939,0.0022825,0.0044719,3.0057e-09,0.48,0.1,0
0.034817,0.032829,0.0048588,-5.4463e-05,0.0014413,0.00036629,0,0,0.044428,-0.019445,0,0.0095236,0,0,0,0.004886,-8.1621e-05,0.0014413,4.2402,0.0020819,0.0044081,2.6946e-09,0.5,0.1,0
0.03569,0.033175,0.0045991,-0.00022652,0.0013118,0.00041547,0,0,0.042735,-0.019998,0,0.010802,0,0,0,0.0046346,-0.00026203,0.0013118,4.885,0.0018948,0.0043299,2.3888e-09,0.52,0.1,0
0.036526,0.033578,0.0043402,-0.0002991,0.0012123,0.00049137,0,0,0.040662,-0.019648,0,0.012776,0,0,0,0.0043916,-0.00035057,0.0012123,5.9802,0.0017511,0.0041856,2.0732e-09,0.54,0.1,0
0.037316,0.034058,0.0040889,-0.00029659,0.0011377,0.00055554,0,0,0.038366,-0.018646,0,0.014444,0,0,0,0.0041582,-0.00036587,0.0011377,7.1084,0.0016434,0.0039907,1.7715e-09,0.56,0.1,0
0.038061,0.034619,0.0038687,-0.00027268,0.0010788,0.00058965,0,0,0.036269,-0.017569,0,0.015331,0,0,0,0.003951,-0.000355,0.0010788,7.9474,0.0015583,0.0037979,1.5219e-09,0.58,0.1,0
0.038767,0.03526,0.0036983,-0.00027211,0.0010279,0.00060662,0,0,0.034716,-0.0169,0,0.015772,0,0,0,0.0037889,-0.00036273,0.0010279,8.4959,0.0014847,0.0036601,1.3483e-09,0.6,0.1,0
0.039449,0.035982,0.0035856,-0.00030728,0.00098349,0.00062984,0,0,0.033827,-0.01678,0,0.016376,0,0,0,0.003685,-0.00040665,0.00098349,8.9654,0.0014206,0.0036036,1.254e-09,0.62,0.1,0
0.04012,0.036788,0.0035209,-0.00036401,0.00094708,0.0006824,0,0,0.03346,-0.017044,0,0.017742,0,0,0,0.0036373,-0.00048039,0.00094708,9.6783,0.001368,0.0036215,1.2242e-09,0.64,0.1,0
0.040788,0.037687,0.003484,-0.00040585,0.00092346,0.00077127,0,0,0.033288,-0.017281,0,0.020053,0,0,0,0.0036314,-0.00055319,0.00092346,10.816,0.0013339,0.0036759,1.2338e-09,0.66,0.1,0
0.041452,0.038679,0.0034587,-0.00038928,0.00092081,0.0008834,0,0,0.032992,-0.017031,0,0.022968,0,0,0,0.0036518,-0.0005824,0.00092081,12.331,0.0013301,0.0037179,1.2599e-09,0.68,0.1,0
0.042107,0.039753,0.0034313,-0.00030949,0.00093655,0.00098786,0,0,0.032432,-0.016198,0,0.025684,0,0,0,0.0036762,-0.00055433,0.00093655,13.921,0.0013528,0.0037165,1.2788e-09,0.7,0.1,0
0.042749,0.040886,0.0033938,-0.00019827,0.00095867,0.0010654,0,0,0.031657,-0.01504,0,0.027701,0,0,0,0.0036861,-0.0004905,0.00095867,15.338,0.0013847,0.003673,1.2749e-09,0.72,0.1,0
0.043374,0.04205,0.0033482,-7.861e-05,0.00098087,0.0011078,0,0,0.030775,-0.013773,0,0.028804,0,0,0,0.0036751,-0.00040556,0.00098087,16.443,0.0014168,0.003594,1.244e-09,0.74,0.1,0
0.04398,0.043215,0.0032964,3.8925e-05,0.0010006,0.0011158,0,0,0.029845,-0.012502,0,0.029011,0,0,0,0.0036419,-0.00030663,0.0010006,17.207,0.0014453,0.003484,1.1866e-09,0.76,0.1,0
0.044568,0.044355,0.0032417,0.00015124,0.0010179,0.0010887,0,0,0.02891,-0.011266,0,0.028307,0,0,0,0.0035867,-0.00019379,0.0010179,17.584,0.0014703,0.0033436,1.1047e-09,0.78,0.1,0
0.045136,0.045445,0.0031856,0.00025221,0.0010314,0.0010282,0,0,0.028006,-0.010129,0,0.026733,0,0,0,0.0035101,-7.2286e-05,0.0010314,17.516,0.0014897,0.0031777,1.003e-09,0.8,0.1,0
0.045688,0.046461,0.0031314,0.00033917,0.0010412,0.00093776,0,0,0.027173,-0.0091261,0,0.024382,0,0,0,0.0034171,5.3466e-05,0.0010412,16.944,0.0015039,0.0029946,8.9038e-10,0.82,0.1,0
0.046223,0.047383,0.0030813,0.00041293,0.0010483,0.00082258,0,0,0.026429,-0.0082594,0,0.021387,0,0,0,0.0033145,0.00017973,0.0010483,15.828,0.0015142,0.0028033,7.7607e-10,0.84,0.1,0
0.046745,0.048194,0.003036,0.000478,0.0010542,0.00068765,0,0,0.025763,-0.0074904,0,0.017879,0,0,0,0.0032091,0.00030486,0.0010542,14.133,0.0015227,0.0026115,6.6719e-10,0.86,0.1,0
0.047254,0.048882,0.0029944,0.0005412,0.0010607,0.00053704,0,0,0.025138,-0.006753,0,0.013963,0,0,0,0.0031068,0.00042879,0.0010607,11.823,0.0015321,0.0024246,5.6786e-10,0.88,0.1,0
0.047751,0.049435,0.0029541,0.00061028,0.0010693,0.00037395,0,0,0.024502,-0.0059675,0,0.0097227,0,0,0,0.0030123,0.00055207,0.0010693,8.8488,0.0015446,0.0022467,4.8003e-10,0.9,0.1,0
0.048234,0.049846,0.0029125,0.00069267,0.0010815,0.00020166,0,0,0.023802,-0.0050554,0,0.005243,0,0,0,0.0029307,0.0006745,0.0010815,5.1488,0.0015622,0.0020827,4.0488e-10,0.92,0.1,0
0.048703,0.050109,0.0028676,0.00079311,0.0010982,2.4467e-05,0,0,0.023002,-0.0039662,0,0.00063615,0,0,0,0.0028679,0.00079283,0.0010982,0.67565,0.0015863,0.0019405,3.4414e-10,0.94,0.1,0
0.049154,0.050222,0.0028193,0.00091076,0.001119,-0.00015282,0,0,0.022104,-0.0027076,0,-0.0039734,0,0,0,0.0028315,0.0008986,0.001119,-4.5491,0.0016164,0.0018327,3.0077e-10,0.96,0.1,0
0.049587,0.050185,0.0027686,0.0010375,0.0011418,-0.00032704,0,0,0.021149,-0.0013569,0,-0.0085031,0,0,0,0.0028284,0.00097773,0.0011418,-10.349,0.0016493,0.0017743,2.7862e-10,0.98,0.1,0
0.05,0.05,0.0027815,0.0011921,0.0011921,-0.0003563,0,0,0.020663,-6.348e-17,0,-0.0092638,0,0,0,0.0028577,0.0011159,0.0011921,-12.074,0.0017219,0.001705,2.5287e-10,1,0.1,0
0,0,0.0096428,0.0041326,0.0041326,0.0033333,0,0,0.071632,-6.5052e-19,0,0.086666,0,0,0,0.011212,0.0025632,0.0041326,25.213,0.0059693,0.0079809,2.2742e-08,0,0.12,0
0.0014326,0.0017333,0.009613,0.0036781,0.0039873,0.0033242,0,0,0.073134,-0.0040197,0,0.08643,0,0,0,0.011102,0.0021896,0.0039873,24.123,0.0057595,0.008163,2.3433e-08,0.02,0.12,0
0.0029253,0.0035756,0.0097284,0.0031475,0.0038627,0.0033617,0,0,0.076253,-0.0092987,0,0.087404,0,0,0,0.011142,0.0017339,0.0038627,22.807,0.0055795,0.0085449,2.5463e-08,0.04,0.12,0
0.0044827,0.0054862,0.0098154,0.0025766,0.0037176,0.0033014,0,0,0.079271,-0.014833,0,0.085837,0,0,0,0.011095,0.0012971,0.0037176,21.185,0.0053699,0.0088397,2.6712e-08,0.06,0.12,0
0.0060962,0.0074209,0.0098488,0.0020456,0.0035683,0.0031612,0,0,0.081646,-0.019795,0,0.08219,0,0,0,0.010969,0.0009257,0.0035683,19.508,0.0051542,0.0090169,2.7036e-08,0.08,0.12,0
0.0077486,0.0093434,0.0098166,0.001595,0.0034235,0.0029757,0,0,0.083111,-0.02377,0,0.077368,0,0,0,0.010781,0.00063099,0.0034235,17.95,0.004945,0.0090813,2.6559e-08,0.1,0.12,0
0.0094206,0.011228,0.0097217,0.0012326,0.0032863,0.0027776,0,0,0.08366,-0.026698,0,0.072219,0,0,0,0.01055,0.00040453,0.0032863,16.6,0.0047469,0.0090551,2.5518e-08,0.12,0.12,0
0.011095,0.013061,0.0095765,0.00095012,0.003158,0.002589,0,0,0.08344,-0.028702,0,0.067315,0,0,0,0.010294,0.00023273,0.003158,15.487,0.0045615,0.0089639,2.4148e-08,0.14,0.12,0
0.012758,0.014834,0.0093955,0.00073458,0.003039,0.0024208,0,0,0.082634,-0.029958,0,0.06294,0,0,0,0.010026,0.00010388,0.003039,14.603,0.0043897,0.0088286,2.2623e-08,0.16,0.12,0
0.0144,0.016543,0.0091913,0.00057418,0.0029297,0.0022761,0,0,0.081402,-0.030621,0,0.059178,0,0,0,0.0097556,9.9457e-06,0.0029297,13.923,0.0042317,0.008663,2.1054e-08,0.18,0.12,0
0.016014,0.018187,0.0089728,0.00045957,0.0028297,0.0021535,0,0,0.07986,-0.030812,0,0.055992,0,0,0,0.0094866,-5.4191e-05,0.0028297,13.418,0.0040874,0.0084752,1.9499e-08,0.2,0.12,0
0.017595,0.019763,0.0087452,0.00038388,0.0027387,0.0020495,0,0,0.078084,-0.030613,0,0.053287,0,0,0,0.0092205,-9.1466e-05,0.0027387,13.058,0.0039559,0.0082685,1.7983e-08,0.22,0.12,0
0.019138,0.02127,0.0085112,0.00034216,0.002656,0.001959,0,0,0.076118,-0.03008,0,0.050935,0,0,0,0.0089567,-0.00010334,0.002656,12.812,0.0038365,0.0080436,1.6511e-08,0.24,0.12,0
0.02064,0.022705,0.0082716,0.00033073,0.0025807,0.0018766,0,0,0.073982,-0.02925,0,0.048791,0,0,0,0.0086928,-9.0407e-05,0.0025807,12.649,0.0037277,0.0077986,1.5076e-08,0.26,0.12,0
0.022097,0.024062,0.0080262,0.00034629,0.0025118,0.0017963,0,0,0.071688,-0.028151,0,0.046705,0,0,0,0.0084256,-5.3107e-05,0.0025118,12.535,0.0036281,0.0075313,1.367e-08,0.28,0.12,0
0.023507,0.025336,0.0077743,0.00038501,0.0024478,0.0017124,0,0,0.069244,-0.026816,0,0.044524,0,0,0,0.0081518,7.4468e-06,0.0024478,12.434,0.0035357,0.0072396,1.2285e-08,0.3,0.12,0
0.024867,0.02652,0.0075155,0.00044131,0.002387,0.0016194,0,0,0.06667,-0.025295,0,0.042104,0,0,0,0.0078686,8.8227e-05,0.002387,12.3,0.0034479,0.0069234,1.0925e-08,0.32,0.12,0
0.026174,0.027606,0.0072504,0.00050683,0.0023272,0.0015131,0,0,0.064002,-0.023664,0,0.03934,0,0,0,0.0075743,0.0001829,0.0023272,12.084,0.0033615,0.0065865,9.6031e-09,0.34,0.12,0
0.027427,0.028585,0.0069797,0.00056959,0.0022648,0.001392,0,0,0.061294,-0.022038,0,0.036192,0,0,0,0.007269,0.00028036,0.0022648,11.738,0.0032714,0.0062378,8.3449e-09,0.36,0.12,0
0.028626,0.029452,0.0067044,0.00061551,0.002196,0.001259,0,0,0.058609,-0.020546,0,0.032735,0,0,0,0.0069544,0.00036544,0.002196,11.234,0.0031719,0.005891,7.1836e-09,0.38,0.12,0
0.029771,0.030201,0.0064214,0.00062957,0.0021153,0.001121,0,0,0.05598,-0.019314,0,0.029147,0,0,0,0.0066308,0.00042016,0.0021153,10.581,0.0030554,0.0055604,6.1418e-09,0.4,0.12,0
0.030865,0.030836,0.0061278,0.00060435,0.0020197,0.00098875,0,0,0.053406,-0.018399,0,0.025707,0,0,0,0.0062995,0.00043269,0.0020197,9.8491,0.0029173,0.0052562,5.23e-09,0.42,0.12,0
0.031907,0.031361,0.0058097,0.00052943,0.0019017,0.00086686,0,0,0.050803,-0.01784,0,0.022538,0,0,0,0.0059483,0.00039076,0.0019017,9.0886,0.0027469,0.0049772,4.4205e-09,0.44,0.12,0
0.032897,0.031786,0.0054916,0.00042297,0.0017744,0.00076269,0,0,0.048324,-0.017568,0,0.01983,0,0,0,0.0056038,0.00031069,0.0017744,8.3745,0.002563,0.0047342,3.7449e-09,0.46,0.12,0
0.03384,0.032132,0.005157,0.00021348,0.0016111,0.00067515,0,0,0.046096,-0.01817,0,0.017554,0,0,0,0.0052475,0.00012293,0.0016111,7.6388,0.0023272,0.0045661,3.196e-09,0.48,0.12,0
0.034741,0.03244,0.0048014,-9.4117e-05,0.0014122,0.0006724,0,0,0.04406,-0.019582,0,0.017482,0,0,0,0.0048921,-0.00018479,0.0014122,7.6802,0.0020398,0.0044963,2.7613e-09,0.5,0.12,0
0.035603,0.032773,0.0044341,-0.00033029,0.0012311,0.00073949,0,0,0.041638,-0.020299,0,0.019227,0,0,0,0.0045462,-0.00044243,0.0012311,8.6228,0.0017783,0.0043976,2.332e-09,0.52,0.12,0
0.036406,0.033187,0.0040695,-0.00037021,0.0011098,0.00082926,0,0,0.038477,-0.01924,0,0.021561,0,0,0,0.0042194,-0.00052004,0.0011098,10.242,0.001603,0.0041706,1.8997e-09,0.54,0.12,0
0.037142,0.033693,0.003735,-0.00028937,0.0010337,0.00084993,0,0,0.035117,-0.0172,0,0.022098,0,0,0,0.0039071,-0.00046151,0.0010337,11.45,0.0014931,0.0038456,1.503e-09,0.56,0.12,0
0.037811,0.034281,0.0034477,-0.00023521,0.00096376,0.0008107,0,0,0.032292,-0.015586,0,0.021078,0,0,0,0.0036183,-0.00040576,0.00096376,11.881,0.0013921,0.0035437,1.1887e-09,0.58,0.12,0
0.038434,0.034937,0.0032587,-0.00022953,0.00090874,0.00074427,0,0,0.030549,-0.014797,0,0.019351,0,0,0,0.0034108,-0.0003817,0.00090874,11.555,0.0013126,0.0033398,9.9553e-10,0.6,0.12,0
0.039033,0.035658,0.0031728,-0.00028285,0.00086697,0.00068719,0,0,0.029975,-0.014948,0,0.017867,0,0,0,0.0033044,-0.00041449,0.00086697,10.845,0.0012523,0.0032721,9.1382e-10,0.62,0.12,0
0.039633,0.036454,0.003162,-0.00040107,0.00082827,0.000675,0,0,0.030338,-0.015981,0,0.01755,0,0,0,0.0032856,-0.00052466,0.00082827,10.376,0.0011964,0.0033456,9.1774e-10,0.64,0.12,0
0.040246,0.037341,0.0032022,-0.00051245,0.00080694,0.00074014,0,0,0.031139,-0.017152,0,0.019244,0,0,0,0.0033443,-0.00065449,0.00080694,10.864,0.0011656,0.0035046,9.8606e-10,0.66,0.12,0
0.040878,0.038334,0.0032635,-0.00052281,0.00082221,0.00085562,0,0,0.031737,-0.017485,0,0.022246,0,0,0,0.0034479,-0.00070718,0.00082221,12.16,0.0011876,0.0036399,1.0851e-09,0.68,0.12,0
0.041516,0.039424,0.0033276,-0.00041156,0.00087481,0.00097847,0,0,0.031886,-0.016723,0,0.02544,0,0,0,0.0035682,-0.00065213,0.00087481,13.813,0.0012636,0.0037011,1.1902e-09,0.7,0.12,0
0.042154,0.040581,0.003374,-0.00026342,0.00093319,0.0010642,0,0,0.031731,-0.015556,0,0.027668,0,0,0,0.0036625,-0.00055188,0.00093319,15.166,0.0013479,0.0037024,1.2645e-09,0.72,0.12,0
0.042785,0.04177,0.0033995,-0.000118,0.00098446,0.0011207,0,0,0.031396,-0.014332,0,0.029139,0,0,0,0.0037263,-0.00044473,0.00098446,16.253,0.001422,0.0036713,1.3049e-09,0.74,0.12,0
0.043409,0.042962,0.0034159,3.8772e-05,0.0010364,0.0011413,0,0,0.030933,-0.012969,0,0.029674,0,0,0,0.0037654,-0.00031075,0.0010364,17.027,0.001497,0.003597,1.3097e-09,0.76,0.12,0
0.044022,0.044128,0.003416,0.0001905,0.0010819,0.0011229,0,0,0.030342,-0.011589,0,0.029197,0,0,0,0.0037684,-0.00016194,0.0010819,17.425,0.0015628,0.0034793,1.2683e-09,0.78,0.12,0
0.044623,0.045241,0.0034066,0.000328,0.0011204,0.0010648,0,0,0.029721,-0.010301,0,0.027686,0,0,0,0.003739,-4.4192e-06,0.0011204,17.337,0.0016183,0.0033268,1.1881e-09,0.8,0.12,0
0.045211,0.046277,0.0033924,0.00044405,0.0011509,0.00097269,0,0,0.029139,-0.0091896,0,0.02529,0,0,0,0.0036844,0.00015206,0.0011509,16.709,0.0016625,0.0031539,1.0831e-09,0.82,0.12,0
0.045789,0.047217,0.0033771,0.00053954,0.001175,0.00085421,0,0,0.028627,-0.0082607,0,0.022209,0,0,0,0.0036144,0.00030224,0.001175,15.526,0.0016972,0.0029734,9.6834e-10,0.84,0.12,0
0.046356,0.048045,0.003361,0.0006206,0.0011945,0.00071682,0,0,0.028165,-0.0074606,0,0.018637,0,0,0,0.0035372,0.00044442,0.0011945,13.808,0.0017254,0.0027943,8.543e-10,0.86,0.12,0
0.046915,0.048747,0.0033429,0.00069614,0.0012117,0.00056606,0,0,0.027706,-0.0067025,0,0.014718,0,0,0,0.0034589,0.00058016,0.0012117,11.579,0.0017503,0.0026207,7.4653e-10,0.88,0.12,0
0.047465,0.049317,0.0033203,0.00077507,0.0012286,0.00040575,0,0,0.027192,-0.0058961,0,0.010549,0,0,0,0.0033834,0.00071196,0.0012286,8.8419,0.0017747,0.0024543,6.473e-10,0.9,0.12,0
0.048003,0.049746,0.0032912,0.00086443,0.0012467,0.00023887,0,0,0.026579,-0.0049695,0,0.0062107,0,0,0,0.0033145,0.00084114,0.0012467,5.5685,0.0018008,0.0022976,5.5809e-10,0.92,0.12,0
0.048528,0.050031,0.0032549,0.00096782,0.0012668,6.8226e-05,0,0,0.025845,-0.0038869,0,0.0017739,0,0,0,0.0032569,0.00096579,0.0012668,1.7072,0.0018299,0.0021564,4.8138e-10,0.94,0.12,0
0.049037,0.050168,0.0032121,0.0010842,0.0012889,-0.00010373,0,0,0.025001,-0.0026604,0,-0.002697,0,0,0,0.0032171,0.0010792,0.0012889,-2.7844,0.0018617,0.0020411,4.2126e-10,0.96,0.12,0
0.049528,0.050158,0.0031645,0.0012085,0.0013119,-0.00027553,0,0,0.024083,-0.0013437,0,-0.0071639,0,0,0,0.0032025,0.0011705,0.0013119,-7.8674,0.001895,0.0019652,3.8299e-10,0.98,0.12,0
0.05,0.05,0.0031785,0.0013622,0.0013622,-0.00030438,0,0,0.023612,1.1015e-16,0,-0.0079138,0,0,0,0.0032282,0.0013126,0.0013622,-9.2647,0.0019677,0.0018912,3.4663e-10,1,0.12,0
0,0,0.0093063,0.0039884,0.0039884,0.0031914,0,0,0.069133,-1.5179e-18,0,0.082976,0,0,0,0.010801,0.0024935,0.0039884,25.1,0.0057611,0.0076704,2.0242e-08,0,0.14,0
0.0013827,0.0016595,0.0092811,0.0035919,0.0038619,0.0031911,0,0,0.070449,-0.0035099,0,0.08297,0,0,0,0.010711,0.0021615,0.0038619,24.143,0.0055783,0.0078392,2.0872e-08,0.02,0.14,0
0.002818,0.0034064,0.0093951,0.0031518,0.0037641,0.0032389,0,0,0.073203,-0.0079592,0,0.084213,0,0,0,0.010772,0.0017751,0.0037641,23.028,0.005437,0.0081856,2.266e-08,0.04,0.14,0
0.0043108,0.0052149,0.0094933,0.0026683,0.0036485,0.0032211,0,0,0.075983,-0.012742,0,0.083748,0,0,0,0.010773,0.0013882,0.0036485,21.673,0.0052701,0.008484,2.4019e-08,0.06,0.14,0
0.0058573,0.0070546,0.0095569,0.0021958,0.0035258,0.0031418,0,0,0.078404,-0.01729,0,0.081686,0,0,0,0.010715,0.0010373,0.0035258,20.242,0.0050929,0.0087049,2.4776e-08,0.08,0.14,0
0.0074469,0.0088971,0.009574,0.0017706,0.0034034,0.0030191,0,0,0.080217,-0.021226,0,0.078497,0,0,0,0.010606,0.00073894,0.0034034,18.866,0.004916,0.0088409,2.4926e-08,0.1,0.14,0
0.009066,0.01072,0.009542,0.001409,0.0032853,0.0028747,0,0,0.081337,-0.024392,0,0.074743,0,0,0,0.010455,0.00049544,0.0032853,17.629,0.0047454,0.0088994,2.4568e-08,0.12,0.14,0
0.0107,0.012508,0.0094655,0.001113,0.0031736,0.0027266,0,0,0.081796,-0.026788,0,0.070893,0,0,0,0.010277,0.00030168,0.0031736,16.57,0.004584,0.0088941,2.3841e-08,0.14,0.14,0
0.012338,0.01425,0.009353,0.00087797,0.0030693,0.0025867,0,0,0.081689,-0.028487,0,0.067254,0,0,0,0.01008,0.00015087,0.0030693,15.7,0.0044334,0.0088391,2.2873e-08,0.16,0.14,0
0.013968,0.015941,0.0092131,0.00069713,0.0029731,0.0024609,0,0,0.081121,-0.029587,0,0.063984,0,0,0,0.0098731,3.7127e-05,0.0029731,15.013,0.0042944,0.0087458,2.176e-08,0.18,0.14,0
0.015583,0.017577,0.009053,0.00056396,0.0028851,0.0023512,0,0,0.080182,-0.030174,0,0.061131,0,0,0,0.0096606,-4.3748e-05,0.0028851,14.492,0.0041673,0.0086215,2.0567e-08,0.2,0.14,0
0.017175,0.019154,0.0088774,0.00047318,0.0028052,0.0022565,0,0,0.078939,-0.030316,0,0.058668,0,0,0,0.009445,-9.4337e-05,0.0028052,14.117,0.0040519,0.0084703,1.933e-08,0.22,0.14,0
0.01874,0.020669,0.0086893,0.0004208,0.002733,0.002174,0,0,0.077432,-0.030059,0,0.056523,0,0,0,0.009226,-0.00011593,0.002733,13.869,0.0039477,0.008293,1.8065e-08,0.24,0.14,0
0.020272,0.022118,0.0084895,0.00040374,0.002668,0.0020996,0,0,0.07568,-0.029435,0,0.05459,0,0,0,0.0090022,-0.00010896,0.002668,13.722,0.0038537,0.0080885,1.6773e-08,0.26,0.14,0
0.021767,0.023496,0.0082775,0.00041921,0.002609,0.0020286,0,0,0.07369,-0.028467,0,0.052742,0,0,0,0.0087702,-7.3543e-05,0.002609,13.653,0.0037686,0.007854,1.545e-08,0.28,0.14,0
0.02322,0.024797,0.0080524,0.00046377,0.0025549,0.001955,0,0,0.071468,-0.027184,0,0.05083,0,0,0,0.0085264,-1.0264e-05,0.0025549,13.63,0.0036903,0.0075867,1.409e-08,0.3,0.14,0
0.024626,0.026011,0.0078137,0.00053192,0.0025037,0.0018728,0,0,0.06903,-0.025633,0,0.048692,0,0,0,0.0082671,7.851e-05,0.0025037,13.61,0.0036164,0.0072853,1.2695e-08,0.32,0.14,0
0.025981,0.027131,0.007562,0.00061398,0.0024528,0.0017761,0,0,0.06642,-0.023905,0,0.046179,0,0,0,0.0079897,0.00018627,0.0024528,13.54,0.0035429,0.006953,1.1282e-08,0.34,0.14,0
0.027283,0.028144,0.0073001,0.00069482,0.0023985,0.0016622,0,0,0.063721,-0.022147,0,0.043217,0,0,0,0.0076948,0.00030012,0.0023985,13.358,0.0034645,0.0066006,9.8939e-09,0.36,0.14,0
0.02853,0.029042,0.0070294,0.00075223,0.0023345,0.0015334,0,0,0.061034,-0.02057,0,0.039868,0,0,0,0.007384,0.00039769,0.0023345,13.019,0.0033721,0.0062473,8.5846e-09,0.38,0.14,0
0.029724,0.029816,0.0067519,0.00076648,0.0022555,0.0014018,0,0,0.058453,-0.019357,0,0.036446,0,0,0,0.0070639,0.00045444,0.0022555,12.549,0.0032579,0.0059182,7.4163e-09,0.4,0.14,0
0.030868,0.030468,0.0064514,0.00071554,0.0021501,0.0012826,0,0,0.055917,-0.018649,0,0.033348,0,0,0,0.0067251,0.00044179,0.0021501,12.048,0.0031057,0.0056271,6.3883e-09,0.42,0.14,0
0.031961,0.031003,0.006123,0.00061558,0.0020216,0.0012007,0,0,0.053318,-0.018278,0,0.031218,0,0,0,0.0063733,0.00036519,0.0020216,11.779,0.00292,0.0053749,5.4962e-09,0.44,0.14,0
0.033001,0.031438,0.0056784,0.00042423,0.0018308,0.0011401,0,0,0.050019,-0.018285,0,0.029642,0,0,0,0.0059151,0.00018751,0.0018308,11.73,0.0026445,0.0051082,4.5335e-09,0.46,0.14,0
0.033962,0.031773,0.0052793,0.00030181,0.0016743,0.001128,0,0,0.046865,-0.017843,0,0.029327,0,0,0,0.005523,5.8125e-05,0.0016743,12.191,0.0024185,0.0048626,3.7809e-09,0.48,0.14,0
0.034876,0.032045,0.0047364,-0.00016848,0.0013704,0.0010994,0,0,0.043758,-0.020005,0,0.028584,0,0,0,0.0049715,-0.00040362,0.0013704,12.073,0.0019794,0.0047438,3.0111e-09,0.5,0.14,0
0.035712,0.032363,0.0041513,-0.00052283,0.0010885,0.0012613,0,0,0.039816,-0.020948,0,0.032795,0,0,0,0.00447,-0.00084148,0.0010885,14.178,0.0015723,0.0046567,2.3462e-09,0.52,0.14,0
0.036468,0.032808,0.003697,-0.00030681,0.0010171,0.0012976,0,0,0.034839,-0.01721,0,0.033737,0,0,0,0.0040807,-0.00069055,0.0010171,16.475,0.0014691,0.0041873,1.7677e-09,0.54,0.14,0
0.037106,0.03337,0.003197,-0.00017881,0.00090545,0.0012083,0,0,0.02979,-0.014095,0,0.031417,0,0,0,0.0035849,-0.00056674,0.00090545,17.799,0.0013079,0.0036458,1.191e-09,0.56,0.14,0
0.03766,0.033996,0.0028615,-0.00010928,0.00082568,0.0010496,0,0,0.026466,-0.012154,0,0.027288,0,0,0,0.0031949,-0.00044266,0.00082568,17.622,0.0011926,0.003198,8.3312e-10,0.58,0.14,0
0.038164,0.034668,0.0026687,-0.00010371,0.00076948,0.00087725,0,0,0.024689,-0.011352,0,0.022808,0,0,0,0.0029229,-0.00035797,0.00076948,16.164,0.0011115,0.0028873,6.3119e-10,0.6,0.14,0
0.038647,0.035384,0.0026057,-0.00017003,0.00073072,0.00071245,0,0,0.024376,-0.01171,0,0.018524,0,0,0,0.0027779,-0.00034221,0.00073072,13.586,0.0010555,0.0027457,5.421e-10,0.62,0.14,0
0.039139,0.036149,0.0026929,-0.00031724,0.00071268,0.00059241,0,0,0.025742,-0.013389,0,0.015403,0,0,0,0.0028053,-0.00042963,0.00071268,10.743,0.0010294,0.0028415,5.6904e-10,0.64,0.14,0
0.039677,0.037001,0.0028117,-0.00061352,0.00065945,0.00057494,0,0,0.027979,-0.016549,0,0.014948,0,0,0,0.0029056,-0.00070745,0.00065945,9.2787,0.00095254,0.0031597,6.5884e-10,0.66,0.14,0
0.040258,0.03798,0.0030005,-0.00069968,0.00069025,0.00072014,0,0,0.030033,-0.018069,0,0.018724,0,0,0,0.0031357,-0.00083489,0.00069025,10.634,0.00099703,0.0034693,8.3337e-10,0.68,0.14,0
0.040878,0.039084,0.0032208,-0.00050688,0.00081418,0.00084683,0,0,0.031286,-0.017174,0,0.022018,0,0,0,0.0034042,-0.00069024,0.00081418,12.217,0.001176,0.0035871,1.0433e-09,0.7,0.14,0
0.04151,0.040264,0.003355,-0.00037738,0.0008933,0.00097032,0,0,0.032003,-0.016519,0,0.025228,0,0,0,0.0035922,-0.00061456,0.0008933,13.736,0.0012903,0.0036915,1.2071e-09,0.72,0.14,0
0.042159,0.041477,0.0034917,-0.00018482,0.00099205,0.0010591,0,0,0.032495,-0.015299,0,0.027536,0,0,0,0.0037749,-0.00046809,0.00099205,14.974,0.001433,0.0037336,1.3611e-09,0.74,0.14,0
0.04281,0.042697,0.0035725,1.6486e-05,0.0010767,0.0011126,0,0,0.032445,-0.013783,0,0.028928,0,0,0,0.0038919,-0.00030293,0.0010767,16.018,0.0015552,0.0037031,1.4406e-09,0.76,0.14,0
0.043456,0.043892,0.0036235,0.00022161,0.0011535,0.0011129,0,0,0.032109,-0.012115,0,0.028936,0,0,0,0.0039552,-0.00011013,0.0011535,16.598,0.0016662,0.0036037,1.4454e-09,0.78,0.14,0
0.044094,0.045033,0.0036523,0.00040303,0.0012166,0.0010633,0,0,0.031664,-0.010576,0,0.027645,0,0,0,0.0039693,8.6014e-05,0.0012166,16.602,0.0017573,0.0034595,1.386e-09,0.8,0.14,0
0.044723,0.046093,0.0036715,0.00055148,0.0012669,0.00097299,0,0,0.03126,-0.0093004,0,0.025298,0,0,0,0.0039501,0.00027292,0.0012669,15.976,0.00183,0.0032946,1.2888e-09,0.82,0.14,0
0.045344,0.047052,0.0036855,0.00066774,0.001306,0.00085535,0,0,0.030934,-0.008297,0,0.022239,0,0,0,0.0039111,0.00044216,0.001306,14.774,0.0018864,0.0031278,1.1768e-09,0.84,0.14,0
0.04596,0.047896,0.0036951,0.00076223,0.0013372,0.00072078,0,0,0.030652,-0.0074744,0,0.01874,0,0,0,0.0038626,0.00059466,0.0013372,13.088,0.0019315,0.0029672,1.0638e-09,0.86,0.14,0
0.046571,0.048614,0.0036978,0.00084713,0.0013635,0.00057586,0,0,0.030347,-0.0067127,0,0.014972,0,0,0,0.0038098,0.0007352,0.0013635,11,0.0019695,0.0028136,9.5441e-10,0.88,0.14,0
0.047174,0.049199,0.0036913,0.00093313,0.0013873,0.00042403,0,0,0.029952,-0.0059046,0,0.011025,0,0,0,0.003755,0.00086942,0.0013873,8.5455,0.0020039,0.0026647,8.4933e-10,0.9,0.14,0
0.047769,0.049647,0.0036738,0.0010277,0.0014104,0.00026709,0,0,0.029423,-0.0049759,0,0.0069442,0,0,0,0.0037005,0.001001,0.0014104,5.7065,0.0020373,0.0025198,7.4913e-10,0.92,0.14,0
0.048351,0.049953,0.0036452,0.0011343,0.0014338,0.00010614,0,0,0.028747,-0.0038943,0,0.0027597,0,0,0,0.0036496,0.0011298,0.0014338,2.4163,0.0020711,0.0023824,6.5653e-10,0.94,0.14,0
0.048918,0.050116,0.0036069,0.0012525,0.0014578,-5.8179e-05,0,0,0.027939,-0.0026697,0,-0.0015126,0,0,0,0.0036084,0.001251,0.0014578,-1.4146,0.0021057,0.0022611,5.7697e-10,0.96,0.14,0
0.049469,0.050132,0.0035619,0.0013783,0.0014821,-0.00022561,0,0,0.027038,-0.0013487,0,-0.0058659,0,0,0,0.0035849,0.0013552,0.0014821,-5.8377,0.0021407,0.0021691,5.181e-10,0.98,0.14,0
0.05,0.05,0.0035768,0.0015329,0.0015329,-0.00025294,0,0,0.026571,8.8091e-17,0,-0.0065763,0,0,0,0.0036077,0.0015021,0.0015329,-6.9508,0.0022142,0.0020903,4.6875e-10,1,0.14,0
0,0,0.0090532,0.0038799,0.0038799,0.0030633,0,0,0.067252,6.5052e-19,0,0.079646,0,0,0,0.010476,0.0024572,0.0038799,24.911,0.0056043,0.0074104,1.833e-08,0,0.16,0
0.001345,0.0015929,0.0090291,0.003514,0.003763,0.0030677,0,0,0.06846,-0.0032361,0,0.07976,0,0,0,0.010396,0.0021466,0.003763,24.024,0.0054354,0.0075722,1.892e-08,0.02,0.16,0
0.0027384,0.0032572,0.0091422,0.0031309,0.0036819,0.0031185,0,0,0.070984,-0.0071637,0,0.081082,0,0,0,0.010468,0.0018054,0.0036819,23.028,0.0053184,0.0078932,2.0525e-08,0.04,0.16,0
0.0041844,0.0049765,0.0092466,0.0027095,0.0035868,0.0031253,0,0,0.073576,-0.011405,0,0.081257,0,0,0,0.0105,0.0014558,0.0035868,21.858,0.005181,0.0081896,2.1902e-08,0.06,0.16,0
0.0056815,0.0067294,0.0093284,0.002287,0.0034846,0.0030863,0,0,0.075969,-0.015569,0,0.080244,0,0,0,0.01049,0.0011257,0.0034846,20.619,0.0050333,0.0084355,2.2895e-08,0.08,0.16,0
0.0072232,0.0084943,0.0093776,0.001892,0.0033809,0.0030102,0,0,0.077958,-0.019356,0,0.078265,0,0,0,0.010438,0.00083166,0.0033809,19.404,0.0048835,0.0086192,2.3448e-08,0.1,0.16,0
0.0087998,0.010253,0.0093898,0.0015418,0.0032795,0.0029104,0,0,0.079434,-0.02259,0,0.07567,0,0,0,0.010351,0.00058031,0.0032795,18.282,0.004737,0.0087398,2.3584e-08,0.12,0.16,0
0.010401,0.01199,0.0093654,0.0012439,0.0031828,0.0028002,0,0,0.080374,-0.025206,0,0.072806,0,0,0,0.010237,0.00037198,0.0031828,17.295,0.0045974,0.0088031,2.3374e-08,0.14,0.16,0
0.012015,0.013694,0.0093085,0.00099886,0.0030922,0.0026902,0,0,0.080812,-0.027214,0,0.069946,0,0,0,0.010103,0.00020395,0.0030922,16.461,0.0044665,0.0088176,2.2896e-08,0.16,0.16,0
0.013633,0.015359,0.0092245,0.00080433,0.0030086,0.0025873,0,0,0.080806,-0.028656,0,0.067269,0,0,0,0.0099559,7.2879e-05,0.0030086,15.786,0.0043458,0.0087908,2.2225e-08,0.18,0.16,0
0.015247,0.01698,0.0091184,0.00065682,0.0029326,0.002495,0,0,0.080416,-0.029585,0,0.064869,0,0,0,0.0097993,-2.4061e-05,0.0029326,15.264,0.0042359,0.008729,2.1417e-08,0.2,0.16,0
0.01685,0.018551,0.0089941,0.00055304,0.0028641,0.0024144,0,0,0.079689,-0.030044,0,0.062773,0,0,0,0.0096358,-8.8736e-05,0.0028641,14.886,0.0041371,0.0086355,2.0509e-08,0.22,0.16,0
0.018435,0.020068,0.0088538,0.00049034,0.0028032,0.0023445,0,0,0.078657,-0.030068,0,0.060957,0,0,0,0.0094662,-0.00012205,0.0028032,14.639,0.0040491,0.0085114,1.9519e-08,0.24,0.16,0
0.019996,0.021527,0.0086982,0.0004667,0.0027495,0.002283,0,0,0.077334,-0.029676,0,0.059359,0,0,0,0.009289,-0.0001241,0.0027495,14.509,0.0039715,0.0083555,1.8452e-08,0.26,0.16,0
0.021528,0.022923,0.0085265,0.00048031,0.002702,0.0022262,0,0,0.075718,-0.028882,0,0.057882,0,0,0,0.0091014,-9.4559e-05,0.002702,14.479,0.003903,0.0081651,1.7303e-08,0.28,0.16,0
0.023025,0.024249,0.0083368,0.00052884,0.0026597,0.0021689,0,0,0.073802,-0.027701,0,0.056391,0,0,0,0.0088988,-3.3168e-05,0.0026597,14.527,0.0038418,0.0079359,1.6061e-08,0.3,0.16,0
0.02448,0.025495,0.0081276,0.00060795,0.0026206,0.0021042,0,0,0.07159,-0.026165,0,0.054709,0,0,0,0.0086763,5.9192e-05,0.0026206,14.617,0.0037854,0.0076644,1.4718e-08,0.32,0.16,0
0.025888,0.02665,0.0078997,0.00070897,0.0025826,0.0020242,0,0,0.069122,-0.024357,0,0.052628,0,0,0,0.0084303,0.00017833,0.0025826,14.69,0.0037304,0.0073509,1.3286e-08,0.34,0.16,0
0.027245,0.027699,0.0076565,0.00081287,0.0025408,0.0019217,0,0,0.066504,-0.022463,0,0.049964,0,0,0,0.0081592,0.00031019,0.0025408,14.659,0.00367,0.0070053,1.181e-08,0.36,0.16,0
0.028548,0.028629,0.0074082,0.00089206,0.0024901,0.0017979,0,0,0.063935,-0.020774,0,0.046745,0,0,0,0.0078713,0.00042891,0.0024901,14.446,0.0035968,0.0066556,1.0391e-08,0.38,0.16,0
0.029802,0.029427,0.0071526,0.00090107,0.0024161,0.0016642,0,0,0.061575,-0.019696,0,0.04327,0,0,0,0.0075681,0.00048565,0.0024161,14.016,0.0034899,0.0063415,9.1222e-09,0.4,0.16,0
0.031011,0.03009,0.0069059,0.00083226,0.0023215,0.0015588,0,0,0.059598,-0.019359,0,0.040527,0,0,0,0.0072826,0.00045559,0.0023215,13.585,0.0033532,0.0061115,8.1451e-09,0.42,0.16,0
0.032186,0.03063,0.0065963,0.00063391,0.0021691,0.0014985,0,0,0.057554,-0.019957,0,0.038961,0,0,0,0.0069517,0.00027849,0.0021691,13.343,0.0031331,0.0059574,7.2862e-09,0.44,0.16,0
0.033314,0.031055,0.0062919,0.0004505,0.0020227,0.0015715,0,0,0.055499,-0.020439,0,0.040859,0,0,0,0.0066878,5.4555e-05,0.0020227,14.142,0.0029217,0.0059007,6.7306e-09,0.46,0.16,0
0.034406,0.031419,0.005386,-0.00012311,0.0015789,0.0016458,0,0,0.049493,-0.022126,0,0.042792,0,0,0,0.0058402,-0.00057734,0.0015789,15.429,0.0022806,0.0056566,4.9497e-09,0.48,0.16,0
0.035293,0.031639,0.0045998,-0.00045639,0.001243,0.0022158,0,0,0.043638,-0.022092,0,0.05761,0,0,0,0.0054334,-0.00129,0.001243,20.617,0.0017955,0.0058813,4.2996e-09,0.5,0.16,0
0.036152,0.031935,0.0039062,-0.00021761,0.0011066,0.002024,0,0,0.036395,-0.017215,0,0.052625,0,0,0,0.0047336,-0.001045,0.0011066,22.234,0.0015984,0.0050585,2.8262e-09,0.52,0.16,0
0.036749,0.032498,0.002884,-6.1274e-05,0.00084683,0.0018493,0,0,0.026484,-0.011805,0,0.048081,0,0,0,0.0037754,-0.00095261,0.00084683,25.734,0.0012232,0.0041333,1.4491e-09,0.54,0.16,0
0.037211,0.033129,0.002365,3.8721e-05,0.00072111,0.0015443,0,0,0.02137,-0.0088711,0,0.040151,0,0,0,0.0031352,-0.00073144,0.00072111,26.506,0.0010416,0.0033829,8.2486e-10,0.56,0.16,0
0.037604,0.033795,0.0020932,9.7583e-05,0.00065725,0.0012614,0,0,0.018668,-0.0072756,0,0.032798,0,0,0,0.0027038,-0.00051298,0.00065725,25.828,0.00094936,0.0028201,5.1963e-10,0.58,0.16,0
0.037958,0.034483,0.0019336,9.3251e-05,0.00060804,0.00099938,0,0,0.017232,-0.0066923,0,0.025984,0,0,0,0.0023719,-0.00034506,0.00060804,23.682,0.00087829,0.0023876,3.4237e-10,0.6,0.16,0
0.038293,0.03519,0.0018589,1.9543e-05,0.00056352,0.00074479,0,0,0.016839,-0.0070717,0,0.019364,0,0,0,0.0021226,-0.00024422,0.00056352,19.501,0.00081397,0.0020839,2.4048e-10,0.62,0.16,0
0.038631,0.035918,0.0019258,-0.00012531,0.00054016,0.00048085,0,0,0.018014,-0.0086511,0,0.012502,0,0,0,0.002033,-0.00023244,0.00054016,12.56,0.00078023,0.0019947,2.1117e-10,0.64,0.16,0
0.039014,0.036679,0.0023511,-0.00036244,0.00059661,0.00029804,0,0,0.022809,-0.012468,0,0.007749,0,0,0,0.0023835,-0.00039479,0.00059661,6.1945,0.00086176,0.0024387,3.5154e-10,0.66,0.16,0
0.039544,0.037611,0.0025993,-0.00097651,0.00048684,0.00021278,0,0,0.027462,-0.019023,0,0.0055322,0,0,0,0.0026119,-0.00098912,0.00048684,3.3934,0.00070321,0.0031354,4.846e-10,0.68,0.16,0
0.040112,0.038737,0.0030312,-0.00079052,0.0006722,0.00057662,0,0,0.030667,-0.019015,0,0.014992,0,0,0,0.0031163,-0.00087563,0.0006722,8.3959,0.00097096,0.003486,8.2062e-10,0.7,0.16,0
0.04077,0.03992,0.0034595,-0.0005301,0.00087882,0.00075903,0,0,0.033549,-0.018316,0,0.019735,0,0,0,0.003599,-0.00066962,0.00087882,10.416,0.0012694,0.0037429,1.2233e-09,0.72,0.16,0
0.041454,0.041158,0.0036582,-0.0003157,0.0010027,0.00093691,0,0,0.034521,-0.01714,0,0.02436,0,0,0,0.003868,-0.00052551,0.0010027,12.623,0.0014484,0.0038632,1.4758e-09,0.74,0.16,0
0.042151,0.04241,0.0038026,-3.4337e-05,0.0011305,0.0010394,0,0,0.034738,-0.015143,0,0.027025,0,0,0,0.0040661,-0.00029782,0.0011305,14.224,0.0016329,0.0038537,1.6366e-09,0.76,0.16,0
0.042844,0.043643,0.0038838,0.00023805,0.0012365,0.0010711,0,0,0.034414,-0.01298,0,0.02785,0,0,0,0.0041752,-5.3368e-05,0.0012365,15.22,0.0017861,0.0037537,1.6746e-09,0.78,0.16,0
0.043528,0.044818,0.0039413,0.00047734,0.0013256,0.0010318,0,0,0.034004,-0.011027,0,0.026826,0,0,0,0.0042253,0.0001933,0.0013256,15.392,0.0019147,0.0036019,1.6248e-09,0.8,0.16,0
0.044204,0.045905,0.0039844,0.00065897,0.001393,0.0009447,0,0,0.033688,-0.0095424,0,0.024562,0,0,0,0.004234,0.00040933,0.001393,14.802,0.0020121,0.00344,1.5287e-09,0.82,0.16,0
0.044875,0.046885,0.0040221,0.00079302,0.0014445,0.00083045,0,0,0.033509,-0.0084698,0,0.021592,0,0,0,0.0042232,0.00059197,0.0014445,13.61,0.0020866,0.0032889,1.4215e-09,0.84,0.16,0
0.045544,0.047746,0.0040527,0.00089683,0.0014849,0.0007033,0,0,0.033382,-0.0076445,0,0.018286,0,0,0,0.0042024,0.0007472,0.0014849,12.011,0.0021448,0.0031518,1.3159e-09,0.86,0.16,0
0.046211,0.048479,0.0040726,0.0009881,0.0015182,0.00056952,0,0,0.033207,-0.0068915,0,0.014807,0,0,0,0.0041744,0.00088631,0.0015182,10.134,0.002193,0.0030221,1.2113e-09,0.88,0.16,0
0.046872,0.049081,0.0040785,0.0010795,0.0015474,0.00043103,0,0,0.032905,-0.0060832,0,0.011207,0,0,0,0.0041392,0.0010187,0.0015474,8.0184,0.0022351,0.0028926,1.1044e-09,0.9,0.16,0
0.047527,0.049547,0.0040692,0.0011789,0.0015744,0.00028795,0,0,0.032432,-0.0051424,0,0.0074868,0,0,0,0.0040976,0.0011504,0.0015744,5.6343,0.0022742,0.0027597,9.9415e-10,0.92,0.16,0
0.04817,0.049875,0.0040454,0.0012902,0.0016007,0.00013976,0,0,0.031781,-0.0040365,0,0.0036337,0,0,0,0.0040525,0.0012831,0.0016007,2.8964,0.0023121,0.002625,8.8335e-10,0.94,0.16,0
0.048798,0.050062,0.0040092,0.0014134,0.0016268,-1.4469e-05,0,0,0.030972,-0.0027744,0,-0.0003762,0,0,0,0.0040093,0.0014133,0.0016268,-0.31935,0.0023498,0.0024961,7.7911e-10,0.96,0.16,0
0.049409,0.050104,0.0039644,0.001545,0.0016528,-0.00017578,0,0,0.030051,-0.0014019,0,-0.0045703,0,0,0,0.0039771,0.0015323,0.0016528,-4.1338,0.0023874,0.0023868,6.9239e-10,0.98,0.16,0
0.05,0.05,0.0039805,0.0017059,0.0017059,-0.00020064,0,0,0.02957,-1.0235e-16,0,-0.0052165,0,0,0,0.0039981,0.0016884,0.0017059,-5.0024,0.0024641,0.002301,6.2557e-10,1,0.16,0
0,0,0.0088568,0.0037958,0.0037958,0.0029424,0,0,0.065793,2.1684e-18,0,0.076503,0,0,0,0.010207,0.0024454,0.0037958,24.652,0.0054828,0.0071825,1.6785e-08,0,0.18,0
0.0013159,0.0015301,0.0088326,0.0034445,0.0036831,0.0029493,0,0,0.066943,-0.003102,0,0.076681,0,0,0,0.010133,0.0021441,0.0036831,23.795,0.0053201,0.0073414,1.7349e-08,0.02,0.18,0
0.0026777,0.0031198,0.0089458,0.0030973,0.0036129,0.003,0,0,0.069327,-0.0067028,0,0.077999,0,0,0,0.010211,0.0018322,0.0036129,22.866,0.0052187,0.0076455,1.8823e-08,0.04,0.18,0
0.004089,0.0047587,0.0090542,0.0027198,0.0035322,0.0030211,0,0,0.071787,-0.010562,0,0.07855,0,0,0,0.010264,0.0015099,0.0035322,21.824,0.0051021,0.0079386,2.0183e-08,0.06,0.18,0
0.0055492,0.0064319,0.0091482,0.0023369,0.0034455,0.0030087,0,0,0.074134,-0.014412,0,0.078227,0,0,0,0.010287,0.0011983,0.0034455,20.73,0.0049769,0.0081993,2.1304e-08,0.08,0.18,0
0.0070543,0.0081229,0.0092195,0.0019707,0.0033571,0.0029661,0,0,0.076212,-0.018023,0,0.077118,0,0,0,0.010278,0.00091171,0.0033571,19.648,0.0048491,0.0084149,2.2115e-08,0.1,0.18,0
0.0085977,0.0098164,0.0092635,0.0016365,0.00327,0.0029012,0,0,0.077916,-0.021236,0,0.075431,0,0,0,0.010242,0.0006584,0.00327,18.631,0.0047234,0.0085809,2.2604e-08,0.12,0.18,0
0.010171,0.011499,0.0092789,0.0013434,0.0031867,0.0028234,0,0,0.079199,-0.023963,0,0.073407,0,0,0,0.010181,0.00044145,0.0031867,17.717,0.004603,0.0086981,2.2795e-08,0.14,0.18,0
0.011766,0.013162,0.0092671,0.0010953,0.0031087,0.0027411,0,0,0.080059,-0.026175,0,0.071269,0,0,0,0.010101,0.00026099,0.0031087,16.928,0.0044904,0.0087704,2.2734e-08,0.16,0.18,0
0.013373,0.014795,0.0092311,0.00089268,0.0030371,0.0026611,0,0,0.080522,-0.027878,0,0.069188,0,0,0,0.010008,0.00011582,0.0030371,16.274,0.004387,0.0088029,2.247e-08,0.18,0.18,0
0.014986,0.016393,0.0091742,0.00073473,0.0029727,0.0025876,0,0,0.08062,-0.029093,0,0.067276,0,0,0,0.0099044,4.5606e-06,0.0029727,15.758,0.0042939,0.0087996,2.2045e-08,0.2,0.18,0
0.016598,0.017952,0.0090992,0.00062009,0.0029158,0.0025229,0,0,0.080385,-0.029844,0,0.065595,0,0,0,0.0097931,-7.3789e-05,0.0029158,15.378,0.0042117,0.0087633,2.1492e-08,0.22,0.18,0
0.018202,0.019466,0.009008,0.00054759,0.0028667,0.0024677,0,0,0.079837,-0.030148,0,0.064161,0,0,0,0.0096751,-0.00011959,0.0028667,15.129,0.0041407,0.0086951,2.0829e-08,0.24,0.18,0
0.019792,0.020931,0.0089007,0.00051642,0.0028251,0.0024212,0,0,0.078983,-0.030013,0,0.062952,0,0,0,0.0095497,-0.00013255,0.0028251,15.005,0.0040808,0.008594,2.0061e-08,0.26,0.18,0
0.021361,0.022341,0.0087764,0.00052602,0.0027907,0.0023811,0,0,0.077814,-0.029441,0,0.061909,0,0,0,0.0094143,-0.00011187,0.0027907,14.997,0.004031,0.0084571,1.918e-08,0.28,0.18,0
0.022904,0.023689,0.0086322,0.00057559,0.0027623,0.0023434,0,0,0.076308,-0.028428,0,0.060929,0,0,0,0.0092642,-5.6462e-05,0.0027623,15.094,0.00399,0.0082794,1.8167e-08,0.3,0.18,0
0.024414,0.024965,0.0084646,0.00066299,0.0027383,0.0023016,0,0,0.074442,-0.026979,0,0.059841,0,0,0,0.009093,3.4607e-05,0.0027383,15.271,0.0039553,0.0080544,1.6998e-08,0.32,0.18,0
0.025882,0.026157,0.0082714,0.00078251,0.0027162,0.0022451,0,0,0.072218,-0.025138,0,0.058374,0,0,0,0.0088929,0.000161,0.0027162,15.473,0.0039234,0.0077758,1.565e-08,0.34,0.18,0
0.027302,0.027246,0.0080604,0.00092069,0.0026943,0.0021612,0,0,0.069759,-0.023057,0,0.05619,0,0,0,0.0086636,0.00031748,0.0026943,15.595,0.0038918,0.0074478,1.4161e-08,0.36,0.18,0
0.028672,0.028211,0.0078377,0.0010305,0.0026605,0.0020382,0,0,0.067304,-0.021189,0,0.052992,0,0,0,0.0084013,0.00046695,0.0026605,15.457,0.0038429,0.0070966,1.2617e-08,0.38,0.18,0
0.029994,0.029028,0.0076417,0.0010686,0.0026131,0.0018958,0,0,0.065372,-0.020078,0,0.04929,0,0,0,0.0081493,0.00056104,0.0026131,14.989,0.0037745,0.0067986,1.1321e-08,0.4,0.18,0
0.031287,0.029694,0.0074273,0.00092096,0.0025045,0.0017556,0,0,0.063997,-0.020586,0,0.045647,0,0,0,0.0078708,0.00047746,0.0025045,14.177,0.0036176,0.0066169,1.0308e-08,0.42,0.18,0
0.032554,0.030205,0.007349,0.00074204,0.0024273,0.0017344,0,0,0.063982,-0.021909,0,0.045093,0,0,0,0.0077766,0.00031444,0.0024273,13.85,0.0035061,0.006662,1.0195e-08,0.44,0.18,0
0.033846,0.030621,0.0070641,0.00023535,0.0021898,0.0017199,0,0,0.063366,-0.025409,0,0.044718,0,0,0,0.0074729,-0.00017338,0.0021898,13.368,0.0031631,0.0067809,9.7036e-09,0.46,0.18,0
0.035089,0.030887,0.0078862,0.00034034,0.002468,0.0021306,0,0,0.070437,-0.027659,0,0.055396,0,0,0,0.0084462,-0.00021968,0.002468,14.727,0.0035648,0.0076831,1.405e-08,0.48,0.18,0
0.036664,0.031162,0.010614,-0.0014676,0.0027439,0.0030365,0,0,0.036063,-0.013996,0,0.034065,0,0,0,0.011378,-0.0022311,0.0027439,15.014,0.0039635,0.011939,5.3844e-08,0.5,0.18,0
0.036958,0.031675,0.0084492,0.00091501,0.0028093,0.0024861,0,0,0.013331,-0.0083156,0,0.037823,0,0,0,0.0095709,-0.00020667,0.0028093,22.165,0.0040578,0.0087519,3.9913e-08,0.52,0.18,0
0.037197,0.032336,0.0070779,0.0004238,0.0022505,0.0022899,0,0,0.01141,-0.0060183,0,0.031113,0,0,0,0.0080817,-0.00057998,0.0022505,23.283,0.0032507,0.0076858,2.6609e-08,0.54,0.18,0
0.037415,0.033015,0.0065346,0.00040889,0.0020831,0.0018294,0,0,0.010522,-0.0047453,0,0.024735,0,0,0,0.0072994,-0.00035592,0.0020831,22.362,0.0030089,0.006796,2.0109e-08,0.56,0.18,0
0.037618,0.033705,0.0061198,0.00038125,0.0019503,0.0014996,0,0,0.0098551,-0.0040716,0,0.019804,0,0,0,0.0067037,-0.00020269,0.0019503,21.356,0.0028171,0.0061351,1.6124e-08,0.58,0.18,0
0.037809,0.034401,0.0057148,0.00032876,0.0018131,0.0012244,0,0,0.0092223,-0.003781,0,0.015541,0,0,0,0.006143,-9.9368e-05,0.0018131,20.011,0.0026189,0.005549,1.2966e-08,0.6,0.18,0
0.037987,0.035101,0.0052467,0.00021749,0.0016393,0.00097122,0,0,0.0085267,-0.0038473,0,0.011409,0,0,0,0.0055275,-6.3316e-05,0.0016393,17.833,0.0023678,0.0049706,1.0095e-08,0.62,0.18,0
0.03815,0.035803,0.0046351,-7.6815e-06,0.0013882,0.00069406,0,0,0.0076744,-0.0044054,0,0.0067389,0,0,0,0.004766,-0.00013865,0.0013882,13.102,0.0020052,0.0043548,7.24e-09,0.64,0.18,0
0.038294,0.036502,0.0039979,-0.00024799,0.001125,0.00046702,0,0,0.0067905,-0.0057643,0,0.00094331,0,0,0,0.0040599,-0.00031002,0.001125,3.1275,0.0016249,0.0038801,5.0738e-09,0.66,0.18,0
0.038421,0.037219,0.0044946,-0.0011712,0.00099701,0.00048337,0,0,0.016723,-0.0093372,0,0.001372,0,0,0,0.0045502,-0.0012268,0.00099701,3.3975,0.0014401,0.0050486,3.6808e-09,0.68,0.18,0
0.039169,0.038324,0.0035847,-0.00097443,0.00078308,0.00011834,0,0,0.036421,-0.022848,0,0.0030768,0,0,0,0.0035878,-0.0009775,0.00078308,1.4858,0.0011311,0.003988,1.2501e-09,0.7,0.18,0
0.039878,0.039531,0.0036909,-0.00083177,0.00085773,0.00052102,0,0,0.036831,-0.021964,0,0.013546,0,0,0,0.0037501,-0.00089102,0.00085773,6.4874,0.0012389,0.0040598,1.4138e-09,0.72,0.18,0
0.040643,0.040791,0.0039876,-0.00048798,0.0010499,0.00076242,0,0,0.03819,-0.019992,0,0.019823,0,0,0,0.0041139,-0.00061429,0.0010499,9.4071,0.0015165,0.0041541,1.7906e-09,0.74,0.18,0
0.041406,0.042091,0.0041153,-0.00014323,0.0011916,0.00094983,0,0,0.038008,-0.017353,0,0.024695,0,0,0,0.0043175,-0.00034547,0.0011916,12.02,0.0017212,0.0041157,1.9704e-09,0.76,0.18,0
0.042163,0.043373,0.0042236,0.00024797,0.0013415,0.0010107,0,0,0.037468,-0.014216,0,0.026278,0,0,0,0.0044658,5.7765e-06,0.0013415,13.476,0.0019377,0.0039647,2.019e-09,0.78,0.18,0
0.042905,0.044592,0.004288,0.00055197,0.001452,0.00098061,0,0,0.036868,-0.0117,0,0.025496,0,0,0,0.0045297,0.00031023,0.001452,13.849,0.0020973,0.0037803,1.945e-09,0.8,0.18,0
0.043638,0.045711,0.0043478,0.00076632,0.0015343,0.00089327,0,0,0.036577,-0.009983,0,0.023225,0,0,0,0.0045583,0.0005559,0.0015343,13.255,0.0022161,0.0036139,1.8385e-09,0.82,0.18,0
0.044368,0.046713,0.004402,0.00090997,0.0015936,0.0007848,0,0,0.03651,-0.0088872,0,0.020405,0,0,0,0.0045703,0.0007417,0.0015936,12.101,0.0023019,0.0034817,1.738e-09,0.84,0.18,0
0.045098,0.04759,0.0044481,0.0010186,0.00164,0.00067006,0,0,0.036505,-0.0080786,0,0.017422,0,0,0,0.0045744,0.00089231,0.00164,10.672,0.0023689,0.003371,1.6458e-09,0.86,0.18,0
0.045828,0.048338,0.0044788,0.0011142,0.0016779,0.00055248,0,0,0.036411,-0.007328,0,0.014365,0,0,0,0.0045672,0.0010258,0.0016779,9.0904,0.0024236,0.0032645,1.5493e-09,0.88,0.18,0
0.046554,0.048956,0.0044908,0.0012102,0.0017103,0.00043143,0,0,0.036147,-0.0065012,0,0.011217,0,0,0,0.0045466,0.0011544,0.0017103,7.3681,0.0024705,0.0031512,1.4401e-09,0.9,0.18,0
0.047274,0.049441,0.0044843,0.0013151,0.0017398,0.00030538,0,0,0.035678,-0.0055208,0,0.0079398,0,0,0,0.0045134,0.001286,0.0017398,5.4542,0.0025131,0.0030262,1.316e-09,0.92,0.18,0
0.047982,0.049792,0.0044607,0.0014333,0.0017682,0.00017243,0,0,0.035002,-0.0043538,0,0.0044831,0,0,0,0.0044704,0.0014235,0.0017682,3.2494,0.002554,0.0028901,1.1805e-09,0.94,0.18,0
0.048674,0.050005,0.0044227,0.001565,0.0017963,3.0337e-05,0,0,0.034143,-0.0030069,0,0.00078876,0,0,0,0.004423,0.0015647,0.0017963,0.60815,0.0025947,0.0027498,1.0424e-09,0.96,0.18,0
0.049347,0.050075,0.0043747,0.0017071,0.0018246,-0.00012339,0,0,0.033152,-0.0015261,0,-0.0032083,0,0,0,0.0043804,0.0017015,0.0018246,-2.6429,0.0026355,0.0026195,9.1633e-10,0.98,0.18,0
0.05,0.05,0.0043926,0.0018825,0.0018825,-0.0001451,0,0,0.032631,-1.5439e-16,0,-0.0037725,0,0,0,0.004401,0.0018742,0.0018825,-3.2974,0.0027192,0.0025226,8.2445e-10,1,0.18,0
0,0,0.0086991,0.0037282,0.0037282,0.0028247,0,0,0.064622,-4.3368e-19,0,0.073442,0,0,0,0.0099761,0.0024511,0.0037282,24.328,0.0053851,0.0069747,1.5475e-08,0,0.2,0
0.0012924,0.0014688,0.0086739,0.0033821,0.0036168,0.0028327,0,0,0.065742,-0.0030511,0,0.07365,0,0,0,0.0099042,0.0021518,0.0036168,23.476,0.0052243,0.0071337,1.6026e-08,0.02,0.2,0
0.0026297,0.0029891,0.0087882,0.0030577,0.0035538,0.0028821,0,0,0.068048,-0.0064491,0,0.074935,0,0,0,0.009987,0.0018589,0.0035538,22.584,0.0051332,0.0074271,1.7405e-08,0.04,0.2,0
0.0040144,0.004554,0.0089001,0.0027109,0.0034833,0.0029117,0,0,0.070419,-0.010041,0,0.075704,0,0,0,0.010055,0.0015565,0.0034833,21.628,0.0050314,0.0077173,1.8737e-08,0.06,0.2,0
0.0054464,0.0061529,0.0090028,0.0023588,0.0034085,0.0029166,0,0,0.072726,-0.013645,0,0.075832,0,0,0,0.010101,0.0012602,0.0034085,20.641,0.0049233,0.0079868,1.9923e-08,0.08,0.2,0
0.0069234,0.0077734,0.0090901,0.0020176,0.0033323,0.0028975,0,0,0.074851,-0.017091,0,0.075334,0,0,0,0.010126,0.00098218,0.0033323,19.665,0.0048133,0.0082241,2.0899e-08,0.1,0.2,0
0.0084405,0.0094032,0.0091578,0.0017002,0.0032574,0.0028588,0,0,0.076705,-0.020243,0,0.074328,0,0,0,0.010128,0.00073049,0.0032574,18.738,0.0047051,0.0084229,2.1634e-08,0.12,0.2,0
0.0099916,0.011031,0.0092041,0.0014155,0.0031859,0.0028068,0,0,0.078237,-0.023015,0,0.072976,0,0,0,0.01011,0.00050944,0.0031859,17.891,0.0046018,0.0085814,2.2131e-08,0.14,0.2,0
0.01157,0.012647,0.009229,0.0011686,0.0031193,0.0027481,0,0,0.079426,-0.025358,0,0.071451,0,0,0,0.010077,0.00032085,0.0031193,17.145,0.0045056,0.008701,2.241e-08,0.16,0.2,0
0.013169,0.014244,0.0092341,0.00096214,0.0030589,0.0026886,0,0,0.080278,-0.027257,0,0.069902,0,0,0,0.010031,0.0001651,0.0030589,16.513,0.0044183,0.0087842,2.2502e-08,0.18,0.2,0
0.014781,0.015816,0.0092214,0.00079701,0.0030055,0.0026325,0,0,0.080806,-0.028711,0,0.068445,0,0,0,0.0099764,4.2041e-05,0.0030055,16.002,0.0043413,0.0088336,2.2438e-08,0.2,0.2,0
0.016401,0.017357,0.0091931,0.00067353,0.00296,0.002583,0,0,0.081031,-0.029724,0,0.067159,0,0,0,0.0099151,-4.8442e-05,0.00296,15.616,0.0042755,0.0088514,2.2243e-08,0.22,0.2,0
0.018022,0.018862,0.0091507,0.00059188,0.0029228,0.0025419,0,0,0.080963,-0.030302,0,0.066088,0,0,0,0.0098487,-0.0001061,0.0029228,15.355,0.0042218,0.0088386,2.1934e-08,0.24,0.2,0
0.019639,0.020327,0.0090948,0.00055247,0.0028942,0.0025094,0,0,0.080608,-0.030442,0,0.065245,0,0,0,0.0097774,-0.00013017,0.0028942,15.218,0.0041805,0.0087945,2.1518e-08,0.26,0.2,0
0.021247,0.021746,0.0090244,0.00055596,0.0028741,0.002485,0,0,0.079954,-0.030136,0,0.064611,0,0,0,0.0096998,-0.0001194,0.0028741,15.204,0.0041515,0.0087168,2.0987e-08,0.28,0.2,0
0.022838,0.023112,0.0089369,0.0006031,0.002862,0.0024664,0,0,0.078974,-0.029366,0,0.064126,0,0,0,0.0096121,-7.2118e-05,0.002862,15.311,0.004134,0.0086011,2.0322e-08,0.3,0.2,0
0.024406,0.024416,0.0088271,0.00069414,0.0028564,0.0024487,0,0,0.077619,-0.028109,0,0.063665,0,0,0,0.0095074,1.381e-05,0.0028564,15.527,0.0041259,0.0084394,1.9479e-08,0.32,0.2,0
0.025942,0.025644,0.0086873,0.00082756,0.0028545,0.0024223,0,0,0.075827,-0.02635,0,0.062981,0,0,0,0.0093738,0.00014098,0.0028545,15.825,0.0041231,0.0082192,1.8392e-08,0.34,0.2,0
0.027439,0.026777,0.0085129,0.00099713,0.002853,0.0023664,0,0,0.073578,-0.024126,0,0.061526,0,0,0,0.0091959,0.00031412,0.002853,16.1,0.004121,0.0079235,1.6985e-08,0.36,0.2,0
0.028886,0.027781,0.0083446,0.0011887,0.00286,0.0022569,0,0,0.0713,-0.021727,0,0.05868,0,0,0,0.008997,0.00053637,0.00286,16.122,0.0041311,0.0075711,1.5416e-08,0.38,0.2,0
0.030291,0.028624,0.0081517,0.0012328,0.0028154,0.002069,0,0,0.069373,-0.020573,0,0.053795,0,0,0,0.0087233,0.0006613,0.0028154,15.441,0.0040666,0.0072297,1.3758e-08,0.4,0.2,0
0.03166,0.029266,0.0081135,0.0011583,0.0027815,0.001919,0,0,0.069315,-0.021102,0,0.049894,0,0,0,0.0086078,0.00066396,0.0027815,14.445,0.0040178,0.0071251,1.3195e-08,0.42,0.2,0
0.033063,0.029753,0.0078233,0.00056468,0.0025164,0.0017323,0,0,0.06899,-0.025372,0,0.045041,0,0,0,0.0082156,0.00017244,0.0025164,12.758,0.0036348,0.0071647,1.2299e-08,0.44,0.2,0
0.03442,0.030038,0.0085337,0.00056793,0.0027305,0.0019638,0,0,0.075442,-0.028113,0,0.051058,0,0,0,0.0089915,0.00011012,0.0027305,13.123,0.003944,0.007904,1.6283e-08,0.46,0.2,0
0.036081,0.030312,0.01059,-0.00024327,0.0031041,0.0027689,0,0,0.036667,-0.013964,0,0.027664,0,0,0,0.011259,-0.00091177,0.0031041,13.854,0.0044837,0.010745,4.9159e-08,0.48,0.2,0
0.03635,0.030981,0.0049029,-0.0020246,0.0008635,0.0016743,0,0,0.011317,-0.00783,0,0.012341,0,0,0,0.0053014,-0.0024231,0.0008635,15.493,0.0012473,0.0067144,9.9659e-09,0.5,0.2,0
0.03649,0.031602,0.0082413,-0.00017845,0.0024189,0.0024296,0,0,0.0075692,-0.0033765,0,0.0063171,0,0,0,0.0088921,-0.00082925,0.0024189,14.995,0.0034939,0.008572,1.7395e-08,0.52,0.2,0
0.036653,0.032257,0.0095053,0.00028539,0.0029372,0.0022624,0,0,0.0085386,-0.0034474,0,0.0058821,0,0,0,0.01003,-0.00023982,0.0029372,13.07,0.0042426,0.0091074,2.3483e-08,0.54,0.2,0
0.036832,0.032939,0.010032,0.00051286,0.0031634,0.0020833,0,0,0.0089288,-0.0034457,0,0.0054166,0,0,0,0.010468,7.6873e-05,0.0031634,11.82,0.0045693,0.0092425,2.5831e-08,0.56,0.2,0
0.03701,0.033632,0.0098783,0.00052683,0.0031215,0.00187,0,0,0.0087838,-0.0033731,0,0.0048619,0,0,0,0.010238,0.00016676,0.0031215,10.899,0.0045089,0.0089671,2.3931e-08,0.58,0.2,0
0.037183,0.034332,0.0094558,0.00047053,0.0029779,0.0016991,0,0,0.0084212,-0.0032596,0,0.0044176,0,0,0,0.0097663,0.00015997,0.0029779,10.358,0.0043014,0.0085529,2.0769e-08,0.6,0.2,0
0.037347,0.035036,0.0088401,0.00035092,0.0027573,0.0015662,0,0,0.0079076,-0.0031283,0,0.0040721,0,0,0,0.0091198,7.1191e-05,0.0027573,10.127,0.0039828,0.0080491,1.7074e-08,0.62,0.2,0
0.037499,0.035742,0.0079837,0.00013412,0.0024353,0.0014865,0,0,0.0072128,-0.0029916,0,0.003865,0,0,0,0.0082557,-0.00013797,0.0024353,10.372,0.0035177,0.0074483,1.2999e-08,0.64,0.2,0
0.037636,0.036449,0.0069429,-0.000171,0.0020316,0.0013414,0,0,0.0063847,-0.0028633,0,0.0034875,0,0,0,0.0071874,-0.00041551,0.0020316,10.331,0.0029345,0.0067221,8.9194e-09,0.66,0.2,0
0.037755,0.037135,0.0040227,-0.00036422,0.0010975,0.00084769,0,0,0.0075758,-0.0037853,0,0.0026941,0,0,0,0.0041915,-0.00053302,0.0010975,6.9772,0.0015853,0.0041565,5.3595e-09,0.68,0.2,0
0.037923,0.037824,0.0061827,-0.00062343,0.0016678,0.00079795,0,0,0.020963,-0.011105,0,0.0022595,0,0,0,0.0063089,-0.00074962,0.0016678,4.6503,0.002409,0.0062132,1.0113e-08,0.7,0.2,0
0.038845,0.039042,0.0043807,-0.0010934,0.00098619,0.00016526,0,0,0.044128,-0.027034,0,0.0042966,0,0,0,0.0043857,-0.0010984,0.00098619,1.7276,0.0014245,0.0047946,2.2704e-09,0.72,0.2,0
0.039688,0.040359,0.0043385,-0.00085405,0.0010453,0.00061075,0,0,0.042811,-0.024692,0,0.01588,0,0,0,0.0044094,-0.00092492,0.0010453,6.6188,0.0015099,0.0046719,2.2742e-09,0.74,0.2,0
0.040557,0.041716,0.0045689,-0.0002767,0.0012877,0.00084569,0,0,0.042656,-0.020337,0,0.021988,0,0,0,0.0047123,-0.00042006,0.0012877,9.6209,0.0018599,0.0045268,2.5805e-09,0.76,0.2,0
0.041394,0.043074,0.004641,0.00024195,0.0014649,0.00095553,0,0,0.041289,-0.015898,0,0.024844,0,0,0,0.0048396,4.336e-05,0.0014649,11.741,0.0021159,0.0042669,2.5482e-09,0.78,0.2,0
0.042209,0.04435,0.004719,0.00064423,0.001609,0.00091548,0,0,0.04043,-0.012542,0,0.023803,0,0,0,0.0049152,0.000448,0.001609,12.098,0.0023241,0.0040147,2.4103e-09,0.8,0.2,0
0.043011,0.045506,0.0047772,0.00086701,0.0016933,0.00082498,0,0,0.040092,-0.010741,0,0.021449,0,0,0,0.0049442,0.00070009,0.0016933,11.439,0.0024458,0.0038449,2.2758e-09,0.82,0.2,0
0.043813,0.04653,0.0048425,0.0010111,0.0017561,0.00072724,0,0,0.040123,-0.0096844,0,0.018908,0,0,0,0.0049759,0.00087773,0.0017561,10.394,0.0025366,0.0037372,2.1897e-09,0.84,0.2,0
0.044616,0.047423,0.0048948,0.0011231,0.0018054,0.00063091,0,0,0.040162,-0.0088691,0,0.016404,0,0,0,0.0049975,0.0010204,0.0018054,9.2489,0.0026078,0.0036485,2.1105e-09,0.86,0.2,0
0.045419,0.048186,0.0049249,0.0012223,0.0018442,0.00053345,0,0,0.04005,-0.0080839,0,0.01387,0,0,0,0.0050002,0.001147,0.0018442,8.0372,0.0026638,0.0035563,2.014e-09,0.88,0.2,0
0.046218,0.048821,0.0049336,0.0013231,0.001877,0.00043223,0,0,0.039735,-0.0072006,0,0.011238,0,0,0,0.0049846,0.0012721,0.001877,6.7325,0.0027112,0.0034501,1.8924e-09,0.9,0.2,0
0.047009,0.049326,0.0049223,0.0014347,0.0019071,0.0003249,0,0,0.039198,-0.0061415,0,0.0084473,0,0,0,0.0049523,0.0014046,0.0019071,5.277,0.0027547,0.003325,1.7436e-09,0.92,0.2,0
0.047786,0.049701,0.0048931,0.0015619,0.0019365,0.00020861,0,0,0.038435,-0.0048695,0,0.005424,0,0,0,0.0049061,0.0015489,0.0019365,3.5696,0.0027972,0.0031812,1.5709e-09,0.94,0.2,0
0.048546,0.049941,0.0048487,0.0017059,0.0019664,7.9965e-05,0,0,0.03747,-0.0033864,0,0.0020791,0,0,0,0.0048508,0.0017039,0.0019664,1.4566,0.0028403,0.0030242,1.3845e-09,0.96,0.2,0
0.049285,0.050043,0.0047934,0.0018637,0.0019971,-6.507e-05,0,0,0.036351,-0.0017342,0,-0.0016918,0,0,0,0.0047948,0.0018623,0.0019971,-1.2718,0.0028848,0.0028675,1.2019e-09,0.98,0.2,0
0.05,0.05,0.004814,0.0020631,0.0020631,-8.3242e-05,0,0,0.035761,-5.356e-17,0,-0.0021643,0,0,0,0.0048165,0.0020606,0.0020631,-1.7317,0.0029801,0.0027546,1.0735e-09,1,0.2,0
0,0,0.0085668,0.0036715,0.0036715,0.0027077,0,0,0.063639,0,0,0.070401,0,0,0,0.0097692,0.0024691,0.0036715,23.944,0.0053032,0.0067793,1.432e-08,0,0.22,0
0.0012728,0.001408,0.0085404,0.0033253,0.0035597,0.0027162,0,0,0.064749,-0.0030473,0,0.070621,0,0,0,0.0096981,0.0021676,0.0035597,23.085,0.0051418,0.00694,1.4865e-08,0.02,0.22,0
0.00259,0.0028619,0.0086565,0.0030154,0.0035015,0.002764,0,0,0.067014,-0.0063205,0,0.071864,0,0,0,0.009785,0.0018868,0.0035015,22.21,0.0050578,0.0072274,1.6175e-08,0.04,0.22,0
0.0039533,0.0043571,0.0087714,0.0026904,0.0034385,0.0027983,0,0,0.069327,-0.0097256,0,0.072756,0,0,0,0.0098631,0.0015987,0.0034385,21.312,0.0049668,0.0075153,1.7474e-08,0.06,0.22,0
0.005363,0.0058861,0.0088806,0.002362,0.0033728,0.0028143,0,0,0.071602,-0.01314,0,0.073172,0,0,0,0.0099275,0.0013151,0.0033728,20.405,0.0048718,0.0077902,1.869e-08,0.08,0.22,0
0.0068174,0.0074392,0.0089799,0.0020418,0.0033065,0.0028112,0,0,0.073753,-0.016441,0,0.073091,0,0,0,0.0099759,0.0010458,0.0033065,19.51,0.0047761,0.0080417,1.9764e-08,0.1,0.22,0
0.0083132,0.0090066,0.0090657,0.0017403,0.0032418,0.0027913,0,0,0.075711,-0.01952,0,0.072573,0,0,0,0.010008,0.00079793,0.0032418,18.655,0.0046826,0.0082638,2.0667e-08,0.12,0.22,0
0.0098458,0.010579,0.0091363,0.0014653,0.0031805,0.0027588,0,0,0.077425,-0.022298,0,0.071729,0,0,0,0.010025,0.00057615,0.0031805,17.863,0.004594,0.0084535,2.1388e-08,0.14,0.22,0
0.01141,0.012147,0.0091911,0.0012223,0.003124,0.0027187,0,0,0.078872,-0.024723,0,0.070686,0,0,0,0.01003,0.00038312,0.003124,17.153,0.0045125,0.0086103,2.1935e-08,0.16,0.22,0
0.013001,0.013705,0.009231,0.0010148,0.0030737,0.0026757,0,0,0.080044,-0.026766,0,0.069569,0,0,0,0.010025,0.00022027,0.0030737,16.539,0.0044399,0.0087354,2.2325e-08,0.18,0.22,0
0.014612,0.015245,0.0092574,0.00084515,0.0030308,0.0026341,0,0,0.080946,-0.028413,0,0.068487,0,0,0,0.010014,8.8409e-05,0.0030308,16.029,0.0043778,0.0088302,2.258e-08,0.2,0.22,0
0.016239,0.016763,0.0092721,0.00071475,0.0029961,0.0025971,0,0,0.081588,-0.029657,0,0.067524,0,0,0,0.0099986,-1.1763e-05,0.0029961,15.629,0.0043276,0.0088964,2.272e-08,0.22,0.22,0
0.017875,0.018254,0.0092767,0.00062494,0.0029705,0.0025669,0,0,0.081981,-0.030492,0,0.066739,0,0,0,0.009981,-7.9305e-05,0.0029705,15.342,0.0042907,0.0089347,2.2763e-08,0.24,0.22,0
0.019518,0.019713,0.0092725,0.00057722,0.0029549,0.0025449,0,0,0.082129,-0.03091,0,0.066167,0,0,0,0.0099626,-0.00011285,0.0029549,15.171,0.0042682,0.0089452,2.2717e-08,0.26,0.22,0
0.021161,0.021135,0.0092601,0.00057336,0.00295,0.0025315,0,0,0.082031,-0.030897,0,0.065818,0,0,0,0.009944,-0.0001105,0.00295,15.117,0.0042612,0.0089268,2.2585e-08,0.28,0.22,0
0.022799,0.022514,0.0092386,0.00061551,0.0029563,0.0025259,0,0,0.081671,-0.03043,0,0.065673,0,0,0,0.0099241,-6.9886e-05,0.0029563,15.182,0.0042701,0.0088766,2.2354e-08,0.3,0.22,0
0.024428,0.023841,0.0092049,0.00070588,0.0029732,0.002526,0,0,0.081012,-0.029476,0,0.065676,0,0,0,0.009899,1.1801e-05,0.0029732,15.364,0.0042947,0.008789,2.1992e-08,0.32,0.22,0
0.02604,0.025103,0.0091499,0.00084629,0.0029989,0.0025262,0,0,0.079964,-0.027983,0,0.065683,0,0,0,0.0098581,0.00013811,0.0029989,15.66,0.0043317,0.0086519,2.1417e-08,0.34,0.22,0
0.027626,0.026281,0.0090504,0.0010352,0.0030257,0.0025131,0,0,0.078321,-0.025876,0,0.065341,0,0,0,0.0097732,0.00031239,0.0030257,16.046,0.0043704,0.0084379,2.0442e-08,0.36,0.22,0
0.029172,0.027342,0.0088844,0.0012734,0.0030473,0.0024319,0,0,0.075882,-0.023061,0,0.06323,0,0,0,0.0095951,0.00056273,0.0030473,16.291,0.0044017,0.0080818,1.8723e-08,0.38,0.22,0
0.030661,0.028205,0.0088738,0.0015945,0.0031405,0.0022553,0,0,0.074533,-0.020098,0,0.058638,0,0,0,0.0095159,0.00095237,0.0031405,15.892,0.0045363,0.0077061,1.7271e-08,0.4,0.22,0
0.032154,0.02885,0.0085188,0.0011444,0.002899,0.001904,0,0,0.073058,-0.022809,0,0.049505,0,0,0,0.0089814,0.0006818,0.002899,13.656,0.0041874,0.007443,1.5013e-08,0.42,0.22,0
0.033584,0.02919,0.0091726,0.0010444,0.0030651,0.0020138,0,0,0.079398,-0.02627,0,0.05236,0,0,0,0.0096442,0.00057277,0.0030651,13.18,0.0044274,0.0081175,1.8994e-08,0.44,0.22,0
0.03533,0.029496,0.011351,0.00048874,0.003552,0.0024998,0,0,0.038428,-0.013011,0,0.026031,0,0,0,0.011902,-6.2261e-05,0.003552,12.772,0.0051307,0.010631,5.4024e-08,0.46,0.22,0
0.035609,0.030181,0.0056926,-0.00089523,0.0014392,0.0012971,0,0,0.011826,-0.0059899,0,0.0081738,0,0,0,0.0059416,-0.0011442,0.0014392,12.018,0.0020789,0.0062113,1.4427e-08,0.48,0.22,0
0.035759,0.030873,0.0081051,-0.0019099,0.0018586,0.0017247,0,0,0.0081205,-0.004899,0,0.0044842,0,0,0,0.0083938,-0.0021986,0.0018586,9.5024,0.0026846,0.0092565,1.5967e-08,0.5,0.22,0
0.035934,0.03154,0.0092676,0.00010065,0.0028105,0.001755,0,0,0.0083943,-0.0035228,0,0.004563,0,0,0,0.0095921,-0.00022385,0.0028105,10.476,0.0040596,0.0087049,2.0525e-08,0.52,0.22,0
0.036095,0.032198,0.009103,0.00058659,0.0029069,0.0019362,0,0,0.008055,-0.0030164,0,0.0050341,0,0,0,0.0095225,0.00016707,0.0029069,12.225,0.0041988,0.0083306,1.9227e-08,0.54,0.22,0
0.036256,0.032877,0.0091962,0.00063022,0.0029479,0.0021011,0,0,0.0081228,-0.003013,0,0.005463,0,0,0,0.0096839,0.00014259,0.0029479,13.066,0.0042581,0.0084935,2.0285e-08,0.56,0.22,0
0.03642,0.03357,0.0092111,0.00063523,0.0029539,0.0021233,0,0,0.0081343,-0.0030143,0,0.0055207,0,0,0,0.009708,0.00013829,0.0029539,13.172,0.0042667,0.0085184,2.0448e-08,0.58,0.22,0
0.036582,0.03427,0.0090213,0.00056869,0.002877,0.0021039,0,0,0.0079876,-0.0030008,0,0.0054702,0,0,0,0.009516,7.3952e-05,0.002877,13.232,0.0041557,0.008399,1.9398e-08,0.6,0.22,0
0.03674,0.034976,0.0087038,0.00044165,0.0027436,0.0020998,0,0,0.0077482,-0.0029926,0,0.0054594,0,0,0,0.0092068,-6.1362e-05,0.0027436,13.472,0.003963,0.0082322,1.7842e-08,0.62,0.22,0
0.036892,0.035683,0.0083789,0.00027115,0.002595,0.0021236,0,0,0.007519,-0.003021,0,0.0055213,0,0,0,0.0089014,-0.00025138,0.002595,13.824,0.0037483,0.0081131,1.6482e-08,0.64,0.22,0
0.03704,0.036388,0.0080806,-4.2383e-05,0.0024115,0.002123,0,0,0.0073699,-0.00319,0,0.0055198,0,0,0,0.008602,-0.00056377,0.0024115,13.798,0.0034832,0.008099,1.5394e-08,0.66,0.22,0
0.037187,0.037075,0.0074919,-0.00020979,0.0021846,0.0020982,0,0,0.0068995,-0.0031128,0,0.0054553,0,0,0,0.0080265,-0.0007443,0.0021846,14.292,0.0031556,0.0077341,1.2789e-08,0.68,0.22,0
0.037316,0.037741,0.0047691,6.0606e-05,0.0014489,0.0012396,0,0,0.0087917,-0.0036729,0,0.0055481,0,0,0,0.0050783,-0.00024867,0.0014489,12.206,0.0020929,0.0047134,8.7989e-09,0.7,0.22,0
0.037515,0.03845,0.0073933,-0.00057434,0.0020457,0.0011838,0,0,0.024764,-0.012981,0,0.004312,0,0,0,0.0076133,-0.00079438,0.0020457,6.1204,0.0029549,0.0074082,1.7873e-08,0.72,0.22,0
0.038603,0.039803,0.0051143,-0.0012372,0.0011631,0.00029186,0,0,0.051365,-0.031204,0,0.0075885,0,0,0,0.0051277,-0.0012506,0.0011631,2.6255,0.0016801,0.0055779,3.6215e-09,0.74,0.22,0
0.03957,0.041277,0.0050001,-0.00064142,0.0013076,0.00079258,0,0,0.048002,-0.025337,0,0.020607,0,0,0,0.0051093,-0.00075066,0.0013076,7.8472,0.0018887,0.0051492,3.4252e-09,0.76,0.22,0
0.040523,0.042737,0.0052368,0.00032603,0.0016689,0.00090336,0,0,0.046384,-0.017457,0,0.023488,0,0,0,0.0053977,0.00016512,0.0016689,10.1,0.0024106,0.0046662,3.4495e-09,0.78,0.22,0
0.041425,0.04409,0.0052403,0.0007389,0.0017938,0.00084314,0,0,0.044805,-0.013713,0,0.021922,0,0,0,0.0053931,0.00058616,0.0017938,10.268,0.002591,0.0043313,3.1053e-09,0.8,0.22,0
0.042315,0.045282,0.0053013,0.00094344,0.0018734,0.00075396,0,0,0.044562,-0.01209,0,0.019603,0,0,0,0.005428,0.00081668,0.0018734,9.5435,0.002706,0.0041843,2.969e-09,0.82,0.22,0
0.043208,0.046326,0.0053672,0.0010954,0.0019388,0.00067685,0,0,0.04457,-0.010964,0,0.017598,0,0,0,0.0054719,0.00099072,0.0019388,8.7914,0.0028005,0.0040904,2.8885e-09,0.84,0.22,0
0.044098,0.047235,0.0054013,0.0012103,0.0019835,0.00060194,0,0,0.044431,-0.010051,0,0.015651,0,0,0,0.005486,0.0011256,0.0019835,8.0136,0.002865,0.0040011,2.7866e-09,0.86,0.22,0
0.044985,0.048015,0.0054133,0.0013125,0.0020177,0.00052409,0,0,0.044142,-0.0091678,0,0.013626,0,0,0,0.0054792,0.0012466,0.0020177,7.1691,0.0029145,0.0039046,2.6598e-09,0.88,0.22,0
0.045864,0.048668,0.0054065,0.0014178,0.0020473,0.00044195,0,0,0.04367,-0.0081836,0,0.011491,0,0,0,0.0054549,0.0013694,0.0020473,6.2473,0.0029572,0.0037923,2.502e-09,0.9,0.22,0
0.046732,0.049196,0.0053822,0.0015369,0.0020757,0.00035291,0,0,0.042984,-0.0070052,0,0.0091758,0,0,0,0.0054143,0.0015047,0.0020757,5.2005,0.0029983,0.0036577,2.3082e-09,0.92,0.22,0
0.047583,0.049597,0.0053413,0.0016754,0.002105,0.0002533,0,0,0.042071,-0.0055847,0,0.0065857,0,0,0,0.0053587,0.001658,0.002105,3.934,0.0030406,0.0034987,2.079e-09,0.94,0.22,0
0.048414,0.049869,0.0052857,0.001835,0.0021362,0.00013847,0,0,0.040943,-0.0039152,0,0.0036003,0,0,0,0.0052912,0.0018295,0.0021362,2.2944,0.0030857,0.003319,1.8238e-09,0.96,0.22,0
0.049221,0.050006,0.0052188,0.0020137,0.0021698,2.8911e-06,0,0,0.039638,-0.0020284,0,7.5169e-05,0,0,0,0.0052188,0.0020137,0.0021698,0.051683,0.0031341,0.00313,1.5617e-09,0.98,0.22,0
0.05,0.05,0.005243,0.002247,0.002247,-1.1697e-05,0,0,0.038948,-1.9624e-17,0,-0.00030411,0,0,0,0.005243,0.002247,0.002247,-0.22368,0.0032457,0.0029961,1.3813e-09,1,0.22,0
0,0,0.0084499,0.0036214,0.0036214,0.0025903,0,0,0.062771,4.3368e-19,0,0.067348,0,0,0,0.0095766,0.0024947,0.0036214,23.507,0.0052309,0.0065912,1.327e-08,0,0.24,0
0.0012554,0.0013469,0.0084223,0.0032727,0.0035085,0.0025988,0,0,0.06388,-0.0030657,0,0.067568,0,0,0,0.0095058,0.0021892,0.0035085,22.633,0.0050678,0.0067543,1.3813e-08,0.02,0.24,0
0.0025552,0.0027363,0.0085402,0.0029721,0.0034537,0.0026451,0,0,0.066125,-0.0062608,0,0.068772,0,0,0,0.0095964,0.0019159,0.0034537,21.767,0.0049887,0.0070388,1.5069e-08,0.04,0.24,0
0.0039004,0.004165,0.0086578,0.002663,0.0033962,0.0026818,0,0,0.0684,-0.0095319,0,0.069727,0,0,0,0.0096824,0.0016384,0.0033962,20.91,0.0049057,0.007325,1.6334e-08,0.06,0.24,0
0.0052912,0.0056273,0.0087721,0.0023529,0.0033375,0.0027045,0,0,0.07065,-0.0128,0,0.070317,0,0,0,0.0097597,0.0013654,0.0033375,20.059,0.0048209,0.0076025,1.7552e-08,0.08,0.24,0
0.0067264,0.0071158,0.0088804,0.0020503,0.0032792,0.0027118,0,0,0.072815,-0.015976,0,0.070507,0,0,0,0.0098261,0.0011046,0.0032792,19.226,0.0047367,0.0078631,1.868e-08,0.1,0.24,0
0.0082038,0.0086224,0.0089801,0.0017631,0.003223,0.0027047,0,0,0.074843,-0.018978,0,0.070323,0,0,0,0.0098812,0.000862,0.003223,18.427,0.0046554,0.008101,1.9689e-08,0.12,0.24,0
0.0097201,0.010139,0.0090697,0.0014981,0.0031703,0.002686,0,0,0.076691,-0.021739,0,0.069836,0,0,0,0.0099257,0.00064204,0.0031703,17.678,0.0045794,0.0083131,2.0566e-08,0.14,0.24,0
0.011272,0.011658,0.0091486,0.0012605,0.0031227,0.0026593,0,0,0.078337,-0.024209,0,0.069143,0,0,0,0.0099614,0.0004477,0.0031227,16.995,0.0045106,0.0084981,2.1311e-08,0.16,0.24,0
0.012854,0.013174,0.0092175,0.0010542,0.0030815,0.0026286,0,0,0.079768,-0.026355,0,0.068343,0,0,0,0.0099906,0.00028102,0.0030815,16.391,0.004451,0.0086561,2.1936e-08,0.18,0.24,0
0.014462,0.014679,0.0092774,0.00088215,0.0030479,0.0025974,0,0,0.080984,-0.028154,0,0.067532,0,0,0,0.010016,0.00014353,0.0030479,15.874,0.0044025,0.0087879,2.2455e-08,0.2,0.24,0
0.016093,0.016171,0.00933,0.00074673,0.003023,0.0025689,0,0,0.081991,-0.029592,0,0.06679,0,0,0,0.01004,3.6655e-05,0.003023,15.452,0.0043666,0.0088946,2.2885e-08,0.22,0.24,0
0.017742,0.017642,0.0093774,0.00065023,0.0030083,0.0025453,0,0,0.082799,-0.030655,0,0.066179,0,0,0,0.010065,-3.7887e-05,0.0030083,15.128,0.0043453,0.0089767,2.3243e-08,0.24,0.24,0
0.019405,0.01909,0.0094217,0.0005951,0.003005,0.0025284,0,0,0.083417,-0.031329,0,0.065738,0,0,0,0.010095,-7.7846e-05,0.003005,14.904,0.0043406,0.0090346,2.3544e-08,0.26,0.24,0
0.021079,0.02051,0.0094654,0.0005843,0.0030149,0.0025186,0,0,0.083857,-0.031598,0,0.065483,0,0,0,0.01013,-8.0224e-05,0.0030149,14.78,0.0043549,0.0090679,2.3797e-08,0.28,0.24,0
0.022759,0.021894,0.0095116,0.00062135,0.0030399,0.0025156,0,0,0.084132,-0.031441,0,0.065406,0,0,0,0.010174,-4.1119e-05,0.0030399,14.754,0.0043909,0.0090758,2.401e-08,0.3,0.24,0
0.024444,0.023237,0.0095638,0.00071064,0.0030823,0.0025182,0,0,0.084259,-0.030832,0,0.065472,0,0,0,0.01023,4.4495e-05,0.0030823,14.817,0.0044522,0.009057,2.4189e-08,0.32,0.24,0
0.026129,0.024525,0.0096246,0.00085715,0.0031445,0.002524,0,0,0.084241,-0.029736,0,0.065623,0,0,0,0.010299,0.00018247,0.0031445,14.966,0.0045421,0.0090087,2.4321e-08,0.34,0.24,0
0.027813,0.025742,0.0096896,0.0010676,0.0032272,0.0025281,0,0,0.084012,-0.028074,0,0.06573,0,0,0,0.010376,0.00038102,0.0032272,15.194,0.0046615,0.0089194,2.4327e-08,0.36,0.24,0
0.02949,0.026859,0.0096715,0.0013206,0.0032976,0.0025196,0,0,0.082861,-0.025702,0,0.06551,0,0,0,0.010373,0.00061927,0.0032976,15.554,0.0047632,0.0087282,2.3622e-08,0.38,0.24,0
0.031128,0.02782,0.0093952,0.001629,0.0033072,0.0023248,0,0,0.079144,-0.021818,0,0.060445,0,0,0,0.010038,0.00098622,0.0033072,15.454,0.0047771,0.0081432,2.0325e-08,0.4,0.24,0
0.032656,0.028354,0.010176,0.0020555,0.0036695,0.0022386,0,0,0.084587,-0.020982,0,0.058204,0,0,0,0.010752,0.0014793,0.0036695,14.435,0.0053004,0.0083951,2.3558e-08,0.42,0.24,0
0.034511,0.028702,0.012632,0.0012281,0.0041582,0.0023449,0,0,0.041151,-0.011996,0,0.026393,0,0,0,0.013108,0.00075236,0.0041582,11.971,0.0060063,0.011056,6.795e-08,0.44,0.24,0
0.034818,0.029377,0.0064692,-0.00038627,0.0018249,0.0011247,0,0,0.012939,-0.0055557,0,0.0065899,0,0,0,0.0066496,-0.00056664,0.0018249,9.6789,0.002636,0.0063675,1.9083e-08,0.46,0.24,0
0.034981,0.030084,0.0091827,-0.0012065,0.0023929,0.0017858,0,0,0.0088268,-0.0046792,0,0.004643,0,0,0,0.0094811,-0.0015049,0.0023929,9.4857,0.0034564,0.0096469,2.2041e-08,0.48,0.24,0
0.035171,0.030785,0.0097152,-0.00084464,0.0026612,0.0018852,0,0,0.0091702,-0.0045576,0,0.0049015,0,0,0,0.010042,-0.0011711,0.0026612,9.8245,0.0038439,0.0098713,2.5489e-08,0.5,0.24,0
0.035348,0.031461,0.0093613,-0.00032663,0.0027104,0.0017276,0,0,0.0086462,-0.0039482,0,0.0044918,0,0,0,0.0096602,-0.00062548,0.0027104,9.8144,0.003915,0.0090891,2.1788e-08,0.52,0.24,0
0.035517,0.032137,0.0092665,0.00040052,0.0029001,0.0018968,0,0,0.0082763,-0.0032495,0,0.0049316,0,0,0,0.0096552,1.1767e-05,0.0029001,11.582,0.004189,0.0085723,2.0406e-08,0.54,0.24,0
0.035679,0.032819,0.0090842,0.00061412,0.0029095,0.0021,0,0,0.0080271,-0.002984,0,0.0054599,0,0,0,0.0095763,0.00012206,0.0029095,13.187,0.0042026,0.0084142,1.966e-08,0.56,0.24,0
0.035838,0.033512,0.0089892,0.00063984,0.0028887,0.0022428,0,0,0.0079306,-0.0029235,0,0.0058314,0,0,0,0.0095535,7.5498e-05,0.0028887,14.123,0.0041726,0.0084311,1.9625e-08,0.58,0.24,0
0.035996,0.034212,0.0088893,0.00057972,0.0028407,0.0023216,0,0,0.0078631,-0.0029393,0,0.0060361,0,0,0,0.0094939,-2.491e-05,0.0028407,14.598,0.0041032,0.0084583,1.948e-08,0.6,0.24,0
0.036152,0.034916,0.0087731,0.00044914,0.0027667,0.0023683,0,0,0.0078084,-0.0030128,0,0.0061576,0,0,0,0.0093998,-0.0001775,0.0027667,14.821,0.0039963,0.0084968,1.9228e-08,0.62,0.24,0
0.036308,0.035621,0.0086721,0.0002413,0.002674,0.002382,0,0,0.0077975,-0.0031625,0,0.0061932,0,0,0,0.0092986,-0.00038515,0.002674,14.735,0.0038625,0.0085737,1.9027e-08,0.64,0.24,0
0.036464,0.036321,0.0085701,-1.0779e-05,0.0025678,0.0023364,0,0,0.007803,-0.0033521,0,0.0060748,0,0,0,0.009165,-0.00060571,0.0025678,14.286,0.003709,0.0086331,1.8628e-08,0.66,0.24,0
0.03662,0.037011,0.0086097,2.4644e-05,0.0025903,0.0022402,0,0,0.0078252,-0.0033354,0,0.0058245,0,0,0,0.0091591,-0.00052475,0.0025903,13.78,0.0037416,0.0085624,1.8449e-08,0.68,0.24,0
0.036777,0.037686,0.0084821,0.0003865,0.0026606,0.0023568,0,0,0.007568,-0.0029563,0,0.0061276,0,0,0,0.0091182,-0.00024961,0.0026606,15.105,0.0038431,0.0083044,1.7701e-08,0.7,0.24,0
0.036923,0.038357,0.0056424,0.00024996,0.0017677,0.0015101,0,0,0.010455,-0.004081,0,0.007571,0,0,0,0.0060372,-0.00014483,0.0017677,13.885,0.0025533,0.005482,1.4132e-08,0.72,0.24,0
0.037164,0.03911,0.0087622,-0.00099464,0.0023303,0.00156,0,0,0.029433,-0.015636,0,0.0074563,0,0,0,0.0090453,-0.0012777,0.0023303,7.0085,0.0033659,0.009074,3.1042e-08,0.74,0.24,0
0.038448,0.040703,0.0059831,-0.0011472,0.0014508,0.00058935,0,0,0.058921,-0.033773,0,0.015323,0,0,0,0.0060315,-0.0011956,0.0014508,4.6933,0.0020956,0.0063331,5.7913e-09,0.76,0.24,0
0.039521,0.042376,0.0059474,0.00046296,0.0019231,0.0008939,0,0,0.052316,-0.018982,0,0.023241,0,0,0,0.0060895,0.00032094,0.0019231,9.0273,0.0027778,0.0051576,4.8218e-09,0.78,0.24,0
0.040541,0.043801,0.0059329,0.00077578,0.0020126,0.00080096,0,0,0.050964,-0.016079,0,0.020825,0,0,0,0.0060544,0.00065425,0.0020126,8.6281,0.0029071,0.0048653,4.3975e-09,0.8,0.24,0
0.041559,0.045023,0.0059923,0.0010213,0.0021041,0.00072729,0,0,0.050547,-0.014076,0,0.01891,0,0,0,0.0060966,0.00091708,0.0021041,8.1551,0.0030392,0.0046998,4.2069e-09,0.82,0.24,0
0.042563,0.046091,0.0059805,0.0011736,0.0021462,0.0006675,0,0,0.049845,-0.012644,0,0.017355,0,0,0,0.0060715,0.0010826,0.0021462,7.7607,0.0031001,0.0045512,3.9647e-09,0.84,0.24,0
0.043553,0.047021,0.0059599,0.0012872,0.0021741,0.00060212,0,0,0.049215,-0.01153,0,0.015655,0,0,0,0.0060362,0.0012109,0.0021741,7.2258,0.0031404,0.0044231,3.7436e-09,0.86,0.24,0
0.044531,0.047819,0.0059348,0.0013878,0.0021968,0.0005363,0,0,0.048594,-0.010517,0,0.013944,0,0,0,0.0059972,0.0013254,0.0021968,6.6364,0.0031731,0.0043028,3.5325e-09,0.88,0.24,0
0.045497,0.048493,0.0059023,0.0014958,0.0022194,0.00046881,0,0,0.047878,-0.0094076,0,0.012189,0,0,0,0.0059517,0.0014464,0.0022194,6.0061,0.0032058,0.0041728,3.3041e-09,0.9,0.24,0
0.046447,0.049046,0.005858,0.0016226,0.0022442,0.00039561,0,0,0.04698,-0.0080806,0,0.010286,0,0,0,0.0058946,0.001586,0.0022442,5.2908,0.0032416,0.0040202,3.0377e-09,0.92,0.24,0
0.047376,0.049477,0.0058,0.001774,0.0022722,0.00031128,0,0,0.045861,-0.0064762,0,0.0080933,0,0,0,0.0058239,0.0017501,0.0022722,4.3952,0.0032821,0.0038395,2.7266e-09,0.94,0.24,0
0.048281,0.049785,0.0057288,0.0019522,0.0023043,0.00020977,0,0,0.044518,-0.0045769,0,0.0054541,0,0,0,0.0057404,0.0019406,0.0023043,3.1695,0.0033285,0.0036316,2.377e-09,0.96,0.24,0
0.049157,0.049962,0.0056467,0.0021562,0.0023409,8.4057e-05,0,0,0.042975,-0.0024004,0,0.0021855,0,0,0,0.0056487,0.0021542,0.0023409,1.3787,0.0033813,0.003405,2.007e-09,0.98,0.24,0
0.05,0.05,0.0056752,0.0024322,0.0024322,7.2793e-05,0,0,0.042159,5.6921e-17,0,0.0018926,0,0,0,0.0056768,0.0024306,0.0024322,1.2852,0.0035132,0.0032454,1.7556e-09,1,0.24,0
0,0,0.0083408,0.0035746,0.0035746,0.0024719,0,0,0.06196,1.301e-18,0,0.06427,0,0,0,0.0093913,0.0025241,0.0035746,23.024,0.0051633,0.0064068,1.2292e-08,0,0.26,0
0.0012392,0.0012854,0.0083122,0.0032229,0.0034605,0.0024801,0,0,0.063071,-0.0030889,0,0.064482,0,0,0,0.0093208,0.0022142,0.0034605,22.132,0.0049985,0.0065727,1.2834e-08,0.02,0.26,0
0.0025229,0.0026114,0.0084317,0.0029289,0.0034082,0.0025252,0,0,0.065306,-0.0062303,0,0.065656,0,0,0,0.0094148,0.0019458,0.0034082,21.273,0.0049229,0.0068559,1.4045e-08,0.04,0.26,0
0.0038514,0.0039758,0.0085512,0.0026319,0.0033549,0.0025629,0,0,0.067552,-0.0093999,0,0.066634,0,0,0,0.0095066,0.0016764,0.0033549,20.445,0.004846,0.0071405,1.5272e-08,0.06,0.26,0
0.0052249,0.0053741,0.0086693,0.0023365,0.0033017,0.0025892,0,0,0.069779,-0.012549,0,0.06732,0,0,0,0.0095932,0.0014126,0.0033017,19.637,0.0047692,0.0074187,1.6475e-08,0.08,0.26,0
0.0066426,0.0068002,0.0087842,0.0020486,0.0032498,0.0026028,0,0,0.071947,-0.015616,0,0.067672,0,0,0,0.0096728,0.00116,0.0032498,18.849,0.0046942,0.007684,1.7621e-08,0.1,0.26,0
0.0081028,0.0082475,0.0088942,0.0017743,0.0032006,0.0026037,0,0,0.074018,-0.018541,0,0.067697,0,0,0,0.0097448,0.00092374,0.0032006,18.091,0.004623,0.0079317,1.8687e-08,0.12,0.26,0
0.0096033,0.0097093,0.0089983,0.0015191,0.0031552,0.0025939,0,0,0.07596,-0.021269,0,0.067442,0,0,0,0.0098099,0.00070756,0.0031552,17.373,0.0045576,0.0081587,1.9662e-08,0.14,0.26,0
0.011141,0.011179,0.0090962,0.0012878,0.0031152,0.002576,0,0,0.077753,-0.023756,0,0.066976,0,0,0,0.0098694,0.00051452,0.0031152,16.709,0.0044997,0.0083635,2.0543e-08,0.16,0.26,0
0.012713,0.012651,0.0091882,0.0010842,0.0030817,0.002553,0,0,0.079384,-0.025968,0,0.066379,0,0,0,0.0099254,0.00034695,0.0030817,16.107,0.0044514,0.0085458,2.1337e-08,0.18,0.26,0
0.014317,0.014119,0.0092755,0.00091165,0.0030561,0.0025281,0,0,0.080852,-0.027878,0,0.065731,0,0,0,0.0099803,0.00020687,0.0030561,15.577,0.0044144,0.0087058,2.2055e-08,0.2,0.26,0
0.015947,0.015579,0.0093597,0.00077319,0.0030399,0.0025039,0,0,0.082158,-0.029467,0,0.065102,0,0,0,0.010037,9.6368e-05,0.0030399,15.126,0.0043909,0.0088438,2.2712e-08,0.22,0.26,0
0.017603,0.017028,0.0094431,0.00067189,0.0030345,0.0024826,0,0,0.083312,-0.030714,0,0.064547,0,0,0,0.010097,1.7977e-05,0.0030345,14.757,0.0043831,0.00896,2.3323e-08,0.24,0.26,0
0.01928,0.01846,0.0095282,0.00061124,0.0030418,0.0024652,0,0,0.084323,-0.031598,0,0.064096,0,0,0,0.010164,-2.4928e-05,0.0030418,14.47,0.0043938,0.0090542,2.3902e-08,0.26,0.26,0
0.020976,0.019871,0.0096189,0.00059552,0.0030643,0.0024519,0,0,0.08521,-0.032095,0,0.06375,0,0,0,0.010242,-2.7695e-05,0.0030643,14.261,0.0044263,0.0091256,2.4461e-08,0.28,0.26,0
0.022688,0.021256,0.009721,0.00063013,0.0031053,0.0024409,0,0,0.086003,-0.032178,0,0.063464,0,0,0,0.010335,1.6195e-05,0.0031053,14.118,0.0044855,0.0091729,2.5017e-08,0.3,0.26,0
0.024416,0.022607,0.0098441,0.00072224,0.0031699,0.0024283,0,0,0.086765,-0.03182,0,0.063137,0,0,0,0.01045,0.00011608,0.0031699,14.016,0.0045788,0.0091958,2.5596e-08,0.32,0.26,0
0.026159,0.023913,0.010008,0.00088304,0.0032673,0.0024072,0,0,0.087629,-0.030996,0,0.062587,0,0,0,0.010604,0.00028695,0.0032673,13.908,0.0047195,0.0091966,2.6263e-08,0.34,0.26,0
0.027921,0.025158,0.010254,0.0011328,0.003416,0.0023654,0,0,0.088893,-0.029682,0,0.0615,0,0,0,0.010831,0.00055585,0.003416,13.707,0.0049343,0.0091853,2.7178e-08,0.36,0.26,0
0.029715,0.026314,0.010727,0.001549,0.0036829,0.0022806,0,0,0.091577,-0.02774,0,0.059295,0,0,0,0.011263,0.0010136,0.0036829,13.213,0.0053197,0.0092093,2.9044e-08,0.38,0.26,0
0.031584,0.027333,0.011636,0.0022482,0.0041654,0.0020036,0,0,0.097123,-0.024924,0,0.052094,0,0,0,0.012046,0.0018384,0.0041654,11.557,0.0060166,0.009266,3.2337e-08,0.4,0.26,0
0.0336,0.028011,0.015883,0.0025607,0.0055332,0.0031129,0,0,0.046617,-0.0099691,0,0.033985,0,0,0,0.016604,0.00184,0.0055332,13.833,0.0079924,0.013311,1.4011e-07,0.42,0.26,0
0.03399,0.028587,0.0083663,0.00054935,0.0026747,0.00094308,0,0,0.016192,-0.0053724,0,0.0036905,0,0,0,0.0084831,0.00043258,0.0026747,5.1958,0.0038635,0.0071977,3.4489e-08,0.44,0.26,0
0.03418,0.029282,0.010706,-0.00047044,0.0030706,0.0019462,0,0,0.0099256,-0.0046033,0,0.0050601,0,0,0,0.011035,-0.00079965,0.0030706,9.601,0.0044352,0.010451,3.269e-08,0.46,0.26,0
0.034387,0.029994,0.010683,-0.00058474,0.0030294,0.0022755,0,0,0.0099494,-0.0046984,0,0.0059163,0,0,0,0.011125,-0.0010269,0.0030294,10.997,0.0043758,0.010716,3.4041e-08,0.48,0.26,0
0.034578,0.030691,0.0099583,-0.00077345,0.0027555,0.002086,0,0,0.0093637,-0.0045876,0,0.0054235,0,0,0,0.010349,-0.0011646,0.0027555,10.622,0.0039801,0.010139,2.7825e-08,0.5,0.26,0
0.034762,0.031382,0.0096758,-0.00027166,0.0028212,0.0020381,0,0,0.0089109,-0.0040208,0,0.0052992,0,0,0,0.010077,-0.00067306,0.0028212,11.142,0.0040751,0.0094981,2.4777e-08,0.52,0.26,0
0.034935,0.032068,0.0093589,0.00017373,0.0028598,0.0020738,0,0,0.0084489,-0.0034919,0,0.0053918,0,0,0,0.0098054,-0.00027276,0.0028598,12.151,0.0041308,0.0089338,2.2022e-08,0.54,0.26,0
0.0351,0.032758,0.0091493,0.00047369,0.0028869,0.0022059,0,0,0.0081411,-0.0031372,0,0.0057354,0,0,0,0.009678,-5.4997e-05,0.0028869,13.478,0.00417,0.0086459,2.0703e-08,0.56,0.26,0
0.03526,0.033453,0.0090005,0.00056729,0.0028703,0.0023364,0,0,0.0079692,-0.0029939,0,0.0060746,0,0,0,0.0096045,-3.6737e-05,0.0028703,14.495,0.004146,0.008566,2.0195e-08,0.58,0.26,0
0.035419,0.034153,0.0089132,0.00053784,0.0028353,0.0024286,0,0,0.0079013,-0.0029867,0,0.0063145,0,0,0,0.0095665,-0.00011544,0.0028353,15.056,0.0040955,0.0085953,2.0129e-08,0.6,0.26,0
0.035576,0.034855,0.0088614,0.00042376,0.0027855,0.002471,0,0,0.0078986,-0.0030703,0,0.0064247,0,0,0,0.0095318,-0.00024663,0.0027855,15.179,0.0040236,0.0086696,2.019e-08,0.62,0.26,0
0.035735,0.035557,0.0088308,0.00025415,0.0027255,0.002453,0,0,0.0079369,-0.0032127,0,0.0063779,0,0,0,0.0094828,-0.00039788,0.0027255,14.885,0.0039368,0.0087477,2.0191e-08,0.64,0.26,0
0.035894,0.036254,0.0088357,0.00011629,0.0026856,0.0023626,0,0,0.0079951,-0.0033401,0,0.0061428,0,0,0,0.0094347,-0.00048274,0.0026856,14.227,0.0038792,0.0087734,2.0055e-08,0.66,0.26,0
0.036054,0.036942,0.0088798,0.00010851,0.0026965,0.0022376,0,0,0.0080383,-0.0033644,0,0.0058178,0,0,0,0.0094176,-0.00042933,0.0026965,13.516,0.0038949,0.0087151,1.9844e-08,0.68,0.26,0
0.036215,0.037622,0.009215,0.00043167,0.002894,0.0021342,0,0,0.0082173,-0.003201,0,0.0055489,0,0,0,0.0097061,-5.9429e-05,0.002894,12.959,0.0041802,0.0086745,2.0894e-08,0.7,0.26,0
0.036383,0.038299,0.0097845,0.00093076,0.0032146,0.0022849,0,0,0.0085409,-0.002969,0,0.0059408,0,0,0,0.010339,0.00037586,0.0032146,13.65,0.0046433,0.0088908,2.408e-08,0.72,0.26,0
0.036557,0.038988,0.0078407,0.00086303,0.0026111,0.0018601,0,0,0.014897,-0.0050313,0,0.0123,0,0,0,0.0083097,0.00039401,0.0026111,15.376,0.0037716,0.0070729,3.165e-08,0.74,0.26,0
0.036917,0.039926,0.011702,-0.0026823,0.0027058,0.0013527,0,0,0.035957,-0.020308,0,0.012083,0,0,0,0.011829,-0.0028099,0.0027058,5.7152,0.0039084,0.012807,8.1312e-08,0.76,0.26,0
0.038354,0.041978,0.0077905,0.00090418,0.0026084,0.0013571,0,0,0.067367,-0.022155,0,0.035285,0,0,0,0.0080483,0.00064638,0.0026084,10.756,0.0037677,0.0066419,1.074e-08,0.78,0.26,0
0.039612,0.043447,0.0070888,0.00098169,0.0024211,0.00093302,0,0,0.06068,-0.018713,0,0.024258,0,0,0,0.0072282,0.00084233,0.0024211,8.4953,0.0034972,0.005761,7.3904e-09,0.8,0.26,0
0.040782,0.044719,0.0067861,0.001142,0.0023784,0.00082436,0,0,0.0573,-0.016074,0,0.021433,0,0,0,0.0069041,0.0010241,0.0023784,8.1418,0.0034355,0.0053334,6.1306e-09,0.82,0.26,0
0.041904,0.04582,0.0066295,0.0012702,0.0023699,0.0007235,0,0,0.055374,-0.014296,0,0.018811,0,0,0,0.0067254,0.0011743,0.0023699,7.5549,0.0034232,0.0050604,5.4236e-09,0.84,0.26,0
0.042997,0.046774,0.0065346,0.0013614,0.0023688,0.00064264,0,0,0.054156,-0.013097,0,0.016709,0,0,0,0.0066133,0.0012827,0.0023688,6.9763,0.0034216,0.004879,4.9832e-09,0.86,0.26,0
0.04407,0.047594,0.006469,0.0014519,0.0023763,0.00057709,0,0,0.053206,-0.012017,0,0.015004,0,0,0,0.0065346,0.0013864,0.0023763,6.4777,0.0034324,0.0047315,4.6478e-09,0.88,0.26,0
0.045125,0.048292,0.0064076,0.0015597,0.0023902,0.00051874,0,0,0.052226,-0.010796,0,0.013487,0,0,0,0.0064625,0.0015048,0.0023902,6.0397,0.0034525,0.0045796,4.3181e-09,0.9,0.26,0
0.046159,0.048872,0.0063393,0.0016938,0.0024099,0.00045795,0,0,0.051082,-0.0093097,0,0.011907,0,0,0,0.006384,0.0016491,0.0024099,5.5766,0.003481,0.0044041,3.9494e-09,0.92,0.26,0
0.047168,0.049338,0.0062605,0.0018591,0.0024359,0.00038659,0,0,0.04972,-0.0074982,0,0.010051,0,0,0,0.0062942,0.0018254,0.0024359,4.9817,0.0035185,0.004197,3.5276e-09,0.94,0.26,0
0.048148,0.049686,0.0061705,0.0020578,0.0024685,0.00029715,0,0,0.048126,-0.0053385,0,0.0077259,0,0,0,0.0061918,0.0020365,0.0024685,4.1113,0.0035656,0.0039571,3.0548e-09,0.96,0.26,0
0.049093,0.04991,0.0060701,0.0022903,0.0025081,0.00018142,0,0,0.046305,-0.0028312,0,0.004717,0,0,0,0.0060788,0.0022817,0.0025081,2.7417,0.0036228,0.0036891,2.5459e-09,0.98,0.26,0
0.05,0.05,0.0061036,0.0026158,0.0026158,0.00017295,0,0,0.045341,-6.7437e-17,0,0.0044966,0,0,0,0.0061121,0.0026073,0.0026158,2.8319,0.0037784,0.0035006,2.2031e-09,1,0.26,0
0,0,0.0082335,0.0035287,0.0035287,0.0023527,0,0,0.061163,8.6736e-19,0,0.06117,0,0,0,0.0092081,0.0025541,0.0035287,22.502,0.005097,0.0062242,1.1368e-08,0,0.28,0
0.0012233,0.0012234,0.008204,0.0031749,0.0034137,0.0023604,0,0,0.062275,-0.0031042,0,0.06137,0,0,0,0.0091383,0.0022406,0.0034137,21.594,0.0049309,0.0063924,1.1907e-08,0.02,0.28,0
0.002491,0.0024871,0.0083246,0.0028863,0.0033633,0.0024047,0,0,0.064497,-0.0062008,0,0.062521,0,0,0,0.0092353,0.0019755,0.0033633,20.744,0.004858,0.006675,1.3077e-08,0.04,0.28,0
0.0038032,0.003789,0.0084453,0.002599,0.0033133,0.0024423,0,0,0.066716,-0.0092856,0,0.063501,0,0,0,0.0093313,0.001713,0.0033133,19.94,0.0047859,0.0069576,1.4261e-08,0.06,0.28,0
0.0051596,0.0051253,0.0085658,0.0023159,0.0032645,0.0024703,0,0,0.068917,-0.012332,0,0.064227,0,0,0,0.0094242,0.0014574,0.0032645,19.163,0.0047154,0.0072346,1.5433e-08,0.08,0.28,0
0.0065598,0.0064911,0.0086851,0.0020408,0.0032178,0.0024869,0,0,0.071075,-0.0153,0,0.06466,0,0,0,0.0095128,0.0012131,0.0032178,18.409,0.0046479,0.0075011,1.657e-08,0.1,0.28,0
0.0080026,0.0078807,0.0088023,0.0017783,0.0031742,0.0024923,0,0,0.073165,-0.018147,0,0.064799,0,0,0,0.0095967,0.00098381,0.0031742,17.68,0.0045849,0.0077534,1.7654e-08,0.12,0.28,0
0.0094864,0.0092883,0.0089168,0.0015327,0.0031348,0.0024874,0,0,0.075165,-0.020828,0,0.064672,0,0,0,0.0096765,0.00077298,0.0031348,16.984,0.0045281,0.0079889,1.8676e-08,0.14,0.28,0
0.011009,0.010708,0.0090285,0.0013083,0.003101,0.0024742,0,0,0.077058,-0.023306,0,0.06433,0,0,0,0.0097534,0.00058336,0.003101,16.329,0.0044793,0.0082062,1.9636e-08,0.16,0.28,0
0.012569,0.012135,0.009138,0.0011086,0.003074,0.0024552,0,0,0.078832,-0.025549,0,0.063836,0,0,0,0.0098292,0.00041739,0.003074,15.724,0.0044402,0.0084046,2.0536e-08,0.18,0.28,0
0.014162,0.013564,0.0092462,0.00093733,0.0030551,0.0024328,0,0,0.080485,-0.02753,0,0.063254,0,0,0,0.0099061,0.00027741,0.0030551,15.177,0.0044129,0.0085838,2.1387e-08,0.2,0.28,0
0.015788,0.014992,0.0093546,0.00079777,0.0030457,0.0024094,0,0,0.082016,-0.029223,0,0.062643,0,0,0,0.0099864,0.00016601,0.0030457,14.693,0.0043994,0.0087437,2.2199e-08,0.22,0.28,0
0.017443,0.016414,0.0094652,0.00069377,0.0030477,0.0023865,0,0,0.083428,-0.030601,0,0.062049,0,0,0,0.010072,8.6497e-05,0.0030477,14.277,0.0044022,0.0088836,2.2983e-08,0.24,0.28,0
0.019125,0.017826,0.0095804,0.0006299,0.0030631,0.002365,0,0,0.084725,-0.031631,0,0.061491,0,0,0,0.010167,4.3399e-05,0.0030631,13.928,0.0044244,0.0090019,2.3747e-08,0.26,0.28,0
0.020832,0.019226,0.0097032,0.00061202,0.0030946,0.0023441,0,0,0.085912,-0.032273,0,0.060946,0,0,0,0.010272,4.3215e-05,0.0030946,13.64,0.0044699,0.0090955,2.4493e-08,0.28,0.28,0
0.022562,0.020607,0.0098383,0.00064793,0.0031459,0.0023201,0,0,0.087002,-0.032473,0,0.060324,0,0,0,0.010391,9.5422e-05,0.0031459,13.395,0.004544,0.0091594,2.5215e-08,0.3,0.28,0
0.024312,0.021964,0.0099933,0.00074832,0.0032225,0.0022856,0,0,0.08802,-0.032164,0,0.059425,0,0,0,0.010527,0.00021413,0.0032225,13.155,0.0046547,0.0091863,2.5897e-08,0.32,0.28,0
0.026083,0.023285,0.010181,0.00092846,0.0033328,0.0022257,0,0,0.089025,-0.031256,0,0.057868,0,0,0,0.010688,0.0004209,0.0033328,12.846,0.004814,0.0091653,2.6505e-08,0.34,0.28,0
0.027873,0.024555,0.010422,0.001214,0.0034908,0.0021143,0,0,0.090106,-0.029598,0,0.054973,0,0,0,0.010884,0.00075177,0.0034908,12.333,0.0050423,0.0090784,2.6964e-08,0.36,0.28,0
0.029687,0.025749,0.010706,0.0016403,0.003704,0.001893,0,0,0.091031,-0.026828,0,0.049217,0,0,0,0.011086,0.001261,0.003704,11.332,0.0053502,0.0088596,2.6771e-08,0.38,0.28,0
0.031514,0.026823,0.010701,0.0022419,0.003883,0.0015961,0,0,0.088639,-0.021334,0,0.041498,0,0,0,0.010993,0.0019507,0.003883,10.337,0.0056087,0.0082472,2.3565e-08,0.4,0.28,0
0.033232,0.027883,0.0098233,0.00076106,0.0031753,0.0021259,0,0,0.047295,-0.0057064,0,0.019192,0,0,0,0.010318,0.0002665,0.0031753,11.861,0.0045866,0.0090855,1.9706e-08,0.42,0.28,0
0.033406,0.028496,0.010419,-9.742e-05,0.0030965,0.0019607,0,0,0.0095194,-0.0041521,0,0.0050978,0,0,0,0.010773,-0.00045108,0.0030965,10.225,0.0044727,0.0099369,2.96e-08,0.44,0.28,0
0.033613,0.029193,0.010943,-0.0002609,0.0032048,0.0027336,0,0,0.01006,-0.0045053,0,0.0071075,0,0,0,0.011575,-0.00089228,0.0032048,13.005,0.0046291,0.011006,3.7873e-08,0.46,0.28,0
0.033809,0.029896,0.010327,-0.00070759,0.0028859,0.0026044,0,0,0.0096738,-0.0046715,0,0.0067715,0,0,0,0.010911,-0.0012914,0.0028859,12.634,0.0041685,0.010741,3.2739e-08,0.48,0.28,0
0.034,0.030601,0.010035,-0.0005313,0.0028513,0.0024832,0,0,0.0093395,-0.0043973,0,0.0064564,0,0,0,0.01059,-0.0010858,0.0028513,12.587,0.0041185,0.010289,2.9592e-08,0.5,0.28,0
0.034182,0.031301,0.00968,-0.00025566,0.0028273,0.0023492,0,0,0.0089085,-0.0040079,0,0.0061078,0,0,0,0.010207,-0.0007831,0.0028273,12.654,0.0040839,0.0097029,2.5966e-08,0.52,0.28,0
0.034356,0.031997,0.0094197,0.00010108,0.0028562,0.00232,0,0,0.0085325,-0.0035817,0,0.006032,0,0,0,0.0099654,-0.00044457,0.0028562,13.235,0.0041257,0.0092142,2.3491e-08,0.54,0.28,0
0.034523,0.032693,0.0092078,0.00035377,0.0028684,0.0023617,0,0,0.0082411,-0.0032691,0,0.0061404,0,0,0,0.0097983,-0.00023679,0.0028684,14.039,0.0041433,0.0088985,2.1895e-08,0.56,0.28,0
0.034686,0.033392,0.0090672,0.00047888,0.0028638,0.0024343,0,0,0.0080644,-0.0031004,0,0.0063292,0,0,0,0.0097092,-0.00016313,0.0028638,14.774,0.0041366,0.0087603,2.1146e-08,0.58,0.28,0
0.034846,0.034092,0.0089827,0.00048675,0.0028408,0.0024928,0,0,0.0079844,-0.0030603,0,0.0064812,0,0,0,0.0096601,-0.00019063,0.0028408,15.203,0.0041034,0.0087387,2.0888e-08,0.6,0.28,0
0.035005,0.034793,0.0089376,0.00041444,0.0028056,0.0025107,0,0,0.0079716,-0.0031085,0,0.0065279,0,0,0,0.0096222,-0.00027017,0.0028056,15.252,0.0040526,0.0087689,2.0816e-08,0.62,0.28,0
0.035165,0.035493,0.008911,0.00030647,0.0027652,0.0024726,0,0,0.0079895,-0.0031964,0,0.0064287,0,0,0,0.0095709,-0.00035344,0.0027652,14.943,0.0039943,0.0087902,2.0661e-08,0.64,0.28,0
0.035325,0.036187,0.0088761,0.00021873,0.0027284,0.0023772,0,0,0.0079919,-0.0032626,0,0.0061808,0,0,0,0.0094859,-0.00039108,0.0027284,14.387,0.0039411,0.0087449,2.0197e-08,0.66,0.28,0
0.035485,0.036876,0.0088216,0.0002313,0.0027159,0.0022379,0,0,0.0079375,-0.00323,0,0.0058185,0,0,0,0.0093697,-0.00031673,0.0027159,13.76,0.0039229,0.0085818,1.9327e-08,0.68,0.28,0
0.035643,0.037558,0.0086757,0.00033866,0.0027043,0.0020902,0,0,0.0077628,-0.0030753,0,0.0054345,0,0,0,0.0091704,-0.00015602,0.0027043,13.315,0.0039062,0.0082757,1.7821e-08,0.7,0.28,0
0.035795,0.038238,0.0084882,0.00056089,0.0027147,0.0019843,0,0,0.0075055,-0.0028,0,0.0051593,0,0,0,0.0089572,9.1927e-05,0.0027147,13.297,0.0039213,0.007888,1.6133e-08,0.72,0.28,0
0.035943,0.038931,0.0080521,0.00046461,0.002555,0.0024574,0,0,0.0071462,-0.0027175,0,0.0063891,0,0,0,0.0087784,-0.00026171,0.002555,16.466,0.0036906,0.0080121,1.5833e-08,0.74,0.28,0
0.036081,0.039705,0.0062451,-0.0028228,0.0010267,0.0016665,0,0,0.036725,-0.0090987,0,0.028543,0,0,0,0.0066397,-0.0032173,0.0010267,11.755,0.001483,0.008744,-1.4305e-09,0.76,0.28,0
0.037412,0.04149,0.0078091,0.0009831,0.0026377,0.0016732,0,0,0.067229,-0.021509,0,0.043503,0,0,0,0.0081972,0.00059502,0.0026377,13.058,0.0038099,0.0068144,1.1464e-08,0.78,0.28,0
0.03877,0.043053,0.0077388,0.001188,0.002678,0.0012982,0,0,0.06579,-0.019371,0,0.033752,0,0,0,0.0079867,0.00094009,0.002678,10.81,0.0038683,0.0063583,9.9523e-09,0.8,0.28,0
0.040043,0.04438,0.0074105,0.0013324,0.0026229,0.0010073,0,0,0.062239,-0.016776,0,0.02619,0,0,0,0.007573,0.0011699,0.0026229,9.169,0.0037886,0.0058145,8.0103e-09,0.82,0.28,0
0.04126,0.04552,0.0071973,0.0013828,0.002574,0.00082633,0,0,0.060103,-0.015486,0,0.021485,0,0,0,0.0073125,0.0012676,0.002574,7.9333,0.003718,0.0055091,6.9865e-09,0.84,0.28,0
0.042447,0.046497,0.0070819,0.001433,0.0025545,0.00071513,0,0,0.058856,-0.014579,0,0.018593,0,0,0,0.007171,0.0013439,0.0025545,7.1042,0.0036898,0.005326,6.4287e-09,0.86,0.28,0
0.043614,0.047338,0.0069942,0.0015074,0.0025505,0.00064679,0,0,0.057768,-0.01356,0,0.016816,0,0,0,0.0070694,0.0014322,0.0025505,6.6329,0.003684,0.0051696,5.9916e-09,0.88,0.28,0
0.044758,0.048061,0.0069069,0.0016126,0.0025559,0.00059474,0,0,0.056564,-0.012263,0,0.015463,0,0,0,0.0069729,0.0015466,0.0025559,6.3312,0.0036918,0.0049987,5.5437e-09,0.9,0.28,0
0.045877,0.048673,0.0068133,0.0017533,0.00257,0.00054327,0,0,0.055163,-0.010617,0,0.014125,0,0,0,0.006871,0.0016957,0.00257,6.0596,0.0037122,0.0047983,5.0448e-09,0.92,0.28,0
0.046965,0.049177,0.0067115,0.0019327,0.0025932,0.0004821,0,0,0.053537,-0.0085873,0,0.012535,0,0,0,0.0067596,0.0018845,0.0025932,5.7036,0.0037458,0.0045622,4.4828e-09,0.94,0.28,0
0.048018,0.049571,0.0066006,0.0021528,0.002626,0.00040291,0,0,0.051669,-0.006152,0,0.010476,0,0,0,0.0066368,0.0021166,0.002626,5.1346,0.0037931,0.0042882,3.858e-09,0.96,0.28,0
0.049031,0.049849,0.0064802,0.0024153,0.0026686,0.00029704,0,0,0.04955,-0.0032937,0,0.0077229,0,0,0,0.0065018,0.0023937,0.0026686,4.1574,0.0038547,0.0039777,3.1804e-09,0.98,0.28,0
0.05,0.05,0.0065189,0.0027938,0.0027938,0.00029058,0,0,0.048426,-1.7412e-16,0,0.007555,0,0,0,0.0065414,0.0027713,0.0027938,4.4337,0.0040355,0.0037589,2.7275e-09,1,0.28,0
0,0,0.0081236,0.0034815,0.0034815,0.0022331,0,0,0.060347,8.6736e-19,0,0.058061,0,0,0,0.0090235,0.0025817,0.0034815,21.947,0.0050289,0.0060423,1.0488e-08,0,0.3,0
0.0012069,0.0011612,0.0080935,0.0031277,0.0033664,0.0022402,0,0,0.061453,-0.0031027,0,0.058246,0,0,0,0.0089548,0.0022664,0.0033664,21.029,0.0048625,0.0062119,1.1021e-08,0.02,0.3,0
0.0024581,0.0023634,0.0082142,0.0028443,0.0033176,0.0022841,0,0,0.063657,-0.006152,0,0.059385,0,0,0,0.0090543,0.0020043,0.0033176,20.194,0.004792,0.0064938,1.2148e-08,0.04,0.3,0
0.0037532,0.0036044,0.0083351,0.0025659,0.0032703,0.0023212,0,0,0.065843,-0.0091577,0,0.060351,0,0,0,0.0091531,0.0017479,0.0032703,19.411,0.0047238,0.0067735,1.3283e-08,0.06,0.3,0
0.0050918,0.0048808,0.0084565,0.0022936,0.003225,0.0023493,0,0,0.068009,-0.012109,0,0.061081,0,0,0,0.0092499,0.0015002,0.003225,18.661,0.0046584,0.0070474,1.4411e-08,0.08,0.3,0
0.0064736,0.0061882,0.0085781,0.00203,0.0031824,0.0023669,0,0,0.070143,-0.014981,0,0.061539,0,0,0,0.009344,0.0012641,0.0031824,17.932,0.0045968,0.007312,1.5516e-08,0.1,0.3,0
0.0078976,0.0075217,0.0086995,0.0017785,0.0031434,0.0023739,0,0,0.072229,-0.017744,0,0.06172,0,0,0,0.0094354,0.0010425,0.0031434,17.225,0.0045404,0.0075646,1.6586e-08,0.12,0.3,0
0.0093627,0.0088762,0.0088206,0.0015424,0.0031089,0.0023709,0,0,0.074252,-0.020364,0,0.061643,0,0,0,0.0095248,0.00083824,0.0031089,16.542,0.0044906,0.007803,1.7615e-08,0.14,0.3,0
0.010868,0.010247,0.0089414,0.0013254,0.0030801,0.0023594,0,0,0.076198,-0.02281,0,0.061344,0,0,0,0.0096131,0.00065374,0.0030801,15.891,0.004449,0.0080262,1.8603e-08,0.16,0.3,0
0.012411,0.011628,0.0090626,0.0011309,0.0030581,0.0023412,0,0,0.078059,-0.025053,0,0.060872,0,0,0,0.0097021,0.00049139,0.0030581,15.278,0.0044172,0.0082331,1.9552e-08,0.18,0.3,0
0.01399,0.013018,0.009185,0.00096233,0.0030442,0.0023185,0,0,0.07983,-0.027064,0,0.06028,0,0,0,0.0097937,0.00035368,0.0030442,14.71,0.0043972,0.0084234,2.047e-08,0.2,0.3,0
0.015604,0.01441,0.0093099,0.00082345,0.00304,0.002293,0,0,0.081508,-0.028815,0,0.059619,0,0,0,0.0098898,0.0002435,0.00304,14.193,0.0043911,0.0085963,2.1365e-08,0.22,0.3,0
0.01725,0.015804,0.0094385,0.00071862,0.0030472,0.0022665,0,0,0.083088,-0.030271,0,0.058928,0,0,0,0.0099924,0.00016471,0.0030472,13.734,0.0044014,0.0087501,2.2243e-08,0.24,0.3,0
0.018927,0.017195,0.0095722,0.00065346,0.0030677,0.0022395,0,0,0.084558,-0.031385,0,0.058226,0,0,0,0.010103,0.00012271,0.0030677,13.333,0.0044311,0.0088818,2.3101e-08,0.26,0.3,0
0.020633,0.01858,0.0097117,0.00063547,0.0031041,0.0022111,0,0,0.085898,-0.032093,0,0.057489,0,0,0,0.010222,0.00012546,0.0031041,12.988,0.0044837,0.0089851,2.3921e-08,0.28,0.3,0
0.022363,0.019957,0.0098568,0.00067513,0.0031596,0.0021777,0,0,0.087064,-0.032298,0,0.056619,0,0,0,0.010347,0.00018482,0.0031596,12.689,0.0045639,0.0090494,2.4658e-08,0.3,0.3,0
0.024115,0.021321,0.010006,0.0007871,0.0032379,0.0021309,0,0,0.087984,-0.03186,0,0.055404,0,0,0,0.010475,0.00031837,0.0032379,12.406,0.004677,0.0090566,2.5214e-08,0.32,0.3,0
0.025883,0.022663,0.010152,0.00099194,0.0033431,0.0020562,0,0,0.088511,-0.030565,0,0.053461,0,0,0,0.010592,0.00055154,0.0033431,12.089,0.0048289,0.0089764,2.5396e-08,0.34,0.3,0
0.027656,0.023974,0.010269,0.0013182,0.0034761,0.0019308,0,0,0.088306,-0.028053,0,0.0502,0,0,0,0.010668,0.00091951,0.0034761,11.668,0.0050211,0.0087544,2.4809e-08,0.36,0.3,0
0.029415,0.02524,0.010264,0.0018042,0.0036204,0.0017501,0,0,0.086366,-0.023612,0,0.045503,0,0,0,0.010612,0.0014564,0.0036204,11.239,0.0052295,0.008288,2.2657e-08,0.38,0.3,0
0.03111,0.026479,0.010142,0.0026417,0.003835,0.0015894,0,0,0.081988,-0.015514,0,0.041324,0,0,0,0.010465,0.0023187,0.003835,11.484,0.0055395,0.0075036,1.8747e-08,0.4,0.3,0
0.032694,0.027782,0.010042,0.0010848,0.003338,0.001689,0,0,0.044356,-0.0053258,0,0.021584,0,0,0,0.010356,0.00077109,0.003338,10.704,0.0048215,0.0086731,2.1127e-08,0.42,0.3,0
0.032885,0.02842,0.010052,-0.00026425,0.0029364,0.0024436,0,0,0.0092507,-0.0041609,0,0.0063534,0,0,0,0.010602,-0.00081378,0.0029364,12.674,0.0042415,0.010078,2.9095e-08,0.44,0.3,0
0.033064,0.029102,0.0097641,-0.00063511,0.0027387,0.0028202,0,0,0.009133,-0.0043859,0,0.0073324,0,0,0,0.01048,-0.0013507,0.0027387,14.237,0.0039559,0.010407,2.9217e-08,0.46,0.3,0
0.03325,0.029807,0.0098806,-0.000531,0.0028049,0.002884,0,0,0.0091984,-0.0043366,0,0.0074985,0,0,0,0.010626,-0.0012765,0.0028049,14.493,0.0040515,0.010476,3.0278e-08,0.48,0.3,0
0.033432,0.030515,0.0097296,-0.00041169,0.0027954,0.0027375,0,0,0.0090145,-0.0041692,0,0.0071175,0,0,0,0.010421,-0.0011035,0.0027954,14.182,0.0040378,0.010153,2.8271e-08,0.5,0.3,0
0.033611,0.031221,0.0095653,-0.00016062,0.0028214,0.0026045,0,0,0.0087671,-0.0038766,0,0.0067717,0,0,0,0.010219,-0.00081416,0.0028214,14.086,0.0040754,0.0097382,2.6117e-08,0.52,0.3,0
0.033783,0.031925,0.0093859,9.2983e-05,0.0028437,0.0025244,0,0,0.0085049,-0.0035759,0,0.0065634,0,0,0,0.010027,-0.00054848,0.0028437,14.258,0.0041075,0.0093531,2.4153e-08,0.54,0.3,0
0.033951,0.032627,0.0092389,0.00030091,0.0028619,0.0025082,0,0,0.00829,-0.0033293,0,0.0065213,0,0,0,0.0098946,-0.00035482,0.0028619,14.652,0.0041339,0.009079,2.2805e-08,0.56,0.3,0
0.034115,0.033329,0.0091287,0.00042084,0.0028648,0.0025257,0,0,0.0081429,-0.0031772,0,0.0065668,0,0,0,0.0098082,-0.0002587,0.0028648,15.059,0.0041381,0.0089249,2.2009e-08,0.58,0.3,0
0.034276,0.03403,0.0090565,0.00045478,0.0028534,0.0025448,0,0,0.008064,-0.0031182,0,0.0066166,0,0,0,0.009753,-0.00024172,0.0028534,15.307,0.0041215,0.0088622,2.1606e-08,0.6,0.3,0
0.034437,0.034731,0.0090091,0.00042409,0.0028299,0.0025402,0,0,0.0080329,-0.0031276,0,0.0066044,0,0,0,0.0097044,-0.00027118,0.0028299,15.308,0.0040877,0.0088427,2.135e-08,0.62,0.3,0
0.034598,0.035429,0.0089648,0.00036384,0.0027986,0.0024998,0,0,0.0080161,-0.0031652,0,0.0064995,0,0,0,0.0096386,-0.00030993,0.0027986,15.084,0.0040424,0.0088154,2.1005e-08,0.64,0.3,0
0.034758,0.036123,0.0088941,0.00031701,0.0027633,0.0024284,0,0,0.00797,-0.0031802,0,0.0063139,0,0,0,0.0095339,-0.00032282,0.0027633,14.761,0.0039915,0.0087327,2.0362e-08,0.66,0.3,0
0.034917,0.036813,0.0087386,0.00031087,0.0027149,0.0023556,0,0,0.0078309,-0.0031252,0,0.0061245,0,0,0,0.0093524,-0.00030283,0.0027149,14.603,0.0039215,0.0085553,1.9193e-08,0.68,0.3,0
0.035071,0.037499,0.0083883,0.000347,0.0026206,0.0023402,0,0,0.0074981,-0.0029557,0,0.0060845,0,0,0,0.0090198,-0.00028446,0.0026206,15.101,0.0037853,0.0082449,1.7204e-08,0.7,0.3,0
0.035216,0.038187,0.0076752,0.00035551,0.0024092,0.0024332,0,0,0.0068458,-0.0026698,0,0.0063264,0,0,0,0.0084102,-0.00037953,0.0024092,16.809,0.00348,0.0077798,1.4127e-08,0.72,0.3,0
0.035345,0.038879,0.0080458,0.00059588,0.0025925,0.0024518,0,0,0.0070892,-0.0025956,0,0.0063746,0,0,0,0.0087802,-0.0001386,0.0025925,16.677,0.0037447,0.0079149,1.5622e-08,0.74,0.3,0
0.0355,0.039563,0.0073751,-0.00072925,0.0019938,0.0020302,0,0,0.035061,-0.0064362,0,0.027417,0,0,0,0.007886,-0.0012401,0.0019938,14.308,0.0028799,0.0081081,9.0459e-09,0.76,0.3,0
0.036747,0.041117,0.0076179,0.001287,0.0026715,0.0017999,0,0,0.064304,-0.017999,0,0.046797,0,0,0,0.0080939,0.00081103,0.0026715,14.811,0.0038588,0.0065537,1.0626e-08,0.78,0.3,0
0.038072,0.042672,0.0078585,0.0015732,0.0028295,0.0014834,0,0,0.065377,-0.016332,0,0.038568,0,0,0,0.008191,0.0012407,0.0028295,12.634,0.0040871,0.0063078,1.0185e-08,0.8,0.3,0
0.039362,0.044048,0.0077275,0.0015323,0.0027779,0.001137,0,0,0.064344,-0.016194,0,0.029562,0,0,0,0.0079296,0.0013302,0.0027779,10.078,0.0040126,0.0060078,8.9944e-09,0.82,0.3,0
0.040646,0.045201,0.0076665,0.0014846,0.0027453,0.00091477,0,0,0.063975,-0.01639,0,0.023784,0,0,0,0.007799,0.0013521,0.0027453,8.243,0.0039655,0.0058756,8.4758e-09,0.84,0.3,0
0.041921,0.046191,0.0075983,0.0014985,0.002729,0.00080584,0,0,0.0633,-0.015997,0,0.020952,0,0,0,0.0077029,0.0013939,0.002729,7.4002,0.0039419,0.0057588,8.0594e-09,0.86,0.3,0
0.043178,0.047052,0.0074995,0.001556,0.0027166,0.00074419,0,0,0.062177,-0.015089,0,0.019349,0,0,0,0.0075913,0.0014642,0.0027166,7.0294,0.003924,0.0056067,7.5518e-09,0.88,0.3,0
0.044408,0.047801,0.0073865,0.001658,0.0027133,0.00069868,0,0,0.060751,-0.01372,0,0.018166,0,0,0,0.0074705,0.001574,0.0027133,6.8542,0.0039193,0.0054175,6.964e-09,0.9,0.3,0
0.045608,0.048448,0.007266,0.0018048,0.0027213,0.00065361,0,0,0.059082,-0.011914,0,0.016994,0,0,0,0.0073432,0.0017277,0.0027213,6.7307,0.0039307,0.0051905,6.3042e-09,0.92,0.3,0
0.046772,0.048995,0.0071399,0.0019977,0.0027413,0.00059935,0,0,0.057182,-0.0096667,0,0.015583,0,0,0,0.0072088,0.0019287,0.0027413,6.5609,0.0039596,0.0049243,5.5742e-09,0.94,0.3,0
0.047895,0.04944,0.0070074,0.0022384,0.0027738,0.00052812,0,0,0.055037,-0.006959,0,0.013731,0,0,0,0.0070652,0.0021807,0.0027738,6.2442,0.0040065,0.0046166,4.7735e-09,0.96,0.3,0
0.048973,0.049778,0.0068667,0.0025303,0.0028191,0.00043168,0,0,0.052618,-0.0037538,0,0.011224,0,0,0,0.0069092,0.0024878,0.0028191,5.6302,0.004072,0.0042654,3.9048e-09,0.98,0.3,0
0.05,0.05,0.0069106,0.0029617,0.0029617,0.0004263,0,0,0.051336,5.9197e-17,0,0.011084,0,0,0,0.0069561,0.0029162,0.0029617,6.0919,0.004278,0.0040173,3.3285e-09,1,0.3,0
0,0,0.0080077,0.0034319,0.0034319,0.002114,0,0,0.059486,8.6736e-19,0,0.054964,0,0,0,0.0088348,0.0026047,0.0034319,21.369,0.0049571,0.0058605,9.6472e-09,0,0.32,0
0.0011897,0.0010993,0.0079774,0.0030806,0.0033174,0.0021205,0,0,0.06058,-0.0030785,0,0.055133,0,0,0,0.008768,0.00229,0.0033174,20.448,0.0047918,0.0060304,1.017e-08,0.02,0.32,0
0.0024232,0.002241,0.0080972,0.0028031,0.0032701,0.0021642,0,0,0.062753,-0.0060706,0,0.056269,0,0,0,0.0088693,0.002031,0.0032701,19.635,0.0047235,0.0063107,1.1249e-08,0.04,0.32,0
0.0036998,0.0034227,0.0082171,0.0025332,0.0032251,0.0022006,0,0,0.064896,-0.0089947,0,0.057216,0,0,0,0.0089695,0.0017808,0.0032251,18.876,0.0046585,0.0065864,1.2329e-08,0.06,0.32,0
0.0050191,0.004641,0.0083378,0.0022711,0.0031827,0.0022279,0,0,0.067017,-0.011851,0,0.057925,0,0,0,0.0090681,0.0015408,0.0031827,18.148,0.0045972,0.0068554,1.3402e-08,0.08,0.32,0
0.0063805,0.0058919,0.0084595,0.0020184,0.0031434,0.0022451,0,0,0.06911,-0.014625,0,0.058372,0,0,0,0.0091648,0.0013131,0.0031434,17.44,0.0045404,0.0071154,1.4457e-08,0.1,0.32,0
0.0077835,0.007171,0.0085824,0.0017775,0.0031079,0.0022518,0,0,0.071167,-0.017296,0,0.058547,0,0,0,0.00926,0.0010998,0.0031079,16.749,0.0044893,0.0073645,1.5487e-08,0.12,0.32,0
0.0092272,0.0084737,0.0087063,0.001551,0.0030772,0.0022487,0,0,0.073179,-0.019841,0,0.058465,0,0,0,0.0093543,0.00090299,0.0030772,16.075,0.0044448,0.0076011,1.6489e-08,0.14,0.32,0
0.010711,0.0097958,0.0088317,0.001342,0.0030521,0.0022366,0,0,0.075135,-0.022232,0,0.058151,0,0,0,0.0094488,0.00072492,0.0030521,15.424,0.0044086,0.0078243,1.7462e-08,0.16,0.32,0
0.012233,0.011133,0.0089591,0.0011535,0.0030338,0.0022171,0,0,0.077029,-0.024443,0,0.057645,0,0,0,0.0095449,0.00056775,0.0030338,14.8,0.0043822,0.0080332,1.8411e-08,0.18,0.32,0
0.013792,0.012482,0.0090893,0.00098903,0.0030235,0.002192,0,0,0.078856,-0.026448,0,0.056991,0,0,0,0.0096444,0.00043392,0.0030235,14.211,0.0043673,0.0082273,1.934e-08,0.2,0.32,0
0.015387,0.013839,0.0092232,0.00085226,0.0030226,0.002163,0,0,0.080607,-0.028215,0,0.056237,0,0,0,0.0097491,0.00032641,0.0030226,13.665,0.004366,0.0084054,2.0255e-08,0.22,0.32,0
0.017016,0.015203,0.0093614,0.00074796,0.0030328,0.0021318,0,0,0.082272,-0.029703,0,0.055427,0,0,0,0.0098601,0.00024922,0.0030328,13.168,0.0043807,0.0085653,2.1157e-08,0.24,0.32,0
0.018678,0.016571,0.0095038,0.00068238,0.0030559,0.0020997,0,0,0.083824,-0.030855,0,0.054593,0,0,0,0.0099781,0.00020809,0.0030559,12.728,0.004414,0.0087029,2.2038e-08,0.26,0.32,0
0.020369,0.017942,0.0096487,0.00066431,0.0030939,0.0020671,0,0,0.085212,-0.031585,0,0.053745,0,0,0,0.010101,0.00021153,0.0030939,12.355,0.004469,0.0088098,2.2863e-08,0.28,0.32,0
0.022086,0.019315,0.0097909,0.0007064,0.0031492,0.0020326,0,0,0.086342,-0.031756,0,0.052847,0,0,0,0.010225,0.00027236,0.0031492,12.054,0.0045488,0.0088711,2.3556e-08,0.3,0.32,0
0.023823,0.020689,0.0099196,0.00082704,0.003224,0.0019923,0,0,0.087043,-0.03116,0,0.051799,0,0,0,0.010337,0.00040968,0.003224,11.832,0.0046569,0.0088619,2.3968e-08,0.32,0.32,0
0.025568,0.022062,0.010015,0.0010524,0.0033201,0.0019391,0,0,0.087029,-0.02948,0,0.050416,0,0,0,0.010416,0.00065084,0.0033201,11.7,0.0047957,0.0087419,2.3835e-08,0.34,0.32,0
0.027304,0.023433,0.01004,0.0014169,0.003437,0.001869,0,0,0.085836,-0.026261,0,0.048593,0,0,0,0.010427,0.0010292,0.003437,11.718,0.0049646,0.0084555,2.277e-08,0.36,0.32,0
0.029001,0.024805,0.0099724,0.0019768,0.0035848,0.0017985,0,0,0.08304,-0.020903,0,0.046761,0,0,0,0.010358,0.0015909,0.0035848,12.111,0.005178,0.0079601,2.0528e-08,0.38,0.32,0
0.030625,0.026203,0.0098364,0.002738,0.0037723,0.001786,0,0,0.078833,-0.013446,0,0.046435,0,0,0,0.01026,0.002314,0.0037723,13.356,0.0054489,0.0073269,1.7534e-08,0.4,0.32,0
0.032155,0.02767,0.0095729,0.00059269,0.0030497,0.0019741,0,0,0.042887,-0.0058074,0,0.025857,0,0,0,0.010001,0.00016465,0.0030497,12.44,0.0044051,0.0088419,1.9703e-08,0.42,0.32,0
0.032341,0.02833,0.009551,-0.0011283,0.0025268,0.0024198,0,0,0.0091314,-0.0047516,0,0.0062915,0,0,0,0.010074,-0.001651,0.0025268,12.19,0.0036498,0.010293,2.6515e-08,0.44,0.32,0
0.03252,0.029017,0.0094688,-0.00062821,0.0026522,0.0028317,0,0,0.0088616,-0.0042645,0,0.0073624,0,0,0,0.010209,-0.0013681,0.0026522,14.644,0.0038309,0.010181,2.7101e-08,0.46,0.32,0
0.032695,0.029723,0.0094294,-0.00045769,0.0026915,0.0029252,0,0,0.0087592,-0.004094,0,0.0076056,0,0,0,0.01023,-0.0012583,0.0026915,15.307,0.0038877,0.01011,2.707e-08,0.48,0.32,0
0.03287,0.030434,0.0094414,-0.00025601,0.0027556,0.0028537,0,0,0.0086915,-0.0039151,0,0.0074195,0,0,0,0.010219,-0.0010334,0.0027556,15.239,0.0039803,0.0099164,2.6561e-08,0.5,0.32,0
0.033043,0.031145,0.0093942,-6.3022e-05,0.0027994,0.0027372,0,0,0.0085733,-0.0037211,0,0.0071168,0,0,0,0.010129,-0.00079813,0.0027994,15.033,0.0040435,0.0096457,2.5419e-08,0.52,0.32,0
0.033213,0.031854,0.0093271,0.00013146,0.0028376,0.0026531,0,0,0.0084364,-0.0035179,0,0.0068979,0,0,0,0.010038,-0.00057907,0.0028376,14.993,0.0040987,0.0093869,2.4292e-08,0.54,0.32,0
0.033381,0.03256,0.0092524,0.00029274,0.0028635,0.0026109,0,0,0.0083055,-0.0033421,0,0.0067884,0,0,0,0.0099577,-0.00041259,0.0028635,15.117,0.0041362,0.0091816,2.3368e-08,0.56,0.32,0
0.033545,0.033265,0.0091868,0.00040049,0.0028762,0.0025972,0,0,0.0082038,-0.0032184,0,0.0067528,0,0,0,0.0098971,-0.00030983,0.0028762,15.296,0.0041545,0.0090451,2.2723e-08,0.58,0.32,0
0.033709,0.033968,0.0091347,0.00044731,0.0028746,0.0025899,0,0,0.0081381,-0.0031555,0,0.0067336,0,0,0,0.0098482,-0.00026617,0.0028746,15.402,0.0041522,0.0089665,2.2294e-08,0.6,0.32,0
0.033871,0.034668,0.009092,0.00044461,0.002861,0.0025723,0,0,0.0081003,-0.0031413,0,0.006688,0,0,0,0.0097993,-0.00026271,0.002861,15.375,0.0041325,0.0089203,2.1959e-08,0.62,0.32,0
0.034033,0.035366,0.0090469,0.00041639,0.002839,0.0025387,0,0,0.0080703,-0.0031494,0,0.0066005,0,0,0,0.0097383,-0.00027497,0.002839,15.234,0.0041008,0.0088759,2.1582e-08,0.64,0.32,0
0.034194,0.03606,0.0089853,0.00038979,0.0028125,0.0024987,0,0,0.0080246,-0.0031496,0,0.0064967,0,0,0,0.0096589,-0.00028382,0.0028125,15.087,0.0040626,0.0088125,2.1082e-08,0.66,0.32,0
0.034354,0.036751,0.0088998,0.00037955,0.0027838,0.0024867,0,0,0.0079508,-0.0031255,0,0.0064655,0,0,0,0.0095725,-0.00029313,0.0027838,15.137,0.004021,0.0087431,2.0546e-08,0.68,0.32,0
0.034512,0.03744,0.0087985,0.00036084,0.0027478,0.0025776,0,0,0.0078659,-0.003103,0,0.0067017,0,0,0,0.0095236,-0.00036425,0.0027478,15.712,0.0039691,0.0087569,2.0381e-08,0.7,0.32,0
0.034668,0.038131,0.0086035,0.00017992,0.002635,0.0028918,0,0,0.007759,-0.0031916,0,0.0075188,0,0,0,0.0095007,-0.00071729,0.002635,17.237,0.0038061,0.0090217,2.0917e-08,0.72,0.32,0
0.034822,0.038827,0.0071013,-0.00083089,0.0018811,0.0028624,0,0,0.0067862,-0.0035256,0,0.0074424,0,0,0,0.0080264,-0.001756,0.0018811,17.91,0.0027172,0.0085641,1.3767e-08,0.74,0.32,0
0.03494,0.039448,0.0069898,0.00085918,0.0023547,0.0023095,0,0,0.033797,-0.0035348,0,0.025265,0,0,0,0.0077677,8.128e-05,0.0023547,18.162,0.0034012,0.0069122,8.9276e-09,0.76,0.32,0
0.036174,0.04077,0.0072268,0.0012046,0.0025294,0.001105,0,0,0.061066,-0.017223,0,0.028731,0,0,0,0.0074232,0.0010082,0.0025294,10.076,0.0036536,0.0058058,7.7729e-09,0.78,0.32,0
0.037382,0.042399,0.0077099,0.0018163,0.0028578,0.0013569,0,0,0.063077,-0.013541,0,0.03528,0,0,0,0.0080073,0.0015188,0.0028578,12.362,0.004128,0.0059334,8.914e-09,0.8,0.32,0
0.038697,0.043732,0.0080792,0.0016384,0.0029153,0.0011139,0,0,0.067131,-0.016599,0,0.028962,0,0,0,0.0082664,0.0014512,0.0029153,9.5401,0.0042109,0.0062139,1.0055e-08,0.82,0.32,0
0.040068,0.044864,0.0081966,0.0015786,0.0029325,0.00099109,0,0,0.068432,-0.017602,0,0.025768,0,0,0,0.0083418,0.0014333,0.0029325,8.3368,0.0042359,0.0062942,1.0399e-08,0.84,0.32,0
0.041434,0.045857,0.0081138,0.0015604,0.0029022,0.00092275,0,0,0.06775,-0.017444,0,0.023992,0,0,0,0.0082412,0.0014329,0.0029022,7.8639,0.0041921,0.0062055,9.9919e-09,0.86,0.32,0
0.042778,0.046735,0.007979,0.0016021,0.0028743,0.00087412,0,0,0.06636,-0.016539,0,0.022727,0,0,0,0.0080966,0.0014845,0.0028743,7.6656,0.0041518,0.0060384,9.32e-09,0.88,0.32,0
0.044089,0.047513,0.0078315,0.0017006,0.0028596,0.00083272,0,0,0.064634,-0.015067,0,0.021651,0,0,0,0.0079426,0.0015895,0.0028596,7.5988,0.0041306,0.0058228,8.536e-09,0.9,0.32,0
0.045363,0.048197,0.0076818,0.0018527,0.0028603,0.00078971,0,0,0.062679,-0.0131,0,0.020532,0,0,0,0.0077869,0.0017476,0.0028603,7.5802,0.0041316,0.005567,7.6813e-09,0.92,0.32,0
0.046596,0.048791,0.0075314,0.0020574,0.0028766,0.00073831,0,0,0.060512,-0.01065,0,0.019196,0,0,0,0.0076292,0.0019596,0.0028766,7.5481,0.0041551,0.0052713,6.7618e-09,0.94,0.32,0
0.047783,0.049293,0.0073783,0.0023166,0.0029085,0.00067231,0,0,0.058108,-0.0076942,0,0.01748,0,0,0,0.0074661,0.0022288,0.0029085,7.4384,0.0042011,0.0049327,5.7715e-09,0.96,0.32,0
0.04892,0.049699,0.0072186,0.002635,0.0029561,0.00058465,0,0,0.055413,-0.0041743,0,0.015201,0,0,0,0.007292,0.0025616,0.0029561,7.1556,0.0042699,0.004546,4.703e-09,0.98,0.32,0
0.05,0.05,0.0072671,0.0031145,0.0031145,0.00057934,0,0,0.053984,4.3368e-19,0,0.015063,0,0,0,0.0073465,0.0030352,0.0031145,7.7951,0.0044987,0.0042722,4.0001e-09,1,0.32,0
0,0,0.0078836,0.0033787,0.0033787,0.0019963,0,0,0.058564,6.5052e-19,0,0.051904,0,0,0,0.0086409,0.0026214,0.0033787,20.775,0.0048803,0.0056789,8.8449e-09,0,0.34,0
0.0011713,0.0010381,0.0078535,0.003033,0.0032659,0.0020022,0,0,0.059638,-0.0030285,0,0.052057,0,0,0,0.0085766,0.0023098,0.0032659,19.858,0.0047175,0.0058477,9.3512e-09,0.02,0.34,0
0.0023855,0.0021206,0.0079712,0.0027625,0.0032201,0.0020461,0,0,0.061764,-0.0059488,0,0.0532,0,0,0,0.0086789,0.0020549,0.0032201,19.078,0.0046513,0.0061251,1.0377e-08,0.04,0.34,0
0.0036418,0.0032446,0.0080889,0.0025014,0.0031771,0.0020818,0,0,0.063853,-0.0087837,0,0.054126,0,0,0,0.0087792,0.0018111,0.0031771,18.346,0.0045891,0.0063955,1.1396e-08,0.06,0.34,0
0.0049397,0.0044068,0.0082074,0.0022494,0.003137,0.0021079,0,0,0.065914,-0.011539,0,0.054806,0,0,0,0.0088777,0.001579,0.003137,17.642,0.0045313,0.0066578,1.2405e-08,0.08,0.34,0
0.0062784,0.0056032,0.0083272,0.0020073,0.0031004,0.0021238,0,0,0.067949,-0.014209,0,0.055219,0,0,0,0.0089746,0.0013599,0.0031004,16.953,0.0044783,0.0069108,1.3396e-08,0.1,0.34,0
0.0076576,0.0068298,0.0084487,0.0017769,0.0030677,0.0021293,0,0,0.069954,-0.016781,0,0.055362,0,0,0,0.0090703,0.0011552,0.0030677,16.275,0.0044311,0.0071533,1.4367e-08,0.12,0.34,0
0.0090766,0.0080825,0.0085721,0.0015601,0.0030397,0.0021246,0,0,0.071922,-0.019234,0,0.055241,0,0,0,0.0091656,0.00096662,0.0030397,15.608,0.0043906,0.0073841,1.5315e-08,0.14,0.34,0
0.010535,0.0093574,0.0086978,0.0013597,0.0030172,0.0021107,0,0,0.073847,-0.021548,0,0.054878,0,0,0,0.0092616,0.00079591,0.0030172,14.955,0.0043582,0.0076024,1.6241e-08,0.16,0.34,0
0.01203,0.010651,0.0088263,0.0011782,0.0030013,0.0020886,0,0,0.075724,-0.0237,0,0.054304,0,0,0,0.0093595,0.00064503,0.0030013,14.321,0.0043353,0.0078077,1.7148e-08,0.18,0.34,0
0.013563,0.01196,0.0089583,0.0010189,0.0029931,0.00206,0,0,0.077547,-0.025665,0,0.05356,0,0,0,0.0094609,0.00051623,0.0029931,13.713,0.0043234,0.0079992,1.8041e-08,0.2,0.34,0
0.015132,0.013282,0.0090944,0.00088536,0.0029939,0.0020267,0,0,0.079307,-0.027412,0,0.052693,0,0,0,0.0095675,0.00041228,0.0029939,13.139,0.0043246,0.008176,1.8925e-08,0.22,0.34,0
0.016736,0.014616,0.009235,0.00078228,0.0030052,0.0019907,0,0,0.080988,-0.028898,0,0.051758,0,0,0,0.0096804,0.00033691,0.0030052,12.611,0.0043408,0.008336,1.9799e-08,0.24,0.34,0
0.018372,0.01596,0.0093791,0.00071601,0.0030286,0.0019545,0,0,0.082558,-0.030063,0,0.050818,0,0,0,0.0097997,0.00029546,0.0030286,12.143,0.0043746,0.0084749,2.0653e-08,0.26,0.34,0
0.020038,0.017317,0.0095237,0.00069562,0.0030658,0.0019207,0,0,0.083953,-0.030812,0,0.049939,0,0,0,0.0099235,0.00029583,0.0030658,11.758,0.0044284,0.0085847,2.1454e-08,0.28,0.34,0
0.02173,0.018687,0.0096613,0.00073445,0.0031187,0.0018924,0,0,0.085054,-0.030996,0,0.049201,0,0,0,0.010046,0.00034986,0.0031187,11.488,0.0045048,0.0086506,2.2127e-08,0.3,0.34,0
0.02344,0.020074,0.0097775,0.00085223,0.0031889,0.0018726,0,0,0.085651,-0.030377,0,0.048688,0,0,0,0.010154,0.00047526,0.0031889,11.382,0.0046062,0.0086478,2.2523e-08,0.32,0.34,0
0.025156,0.021484,0.0098488,0.0010778,0.003278,0.0018654,0,0,0.08542,-0.028602,0,0.0485,0,0,0,0.010229,0.00069758,0.003278,11.521,0.0047349,0.0085389,2.2406e-08,0.34,0.34,0
0.026857,0.022923,0.0098504,0.00145,0.0033901,0.0018762,0,0,0.083984,-0.025221,0,0.048782,0,0,0,0.01025,0.00105,0.0033901,12.035,0.0048969,0.0082821,2.1515e-08,0.36,0.34,0
0.028515,0.024404,0.0097717,0.0019957,0.0035302,0.001915,0,0,0.081139,-0.019948,0,0.049791,0,0,0,0.010218,0.0015497,0.0035302,13.111,0.0050992,0.007867,1.9765e-08,0.38,0.34,0
0.030103,0.025941,0.0096264,0.0026771,0.003691,0.0019901,0,0,0.077159,-0.013181,0,0.051742,0,0,0,0.010156,0.0021476,0.003691,14.901,0.0053315,0.007359,1.7472e-08,0.4,0.34,0
0.031602,0.02755,0.009366,0.00024096,0.0028821,0.0021775,0,0,0.04216,-0.0062426,0,0.02928,0,0,0,0.0098831,-0.00027618,0.0028821,13.537,0.004163,0.009091,1.9432e-08,0.42,0.34,0
0.031789,0.02823,0.0093022,-0.0016322,0.002301,0.0025543,0,0,0.0091016,-0.0051132,0,0.0066412,0,0,0,0.0098695,-0.0021995,0.002301,12.521,0.0033237,0.010564,2.5636e-08,0.44,0.34,0
0.031966,0.028931,0.0092175,-0.00081027,0.0025222,0.0028227,0,0,0.008704,-0.0043322,0,0.0073389,0,0,0,0.0099575,-0.0015502,0.0025222,14.689,0.0036431,0.010107,2.5487e-08,0.46,0.34,0
0.032137,0.029643,0.0092037,-0.00037056,0.0026499,0.0028923,0,0,0.0085199,-0.0039267,0,0.0075199,0,0,0,0.01001,-0.0011764,0.0026499,15.57,0.0038277,0.0098472,2.5262e-08,0.48,0.34,0
0.032307,0.030358,0.0092393,-0.00014319,0.0027288,0.0028389,0,0,0.0084636,-0.0037336,0,0.0073812,0,0,0,0.010031,-0.00093531,0.0027288,15.59,0.0039417,0.0096702,2.4975e-08,0.5,0.34,0
0.032476,0.031072,0.0092836,2.408e-05,0.0027923,0.0027612,0,0,0.0084387,-0.0035987,0,0.0071792,0,0,0,0.010044,-0.0007368,0.0027923,15.406,0.0040333,0.0095206,2.4673e-08,0.52,0.34,0
0.032644,0.031784,0.0092992,0.00017346,0.0028418,0.0027009,0,0,0.0083947,-0.0034688,0,0.0070223,0,0,0,0.010039,-0.00056599,0.0028418,15.311,0.0041048,0.0093773,2.4272e-08,0.54,0.34,0
0.032811,0.032493,0.0092879,0.00030587,0.0028781,0.0026653,0,0,0.0083327,-0.003344,0,0.0069298,0,0,0,0.010019,-0.00042548,0.0028781,15.344,0.0041573,0.0092467,2.3827e-08,0.56,0.34,0
0.032977,0.0332,0.0092614,0.0004043,0.0028997,0.0026439,0,0,0.0082702,-0.003244,0,0.0068741,0,0,0,0.0099906,-0.00032489,0.0028997,15.419,0.0041885,0.0091402,2.34e-08,0.58,0.34,0
0.033142,0.033904,0.0092309,0.00045825,0.0029068,0.0026251,0,0,0.0082214,-0.0031831,0,0.0068252,0,0,0,0.0099564,-0.00026727,0.0029068,15.45,0.0041986,0.0090636,2.3033e-08,0.6,0.34,0
0.033306,0.034605,0.0092,0.00046992,0.002901,0.0026022,0,0,0.0081887,-0.0031604,0,0.0067658,0,0,0,0.0099168,-0.00024688,0.002901,15.401,0.0041903,0.0090119,2.2715e-08,0.62,0.34,0
0.03347,0.035303,0.0091665,0.00045482,0.0028864,0.0025757,0,0,0.0081641,-0.003161,0,0.0066969,0,0,0,0.009871,-0.00024975,0.0028864,15.299,0.0041692,0.0089736,2.2411e-08,0.64,0.34,0
0.033633,0.035997,0.0091341,0.00043331,0.0028702,0.0025514,0,0,0.008143,-0.003168,0,0.0066336,0,0,0,0.009827,-0.00025966,0.0028702,15.195,0.0041459,0.0089424,2.2137e-08,0.66,0.34,0
0.033795,0.036688,0.0091456,0.00041805,0.0028691,0.0025386,0,0,0.0081594,-0.0031864,0,0.0066004,0,0,0,0.0098303,-0.00026665,0.0028691,15.094,0.0041442,0.0089509,2.2175e-08,0.68,0.34,0
0.033959,0.037375,0.0093481,0.00038746,0.0029207,0.0025463,0,0,0.0083556,-0.0032932,0,0.0066204,0,0,0,0.010021,-0.00028556,0.0029207,14.805,0.0042187,0.0091357,2.3523e-08,0.7,0.34,0
0.03413,0.038059,0.010212,0.00034523,0.0031672,0.002564,0,0,0.0091585,-0.0036686,0,0.0066663,0,0,0,0.010839,-0.00028125,0.0031672,13.731,0.0045749,0.0098589,2.9689e-08,0.72,0.34,0
0.034326,0.038738,0.012157,0.00027069,0.0037282,0.0026849,0,0,0.010957,-0.0044948,0,0.0069808,0,0,0,0.012735,-0.00030766,0.0037282,12.156,0.0053852,0.011566,4.8072e-08,0.74,0.34,0
0.034568,0.039421,0.010105,0.0027407,0.0038537,0.0027182,0,0,0.016612,-0.0020507,0,0.021361,0,0,0,0.011057,0.0017887,0.0038537,22.54,0.0055664,0.0084292,6.1137e-08,0.76,0.34,0
0.034945,0.040428,0.014412,0.0019107,0.0048968,0.0023174,0,0,0.038844,-0.0099706,0,0.014646,0,0,0,0.014836,0.0014865,0.0048968,9.1711,0.0070731,0.01202,1.2167e-07,0.78,0.34,0
0.036522,0.042131,0.0095125,0.0022521,0.0035294,0.0014349,0,0,0.07778,-0.016604,0,0.037307,0,0,0,0.0097857,0.0019788,0.0035294,10.784,0.005098,0.0071587,1.5903e-08,0.8,0.34,0
0.038056,0.043384,0.0091291,0.0018777,0.003302,0.0012043,0,0,0.075752,-0.018517,0,0.03131,0,0,0,0.0093239,0.0016829,0.003302,9.1867,0.0047696,0.0069738,1.4305e-08,0.82,0.34,0
0.039552,0.044497,0.0088407,0.001694,0.0031604,0.001151,0,0,0.073844,-0.019064,0,0.029926,0,0,0,0.0090215,0.0015131,0.0031604,8.9271,0.004565,0.0068352,1.3246e-08,0.84,0.34,0
0.04101,0.045493,0.0086088,0.0016278,0.003071,0.0010933,0,0,0.071991,-0.018762,0,0.028426,0,0,0,0.008776,0.0014605,0.003071,8.696,0.0044358,0.0066579,1.222e-08,0.86,0.34,0
0.042431,0.04639,0.0084071,0.0016516,0.0030176,0.0010432,0,0,0.070064,-0.017758,0,0.027123,0,0,0,0.0085646,0.0014942,0.0030176,8.5815,0.0043588,0.0064451,1.1203e-08,0.88,0.34,0
0.043813,0.047199,0.0082204,0.0017458,0.0029899,0.00099712,0,0,0.067997,-0.016172,0,0.025925,0,0,0,0.0083705,0.0015958,0.0029899,8.5597,0.0043187,0.0061964,1.0165e-08,0.9,0.34,0
0.045151,0.047924,0.0080431,0.0019014,0.0029834,0.00094996,0,0,0.065777,-0.014065,0,0.024699,0,0,0,0.0081867,0.0017578,0.0029834,8.5946,0.0043093,0.0059122,9.0953e-09,0.92,0.34,0
0.046444,0.048569,0.0078715,0.0021153,0.002996,0.00089691,0,0,0.063381,-0.01145,0,0.02332,0,0,0,0.008008,0.0019788,0.002996,8.6544,0.0043276,0.0055905,7.9813e-09,0.94,0.34,0
0.047686,0.049132,0.007701,0.0023892,0.003027,0.00083329,0,0,0.060761,-0.0082925,0,0.021665,0,0,0,0.0078286,0.0022615,0.003027,8.7096,0.0043724,0.0052266,6.8055e-09,0.96,0.34,0
0.048874,0.049611,0.0075255,0.0027288,0.0030763,0.00075365,0,0,0.05784,-0.0045176,0,0.019595,0,0,0,0.0076411,0.0026131,0.0030763,8.7223,0.0044435,0.0048131,5.5484e-09,0.98,0.34,0
0.05,0.05,0.0075778,0.0032476,0.0032476,0.0007474,0,0,0.056292,-1.1037e-16,0,0.019432,0,0,0,0.0077032,0.0031223,0.0032476,9.5225,0.004691,0.0045195,4.7291e-09,1,0.34,0
0,0,0.00775,0.0033214,0.0033214,0.0018811,0,0,0.057571,0,0,0.048907,0,0,0,0.0084411,0.0026303,0.0033214,20.174,0.0047976,0.0054979,8.0825e-09,0,0.36,0
0.0011514,0.00097815,0.0077204,0.0029844,0.0032114,0.0018864,0,0,0.058617,-0.0029519,0,0.049046,0,0,0,0.0083799,0.0023248,0.0032114,19.271,0.0046387,0.0056641,8.567e-09,0.02,0.36,0
0.0023447,0.002003,0.0078349,0.0027223,0.0031672,0.0019309,0,0,0.060681,-0.0057836,0,0.050204,0,0,0,0.0084822,0.002075,0.0031672,18.533,0.0045748,0.005937,9.5334e-09,0.04,0.36,0
0.0035787,0.0030713,0.0079491,0.0024706,0.0031259,0.001966,0,0,0.062701,-0.0085187,0,0.051115,0,0,0,0.0085816,0.0018381,0.0031259,17.834,0.0045152,0.0062006,1.0486e-08,0.06,0.36,0
0.0048527,0.0041794,0.0080639,0.0022289,0.0030878,0.0019909,0,0,0.064689,-0.011166,0,0.051764,0,0,0,0.0086785,0.0016143,0.0030878,17.155,0.0044602,0.0064548,1.1423e-08,0.08,0.36,0
0.0061662,0.0053235,0.0081799,0.0019975,0.0030532,0.0020053,0,0,0.066647,-0.013725,0,0.052139,0,0,0,0.0087734,0.001404,0.0030532,16.486,0.0044102,0.0066989,1.2341e-08,0.1,0.36,0
0.0075186,0.0064998,0.0082976,0.0017776,0.0030226,0.0020091,0,0,0.068576,-0.016185,0,0.052237,0,0,0,0.008867,0.0012082,0.0030226,15.823,0.0043659,0.0069321,1.3239e-08,0.12,0.36,0
0.0089093,0.0077044,0.0084173,0.0015709,0.0029965,0.0020025,0,0,0.070471,-0.018532,0,0.052066,0,0,0,0.00896,0.0010282,0.0029965,15.164,0.0043282,0.0071537,1.4114e-08,0.14,0.36,0
0.010337,0.0089338,0.0085393,0.0013795,0.0029757,0.0019862,0,0,0.072328,-0.02075,0,0.05164,0,0,0,0.0090534,0.00086548,0.0029757,14.511,0.0042982,0.0073632,1.4968e-08,0.16,0.36,0
0.011802,0.010185,0.0086642,0.0012059,0.002961,0.0019611,0,0,0.074142,-0.022817,0,0.050988,0,0,0,0.0091484,0.00072166,0.002961,13.869,0.004277,0.0075601,1.5804e-08,0.18,0.36,0
0.013303,0.011455,0.0087926,0.0010526,0.0029536,0.0019287,0,0,0.075908,-0.024712,0,0.050145,0,0,0,0.0092466,0.00059865,0.0029536,13.245,0.0042663,0.0077439,1.6625e-08,0.2,0.36,0
0.014839,0.012743,0.0089251,0.00092312,0.0029545,0.0018909,0,0,0.077618,-0.026408,0,0.049162,0,0,0,0.0093494,0.00049881,0.0029545,12.648,0.0042676,0.0079139,1.7437e-08,0.22,0.36,0
0.016408,0.014047,0.0090619,0.0008216,0.0029651,0.0018502,0,0,0.079259,-0.027865,0,0.048105,0,0,0,0.0094583,0.00042524,0.0029651,12.091,0.0042829,0.0080687,1.8242e-08,0.24,0.36,0
0.018009,0.015368,0.0092025,0.00075374,0.0029869,0.0018102,0,0,0.080804,-0.029031,0,0.047066,0,0,0,0.0095741,0.00038222,0.0029869,11.598,0.0043144,0.0082056,1.9036e-08,0.26,0.36,0
0.01964,0.01671,0.0093445,0.00072763,0.0030216,0.0017759,0,0,0.082197,-0.029822,0,0.046174,0,0,0,0.0096961,0.00037596,0.0030216,11.201,0.0043646,0.0083191,1.9801e-08,0.28,0.36,0
0.021297,0.018076,0.0094817,0.00075512,0.003071,0.0017548,0,0,0.083338,-0.030107,0,0.045625,0,0,0,0.0098213,0.00041547,0.003071,10.954,0.004436,0.0083991,2.0491e-08,0.3,0.36,0
0.022974,0.019474,0.009602,0.0008539,0.0031368,0.0017577,0,0,0.084048,-0.029677,0,0.0457,0,0,0,0.009942,0.00051396,0.0031368,10.946,0.0045309,0.0084284,2.1011e-08,0.32,0.36,0
0.024659,0.020918,0.009684,0.0010498,0.0032202,0.0017988,0,0,0.08403,-0.028214,0,0.046768,0,0,0,0.010044,0.00069007,0.0032202,11.31,0.0046513,0.0083802,2.1197e-08,0.34,0.36,0
0.026335,0.022424,0.0097016,0.0013808,0.0033247,0.0018909,0,0,0.082899,-0.025271,0,0.049163,0,0,0,0.010111,0.00097128,0.0033247,12.221,0.0048024,0.0082198,2.0838e-08,0.36,0.36,0
0.027975,0.024007,0.0096387,0.001884,0.0034568,0.0020304,0,0,0.080365,-0.020447,0,0.052789,0,0,0,0.010138,0.0013845,0.0034568,13.819,0.0049932,0.0079234,1.9778e-08,0.38,0.36,0
0.029549,0.025675,0.0095035,0.0025455,0.0036147,0.0021848,0,0,0.076554,-0.0139,0,0.056806,0,0,0,0.010133,0.0019163,0.0036147,16.065,0.0052212,0.0075125,1.8081e-08,0.4,0.36,0
0.031037,0.02742,0.0092018,-0.00014414,0.0027173,0.0024023,0,0,0.041902,-0.0067634,0,0.032634,0,0,0,0.0098175,-0.00075984,0.0027173,14.531,0.003925,0.0094272,1.9125e-08,0.42,0.36,0
0.031225,0.028125,0.0091568,-0.0019452,0.0021635,0.0027106,0,0,0.0090913,-0.0053413,0,0.0070476,0,0,0,0.0097833,-0.0025717,0.0021635,13.013,0.003125,0.010797,2.5288e-08,0.44,0.36,0
0.031401,0.028844,0.0090782,-0.00084353,0.0024704,0.0028389,0,0,0.0085901,-0.0043081,0,0.0073811,0,0,0,0.009833,-0.0015984,0.0024704,14.89,0.0035683,0.010036,2.4641e-08,0.46,0.36,0
0.031569,0.029566,0.0090869,-0.00030171,0.0026356,0.0027953,0,0,0.0083868,-0.0038185,0,0.0072677,0,0,0,0.0098561,-0.0010709,0.0026356,15.386,0.0038069,0.0096248,2.3965e-08,0.48,0.36,0
0.031736,0.030285,0.009177,-7.8766e-05,0.0027295,0.0027373,0,0,0.0083818,-0.0036507,0,0.0071169,0,0,0,0.0099259,-0.00082767,0.0027295,15.302,0.0039426,0.009489,2.4007e-08,0.5,0.36,0
0.031904,0.031001,0.009287,6.1381e-05,0.0028045,0.0027046,0,0,0.0084272,-0.0035661,0,0.007032,0,0,0,0.010021,-0.00067306,0.0028045,15.192,0.004051,0.0094485,2.4375e-08,0.52,0.36,0
0.032073,0.031715,0.0093557,0.00019158,0.0028642,0.0026928,0,0,0.008439,-0.0034744,0,0.0070013,0,0,0,0.010088,-0.0005411,0.0028642,15.221,0.0041372,0.0094014,2.4574e-08,0.54,0.36,0
0.032242,0.032426,0.0093785,0.00031685,0.0029086,0.0026855,0,0,0.0084109,-0.0033693,0,0.0069823,0,0,0,0.010115,-0.00041923,0.0029086,15.328,0.0042013,0.0093264,2.449e-08,0.56,0.36,0
0.03241,0.033135,0.0093729,0.00041959,0.0029378,0.0026722,0,0,0.0083657,-0.0032736,0,0.0069476,0,0,0,0.01011,-0.00031728,0.0029378,15.417,0.0042434,0.0092401,2.4221e-08,0.58,0.36,0
0.032577,0.03384,0.0093564,0.00048192,0.0029515,0.0026498,0,0,0.0083264,-0.0032105,0,0.0068894,0,0,0,0.010087,-0.00024905,0.0029515,15.422,0.0042633,0.0091653,2.3903e-08,0.6,0.36,0
0.032743,0.034542,0.009338,0.0004983,0.0029509,0.0026231,0,0,0.0083032,-0.0031884,0,0.0068201,0,0,0,0.010058,-0.00022149,0.0029509,15.344,0.0042624,0.0091169,2.363e-08,0.62,0.36,0
0.032909,0.03524,0.0093168,0.00047839,0.0029385,0.0026006,0,0,0.0082917,-0.0031982,0,0.0067615,0,0,0,0.010025,-0.00023001,0.0029385,15.238,0.0042446,0.0090947,2.3422e-08,0.64,0.36,0
0.033074,0.035934,0.0092906,0.00044477,0.0029206,0.0025856,0,0,0.008281,-0.0032186,0,0.0067225,0,0,0,0.009991,-0.00025554,0.0029206,15.155,0.0042187,0.0090848,2.3244e-08,0.66,0.36,0
0.03324,0.036624,0.0092642,0.0004108,0.0029025,0.0025583,0,0,0.0082702,-0.0032392,0,0.0066515,0,0,0,0.0099503,-0.00027527,0.0029025,15.012,0.0041925,0.0090645,2.3009e-08,0.68,0.36,0
0.033405,0.037308,0.0092815,0.00036915,0.0028952,0.0024561,0,0,0.0083022,-0.0032839,0,0.006386,0,0,0,0.0099136,-0.00026292,0.0028952,14.431,0.004182,0.009022,2.273e-08,0.7,0.36,0
0.033572,0.037984,0.0092554,0.00016032,0.0028247,0.0021508,0,0,0.0083599,-0.0034637,0,0.0055922,0,0,0,0.0097384,-0.00032267,0.0028247,12.656,0.0040802,0.0089143,2.1685e-08,0.72,0.36,0
0.03374,0.038648,0.0087598,-0.00034012,0.0025259,0.0019564,0,0,0.008104,-0.0037258,0,0.0050866,0,0,0,0.0091626,-0.0007429,0.0025259,11.633,0.0036485,0.0087421,1.8848e-08,0.74,0.36,0
0.033896,0.039352,0.0057926,2.9757e-05,0.0017467,0.0017005,0,0,0.010765,-0.0044668,0,0.012487,0,0,0,0.0062776,-0.00045516,0.0017467,18.543,0.002523,0.0059463,1.5647e-08,0.76,0.36,0
0.034141,0.0403,0.010711,0.0011853,0.0035689,0.0026573,0,0,0.037797,-0.0021397,0,0.036725,0,0,0,0.011526,0.0003703,0.0035689,17.088,0.0051552,0.010008,3.689e-08,0.78,0.36,0
0.035919,0.041735,0.010598,0.0026611,0.0039777,0.0019364,0,0,0.086062,-0.017116,0,0.050347,0,0,0,0.011045,0.0022138,0.0039777,13.005,0.0057456,0.0080948,2.2942e-08,0.8,0.36,0
0.037583,0.042991,0.0097909,0.0021032,0.0035682,0.001592,0,0,0.080895,-0.019045,0,0.041392,0,0,0,0.010108,0.0017866,0.0035682,11.249,0.0051541,0.0075886,1.8342e-08,0.82,0.36,0
0.039155,0.044101,0.0092721,0.0017978,0.003321,0.0014152,0,0,0.077365,-0.019801,0,0.036794,0,0,0,0.009531,0.0015388,0.003321,10.37,0.004797,0.007267,1.5785e-08,0.84,0.36,0
0.040678,0.045106,0.0089754,0.0016981,0.003202,0.0013157,0,0,0.075053,-0.019551,0,0.034209,0,0,0,0.0092059,0.0014675,0.003202,9.9401,0.0046252,0.0070335,1.4273e-08,0.86,0.36,0
0.042157,0.046025,0.0087387,0.0017079,0.003134,0.0012454,0,0,0.072861,-0.018539,0,0.032381,0,0,0,0.0089528,0.0014938,0.003134,9.7541,0.0045268,0.0067891,1.2965e-08,0.88,0.36,0
0.043592,0.046866,0.0085283,0.0017981,0.0030979,0.0011859,0,0,0.070595,-0.016898,0,0.030833,0,0,0,0.0087312,0.0015952,0.0030979,9.7064,0.0044748,0.0065159,1.1701e-08,0.9,0.36,0
0.044981,0.047634,0.008333,0.0019551,0.0030864,0.0011292,0,0,0.068206,-0.014708,0,0.029358,0,0,0,0.008527,0.0017611,0.0030864,9.7492,0.0044582,0.0062103,1.0438e-08,0.92,0.36,0
0.046321,0.048333,0.008147,0.0021745,0.0030965,0.0010707,0,0,0.065657,-0.011985,0,0.027838,0,0,0,0.0083332,0.0019883,0.0030965,9.8625,0.0044726,0.0058697,9.1515e-09,0.94,0.36,0
0.047607,0.048961,0.0079646,0.0024577,0.0031267,0.0010071,0,0,0.062892,-0.0086964,0,0.026185,0,0,0,0.0081429,0.0022793,0.0031267,10.045,0.0045163,0.0054892,7.8168e-09,0.96,0.36,0
0.048836,0.049518,0.0077783,0.0028115,0.0031769,0.00093481,0,0,0.059818,-0.0047511,0,0.024305,0,0,0,0.0079484,0.0026413,0.0031769,10.314,0.0045889,0.0050606,6.4054e-09,0.98,0.36,0
0.05,0.05,0.0078331,0.0033571,0.0033571,0.00092684,0,0,0.058189,-5.3126e-17,0,0.024098,0,0,0,0.0080175,0.0031727,0.0033571,11.248,0.0048491,0.0047552,5.4946e-09,1,0.36,0
0,0,0.0076065,0.0032599,0.0032599,0.0017692,0,0,0.056505,4.3368e-19,0,0.046,0,0,0,0.0082356,0.0026308,0.0032599,19.574,0.0047088,0.0053182,7.3621e-09,0,0.38,0
0.0011301,0.00092001,0.0075777,0.0029344,0.0031536,0.0017742,0,0,0.057513,-0.0028501,0,0.046128,0,0,0,0.008178,0.0023341,0.0031536,18.693,0.0045552,0.0054803,7.8199e-09,0.02,0.38,0
0.0023005,0.0018892,0.0076879,0.002682,0.003111,0.0018196,0,0,0.0595,-0.0055763,0,0.047309,0,0,0,0.0082794,0.0020905,0.003111,18.008,0.0044936,0.005747,8.7217e-09,0.04,0.38,0
0.0035101,0.0029039,0.0077974,0.0024406,0.0030714,0.0018544,0,0,0.061438,-0.0082004,0,0.048214,0,0,0,0.0083767,0.0018613,0.0030714,17.349,0.0044365,0.0060025,9.6038e-09,0.06,0.38,0
0.004758,0.0039601,0.0079072,0.0022095,0.003035,0.0018785,0,0,0.063338,-0.010732,0,0.04884,0,0,0,0.0084707,0.0016459,0.003035,16.7,0.0043839,0.0062472,1.0465e-08,0.08,0.38,0
0.0060436,0.0050542,0.0080177,0.0019889,0.003002,0.0018916,0,0,0.065205,-0.01317,0,0.049183,0,0,0,0.0085621,0.0014445,0.003002,16.055,0.0043362,0.0064808,1.1305e-08,0.1,0.38,0
0.0073662,0.0061824,0.0081295,0.0017798,0.0029728,0.0018939,0,0,0.067037,-0.015509,0,0.049242,0,0,0,0.0086514,0.0012578,0.0029728,15.409,0.004294,0.0067028,1.212e-08,0.12,0.38,0
0.0087251,0.0073412,0.0082427,0.0015834,0.0029478,0.0018855,0,0,0.068833,-0.017737,0,0.049024,0,0,0,0.0087395,0.0010866,0.0029478,14.761,0.004258,0.0069128,1.2911e-08,0.14,0.38,0
0.01012,0.0085274,0.0083576,0.0014016,0.0029278,0.001867,0,0,0.070588,-0.01984,0,0.048543,0,0,0,0.008827,0.00093219,0.0029278,14.114,0.004229,0.0071103,1.3677e-08,0.16,0.38,0
0.011549,0.0097381,0.0084748,0.0012364,0.0029133,0.0018392,0,0,0.072299,-0.021801,0,0.047821,0,0,0,0.0089153,0.00079585,0.0029133,13.47,0.0042082,0.007295,1.442e-08,0.18,0.38,0
0.013012,0.010971,0.0085947,0.00109,0.0029054,0.0018035,0,0,0.073961,-0.0236,0,0.046891,0,0,0,0.0090056,0.00067911,0.0029054,12.835,0.0041967,0.0074666,1.5145e-08,0.2,0.38,0
0.014507,0.012226,0.008718,0.00096532,0.002905,0.0017617,0,0,0.075569,-0.025216,0,0.045803,0,0,0,0.0090996,0.00058379,0.002905,12.22,0.0041961,0.0076249,1.5857e-08,0.22,0.38,0
0.016034,0.013501,0.0088454,0.00086569,0.0029133,0.0017165,0,0,0.077117,-0.026619,0,0.04463,0,0,0,0.009199,0.00051212,0.0029133,11.639,0.0042081,0.0077697,1.6561e-08,0.24,0.38,0
0.017592,0.014799,0.0089772,0.00079558,0.0029318,0.0016722,0,0,0.07859,-0.027771,0,0.043478,0,0,0,0.0093058,0.000467,0.0029318,11.117,0.0042349,0.0079002,1.7262e-08,0.26,0.38,0
0.019178,0.016124,0.0091133,0.00076104,0.0029623,0.0016352,0,0,0.079963,-0.028616,0,0.042516,0,0,0,0.009422,0.0004523,0.0029623,10.692,0.0042789,0.0080151,1.7966e-08,0.28,0.38,0
0.02079,0.017483,0.009252,0.00077066,0.0030068,0.0016159,0,0,0.081188,-0.02907,0,0.042013,0,0,0,0.0095495,0.00047323,0.0030068,10.43,0.0043432,0.0081118,1.8669e-08,0.3,0.38,0
0.022425,0.018887,0.0093887,0.00083686,0.0030677,0.0016302,0,0,0.082174,-0.029001,0,0.042384,0,0,0,0.0096889,0.00053665,0.0030677,10.434,0.0044311,0.0081857,1.9357e-08,0.32,0.38,0
0.024077,0.020355,0.0095115,0.00097858,0.003147,0.0017019,0,0,0.082738,-0.02819,0,0.04425,0,0,0,0.0098384,0.00065164,0.003147,10.874,0.0045457,0.008228,1.9988e-08,0.34,0.38,0
0.025735,0.021913,0.0095844,0.0012219,0.0032419,0.0018577,0,0,0.082453,-0.02626,0,0.048301,0,0,0,0.0099785,0.00082783,0.0032419,11.978,0.0046828,0.0082142,2.0395e-08,0.36,0.38,0
0.027375,0.023586,0.0095663,0.001639,0.0033616,0.002103,0,0,0.080661,-0.022394,0,0.054678,0,0,0,0.01009,0.0011156,0.0033616,13.975,0.0048556,0.0080883,2.0278e-08,0.38,0.38,0
0.028961,0.025385,0.0094614,0.0023197,0.0035343,0.0023686,0,0,0.077052,-0.01579,0,0.061585,0,0,0,0.010176,0.0016056,0.0035343,16.779,0.0051052,0.0077869,1.9326e-08,0.4,0.38,0
0.030457,0.02728,0.0090378,-0.00066527,0.0025118,0.0026455,0,0,0.042145,-0.0075093,0,0.036167,0,0,0,0.0097577,-0.0013851,0.0025118,15.357,0.0036281,0.0098935,1.8169e-08,0.42,0.38,0
0.030647,0.028017,0.0091218,-0.0019858,0.0021408,0.0029113,0,0,0.0090753,-0.0053646,0,0.0075694,0,0,0,0.0098386,-0.0027026,0.0021408,13.832,0.0030923,0.010954,2.5791e-08,0.44,0.38,0
0.03082,0.028759,0.0090633,-0.00062861,0.0025304,0.0027751,0,0,0.0084928,-0.0041067,0,0.0072153,0,0,0,0.0098017,-0.001367,0.0025304,14.899,0.003655,0.0098183,2.4071e-08,0.46,0.38,0
0.030987,0.02949,0.009097,-0.00025724,0.0026519,0.0026126,0,0,0.0083786,-0.0037819,0,0.0067928,0,0,0,0.0097772,-0.00093748,0.0026519,14.594,0.0038306,0.0094461,2.3171e-08,0.48,0.38,0
0.031155,0.030212,0.0093003,-9.3082e-05,0.0027622,0.0025737,0,0,0.0084996,-0.0037118,0,0.0066917,0,0,0,0.0099593,-0.00075203,0.0027622,14.361,0.0039898,0.0094573,2.4094e-08,0.5,0.38,0
0.031327,0.03093,0.0094521,3.0164e-05,0.0028447,0.002616,0,0,0.0085896,-0.0036589,0,0.0068015,0,0,0,0.01013,-0.00064742,0.0028447,14.521,0.004109,0.009524,2.5104e-08,0.52,0.38,0
0.031499,0.031645,0.0095257,0.00016779,0.0029081,0.0026689,0,0,0.008603,-0.0035623,0,0.006939,0,0,0,0.010233,-0.00053984,0.0029081,14.85,0.0042005,0.0095292,2.5628e-08,0.54,0.38,0
0.031671,0.032359,0.009542,0.00031417,0.0029568,0.0026994,0,0,0.0085607,-0.0034355,0,0.0070184,0,0,0,0.010274,-0.00041746,0.0029568,15.165,0.004271,0.0094663,2.5643e-08,0.56,0.38,0
0.031842,0.033069,0.0095302,0.00044114,0.0029914,0.002697,0,0,0.0085005,-0.0033153,0,0.0070122,0,0,0,0.01027,-0.00029889,0.0029914,15.344,0.0043209,0.0093679,2.5336e-08,0.58,0.38,0
0.032011,0.033776,0.0095142,0.00052014,0.0030103,0.0026682,0,0,0.0084551,-0.0032372,0,0.0069373,0,0,0,0.010246,-0.00021184,0.0030103,15.341,0.0043482,0.0092766,2.4949e-08,0.6,0.38,0
0.03218,0.034478,0.0095055,0.0005359,0.0030124,0.0026304,0,0,0.008441,-0.0032195,0,0.0068391,0,0,0,0.01022,-0.0001786,0.0030124,15.196,0.0043513,0.0092266,2.4679e-08,0.62,0.38,0
0.032349,0.035175,0.0095018,0.0004963,0.0029994,0.0026062,0,0,0.0084531,-0.0032541,0,0.0067762,0,0,0,0.010202,-0.00020355,0.0029994,15.031,0.0043325,0.0092304,2.4608e-08,0.64,0.38,0
0.032518,0.035868,0.0094786,0.00042794,0.002972,0.0026076,0,0,0.0084586,-0.0033072,0,0.0067799,0,0,0,0.010176,-0.00026961,0.002972,14.976,0.0042928,0.0092607,2.4583e-08,0.66,0.38,0
0.032687,0.036558,0.0093978,0.00038106,0.0029337,0.0026233,0,0,0.0084034,-0.0033184,0,0.0068205,0,0,0,0.010105,-0.00032659,0.0029337,15.097,0.0042375,0.0092437,2.4212e-08,0.68,0.38,0
0.032854,0.037244,0.0091371,0.00035293,0.002847,0.0025818,0,0,0.0081771,-0.0032423,0,0.0067127,0,0,0,0.0098398,-0.0003497,0.002847,15.224,0.0041124,0.0090261,2.2421e-08,0.7,0.38,0
0.033014,0.037921,0.0086093,0.00038221,0.0026974,0.0024444,0,0,0.0076854,-0.0030098,0,0.0063555,0,0,0,0.0092807,-0.00028926,0.0026974,15.36,0.0038963,0.0084807,1.8734e-08,0.72,0.38,0
0.033161,0.038589,0.0081623,0.00030371,0.0025398,0.0022232,0,0,0.0073093,-0.0029069,0,0.0057802,0,0,0,0.0087477,-0.00028162,0.0025398,14.75,0.0036686,0.0080008,1.5703e-08,0.74,0.38,0
0.033306,0.039252,0.0076711,0.00017724,0.0023545,0.0017736,0,0,0.036497,-0.0051463,0,0.018861,0,0,0,0.0080703,-0.0002219,0.0023545,12.527,0.003401,0.0074494,9.7266e-09,0.76,0.38,0
0.034621,0.040428,0.0085534,0.0036896,0.0036729,0.0022007,0,0,0.063447,0.00021708,0,0.057217,0,0,0,0.0094013,0.0028417,0.0036729,21.071,0.0053053,0.006186,1.1421e-08,0.78,0.38,0
0.035844,0.041446,0.0085335,0.0024464,0.003294,0.0019195,0,0,0.068114,-0.011018,0,0.049908,0,0,0,0.0090883,0.0018916,0.003294,16.12,0.004758,0.006608,1.2599e-08,0.8,0.38,0
0.037346,0.042622,0.0093065,0.0020747,0.0034144,0.0018323,0,0,0.076598,-0.017416,0,0.047641,0,0,0,0.0097443,0.0016369,0.0034144,13.437,0.0049318,0.0073809,1.6684e-08,0.82,0.38,0
0.038908,0.043705,0.0093426,0.0018673,0.0033629,0.0016553,0,0,0.077735,-0.019444,0,0.043037,0,0,0,0.0096927,0.0015171,0.0033629,11.943,0.0048576,0.0074267,1.6738e-08,0.84,0.38,0
0.040455,0.044711,0.0091617,0.0017678,0.0032789,0.0015448,0,0,0.076477,-0.019643,0,0.040165,0,0,0,0.0094715,0.0014581,0.0032789,11.339,0.0047361,0.007276,1.5685e-08,0.86,0.38,0
0.041967,0.045649,0.0089499,0.0017733,0.0032169,0.0014602,0,0,0.074528,-0.018768,0,0.037965,0,0,0,0.0092356,0.0014875,0.0032169,11.072,0.0046467,0.0070444,1.4372e-08,0.88,0.38,0
0.043436,0.046523,0.0087402,0.0018603,0.0031802,0.0013871,0,0,0.072281,-0.017158,0,0.036063,0,0,0,0.0090093,0.0015912,0.0031802,10.98,0.0045936,0.0067651,1.2993e-08,0.9,0.38,0
0.044859,0.047336,0.0085402,0.0020166,0.003167,0.001319,0,0,0.069851,-0.014956,0,0.034293,0,0,0,0.0087968,0.00176,0.003167,11.008,0.0045746,0.0064494,1.1598e-08,0.92,0.38,0
0.04623,0.048089,0.0083488,0.0022372,0.0031758,0.0012533,0,0,0.067249,-0.012202,0,0.032585,0,0,0,0.0085959,0.0019902,0.0031758,11.15,0.0045873,0.0060999,1.0189e-08,0.94,0.38,0
0.047549,0.048784,0.0081614,0.0025236,0.0032055,0.0011884,0,0,0.064427,-0.0088652,0,0.030898,0,0,0,0.0084017,0.0022833,0.0032055,11.429,0.0046302,0.0057134,8.7433e-09,0.96,0.38,0
0.048807,0.049421,0.0079705,0.0028828,0.003256,0.0011231,0,0,0.061289,-0.0048515,0,0.029199,0,0,0,0.0082074,0.0026459,0.003256,11.91,0.0047031,0.0052829,7.2332e-09,0.98,0.38,0
0.05,0.05,0.0080265,0.0034399,0.0034399,0.0011129,0,0,0.059626,1.3748e-16,0,0.028935,0,0,0,0.0082823,0.0031842,0.0034399,12.943,0.0049688,0.0049752,6.2684e-09,1,0.38,0
0,0,0.0074532,0.0031942,0.0031942,0.0016618,0,0,0.055366,2.1684e-19,0,0.043207,0,0,0,0.0080249,0.0026225,0.0031942,18.984,0.0046139,0.0051404,6.6861e-09,0,0.4,0
0.0011073,0.00086415,0.0074255,0.0028828,0.0030925,0.0016665,0,0,0.056329,-0.0027261,0,0.043328,0,0,0,0.0079713,0.002337,0.0030925,18.133,0.0044669,0.0052971,7.113e-09,0.02,0.4,0
0.0022532,0.00178,0.0075305,0.0026414,0.0030516,0.0017131,0,0,0.058226,-0.0053318,0,0.04454,0,0,0,0.008071,0.0021009,0.0030516,17.511,0.0044078,0.005556,7.9466e-09,0.04,0.4,0
0.0034364,0.0027433,0.0076344,0.002411,0.0030136,0.0017481,0,0,0.06007,-0.0078344,0,0.045451,0,0,0,0.0081655,0.0018799,0.0030136,16.898,0.004353,0.0058024,8.7561e-09,0.06,0.4,0
0.004656,0.0037501,0.007738,0.0021908,0.0029786,0.0017719,0,0,0.061871,-0.010241,0,0.046068,0,0,0,0.0082556,0.0016732,0.0029786,16.286,0.0043025,0.0060365,9.5407e-09,0.08,0.4,0
0.0059112,0.0047967,0.0078416,0.0019813,0.0029469,0.0017844,0,0,0.063632,-0.012552,0,0.046395,0,0,0,0.0083422,0.0014807,0.0029469,15.67,0.0042566,0.0062585,1.0299e-08,0.1,0.4,0
0.0072013,0.0058794,0.0079456,0.0017831,0.0029186,0.0017859,0,0,0.065351,-0.014762,0,0.046433,0,0,0,0.0084257,0.0013029,0.0029186,15.048,0.0042157,0.0064681,1.1029e-08,0.12,0.4,0
0.0085252,0.0069949,0.00805,0.0015973,0.0028942,0.0017765,0,0,0.067026,-0.01686,0,0.046189,0,0,0,0.0085068,0.0011405,0.0028942,14.419,0.0041805,0.0066647,1.173e-08,0.14,0.4,0
0.0098823,0.0081402,0.0081551,0.0014254,0.0028741,0.0017567,0,0,0.068652,-0.018834,0,0.045675,0,0,0,0.008586,0.00099441,0.0028741,13.784,0.0041515,0.0068481,1.24e-08,0.16,0.4,0
0.011271,0.0093129,0.008261,0.0012691,0.002859,0.0017273,0,0,0.070226,-0.020669,0,0.04491,0,0,0,0.0086645,0.00086564,0.002859,13.147,0.0041297,0.0070177,1.3041e-08,0.18,0.4,0
0.012691,0.010511,0.0083683,0.0011303,0.0028496,0.0016894,0,0,0.071743,-0.022351,0,0.043924,0,0,0,0.0087432,0.00075538,0.0028496,12.512,0.004116,0.0071737,1.3655e-08,0.2,0.4,0
0.014141,0.011734,0.0084775,0.0010111,0.0028466,0.0016447,0,0,0.073202,-0.023861,0,0.042761,0,0,0,0.0088237,0.00066486,0.0028466,11.888,0.0041117,0.0073162,1.4247e-08,0.22,0.4,0
0.015619,0.012982,0.0085896,0.00091397,0.0028511,0.0015957,0,0,0.074601,-0.025182,0,0.041489,0,0,0,0.0089081,0.00059544,0.0028511,11.289,0.0041182,0.0074457,1.4825e-08,0.24,0.4,0
0.017125,0.014257,0.0087061,0.00084186,0.0028644,0.0015467,0,0,0.075942,-0.026293,0,0.040215,0,0,0,0.0089993,0.00054859,0.0028644,10.736,0.0041374,0.0075636,1.5402e-08,0.26,0.4,0
0.018657,0.015565,0.0088292,0.00079832,0.0028883,0.001504,0,0,0.077232,-0.027169,0,0.039104,0,0,0,0.0091016,0.0005259,0.0028883,10.267,0.0041719,0.0076723,1.5997e-08,0.28,0.4,0
0.020214,0.016913,0.0089625,0.00078793,0.0029251,0.0014779,0,0,0.078486,-0.027783,0,0.038425,0,0,0,0.0092215,0.00052894,0.0029251,9.9396,0.0042252,0.0077764,1.6647e-08,0.3,0.4,0
0.021796,0.018314,0.0091116,0.00081692,0.0029786,0.0014853,0,0,0.07973,-0.028101,0,0.038617,0,0,0,0.0093696,0.00055899,0.0029786,9.8517,0.0043024,0.0078843,1.7411e-08,0.32,0.4,0
0.023404,0.019791,0.009282,0.00089423,0.0030529,0.0015528,0,0,0.080979,-0.028062,0,0.040373,0,0,0,0.0095603,0.00061598,0.0030529,10.159,0.0044097,0.0080089,1.8383e-08,0.34,0.4,0
0.025036,0.021373,0.0094711,0.001039,0.003153,0.0017265,0,0,0.082135,-0.027482,0,0.04489,0,0,0,0.0098109,0.00069919,0.003153,11.135,0.0045544,0.0081661,1.969e-08,0.36,0.4,0
0.026689,0.023111,0.0095636,0.001264,0.0032483,0.0020537,0,0,0.082099,-0.025795,0,0.053396,0,0,0,0.010044,0.00078363,0.0032483,13.165,0.004692,0.0083069,2.0938e-08,0.38,0.4,0
0.02832,0.025044,0.0094862,0.0018553,0.0034024,0.0025038,0,0,0.079089,-0.020113,0,0.065098,0,0,0,0.010234,0.0011071,0.0034024,16.637,0.0049146,0.0082235,2.1237e-08,0.4,0.4,0
0.029853,0.02712,0.0089832,-0.0014501,0.0022599,0.0030388,0,0,0.04323,-0.0087691,0,0.040663,0,0,0,0.0098567,-0.0023236,0.0022599,16.269,0.0032643,0.010773,1.6538e-08,0.42,0.4,0
0.030049,0.027911,0.0094777,-0.0011562,0.0024964,0.0029547,0,0,0.0090757,-0.0047485,0,0.0076821,0,0,0,0.010243,-0.001922,0.0024964,14.53,0.003606,0.010666,2.8228e-08,0.44,0.4,0
0.030215,0.02868,0.0090914,-0.00048231,0.0025827,0.0025584,0,0,0.0084613,-0.0039845,0,0.0066519,0,0,0,0.0097322,-0.0011231,0.0025827,14.062,0.0037306,0.0095573,2.3184e-08,0.46,0.4,0
0.030387,0.029414,0.0094582,-0.00028666,0.0027515,0.0023532,0,0,0.0087188,-0.0039496,0,0.0061184,0,0,0,0.0099968,-0.00082517,0.0027515,12.889,0.0039743,0.0095499,2.4508e-08,0.48,0.4,0
0.030564,0.030137,0.0097015,-0.00019036,0.0028533,0.0024249,0,0,0.0089026,-0.0039568,0,0.0063047,0,0,0,0.010264,-0.00075281,0.0028533,13.059,0.0041215,0.0097285,2.6326e-08,0.5,0.4,0
0.030743,0.030855,0.0097978,-6.9026e-05,0.0029186,0.0025603,0,0,0.0089429,-0.003884,0,0.0066568,0,0,0,0.010423,-0.00069382,0.0029186,13.714,0.0042158,0.0098218,2.7408e-08,0.52,0.4,0
0.030922,0.031573,0.0098058,0.00010227,0.0029724,0.0026772,0,0,0.0088833,-0.0037312,0,0.0069608,0,0,0,0.010495,-0.00058738,0.0029724,14.445,0.0042935,0.0098004,2.7727e-08,0.54,0.4,0
0.031099,0.032289,0.0097717,0.0002993,0.0030213,0.0027377,0,0,0.0087755,-0.0035386,0,0.0071179,0,0,0,0.010506,-0.00043499,0.0030213,15.015,0.0043641,0.0096869,2.7443e-08,0.56,0.4,0
0.031273,0.033002,0.0097266,0.00047313,0.0030599,0.0027365,0,0,0.0086667,-0.0033628,0,0.0071149,0,0,0,0.010475,-0.00027555,0.0030599,15.301,0.0044199,0.0095314,2.6811e-08,0.58,0.4,0
0.031445,0.033711,0.009696,0.0005817,0.0030833,0.0026883,0,0,0.0085965,-0.0032521,0,0.0069896,0,0,0,0.01043,-0.00015214,0.0030833,15.268,0.0044537,0.009392,2.6153e-08,0.6,0.4,0
0.031617,0.034413,0.009695,0.00059904,0.0030882,0.0026232,0,0,0.0085888,-0.0032359,0,0.0068203,0,0,0,0.010397,-0.00010325,0.0030882,14.988,0.0044607,0.0093239,2.5785e-08,0.62,0.4,0
0.031789,0.03511,0.0097173,0.00052182,0.0030717,0.0025794,0,0,0.0086392,-0.0033149,0,0.0067065,0,0,0,0.010391,-0.00015232,0.0030717,14.647,0.0044369,0.0093579,2.5867e-08,0.64,0.4,0
0.031962,0.035801,0.0097471,0.00040172,0.0030447,0.0025965,0,0,0.0087132,-0.0034358,0,0.006751,0,0,0,0.01042,-0.00027124,0.0030447,14.53,0.0043978,0.0094788,2.6382e-08,0.66,0.4,0
0.032137,0.036491,0.0097094,0.00029853,0.0030024,0.0026757,0,0,0.0087192,-0.003515,0,0.0069569,0,0,0,0.010417,-0.00040904,0.0030024,14.812,0.0043368,0.0095869,2.6698e-08,0.68,0.4,0
0.032311,0.037179,0.0095907,0.0003672,0.0029874,0.0028147,0,0,0.0085843,-0.0034062,0,0.0073182,0,0,0,0.010382,-0.00042389,0.0029874,15.698,0.0043151,0.0095675,2.6467e-08,0.7,0.4,0
0.032481,0.037864,0.0092179,0.00049091,0.0029127,0.0028566,0,0,0.0081969,-0.0031483,0,0.007427,0,0,0,0.01007,-0.00036095,0.0029127,16.605,0.0042072,0.0092396,2.4038e-08,0.72,0.4,0
0.032639,0.038531,0.0094795,0.00091234,0.0031176,0.0026376,0,0,0.0082705,-0.0028668,0,0.0068579,0,0,0,0.010226,0.0001654,0.0031176,15.811,0.0045031,0.0089576,2.3851e-08,0.74,0.4,0
0.032812,0.039146,0.0091302,0.0011111,0.0030724,0.0017776,0,0,0.039925,-0.0046357,0,0.019615,0,0,0,0.0095066,0.00073474,0.0030724,11.934,0.0044379,0.0079399,1.6557e-08,0.76,0.4,0
0.034236,0.040309,0.0093102,0.0030689,0.0037137,0.0013936,0,0,0.072754,-0.0083828,0,0.036235,0,0,0,0.0096072,0.0027719,0.0037137,12.033,0.0053643,0.0064165,1.2588e-08,0.78,0.4,0
0.035722,0.041294,0.0094376,0.0028288,0.0036799,0.0016538,0,0,0.07485,-0.011065,0,0.042998,0,0,0,0.0098283,0.0024381,0.0036799,13.293,0.0053154,0.0068543,1.4725e-08,0.8,0.4,0
0.03723,0.042294,0.0093635,0.0021988,0.0034687,0.0018059,0,0,0.076633,-0.016509,0,0.046954,0,0,0,0.009793,0.0017693,0.0034687,13.377,0.0050103,0.0073234,1.6569e-08,0.82,0.4,0
0.038787,0.043324,0.0093791,0.0019468,0.0033978,0.0018183,0,0,0.077757,-0.018862,0,0.047275,0,0,0,0.0098001,0.0015259,0.0033978,13.036,0.0049079,0.0075152,1.7325e-08,0.84,0.4,0
0.04034,0.044321,0.0092452,0.0018468,0.0033276,0.0017505,0,0,0.076929,-0.019251,0,0.045514,0,0,0,0.0096385,0.0014535,0.0033276,12.662,0.0048066,0.0074275,1.6614e-08,0.86,0.4,0
0.041864,0.045274,0.0090557,0.00185,0.0032717,0.0016699,0,0,0.075192,-0.018482,0,0.043416,0,0,0,0.0094239,0.0014819,0.0032717,12.433,0.0047258,0.0072156,1.5366e-08,0.88,0.4,0
0.043348,0.046179,0.0088564,0.0019342,0.0032372,0.0015882,0,0,0.073049,-0.016938,0,0.041294,0,0,0,0.0092034,0.0015872,0.0032372,12.325,0.0046759,0.0069399,1.395e-08,0.9,0.4,0
0.044786,0.047036,0.0086615,0.0020873,0.0032246,0.0015101,0,0,0.070679,-0.014786,0,0.039263,0,0,0,0.0089918,0.001757,0.0032246,12.337,0.0046578,0.0066241,1.2493e-08,0.92,0.4,0
0.046175,0.047845,0.0084732,0.0023044,0.0032333,0.0014372,0,0,0.068119,-0.012075,0,0.037368,0,0,0,0.0087916,0.001986,0.0032333,12.492,0.0046703,0.0062756,1.1023e-08,0.94,0.4,0
0.047511,0.048606,0.008288,0.0025873,0.0032626,0.0013709,0,0,0.065331,-0.0087793,0,0.035644,0,0,0,0.0086006,0.0022747,0.0032626,12.843,0.0047126,0.0058943,9.5297e-09,0.96,0.4,0
0.048788,0.049324,0.008099,0.0029428,0.0033125,0.0013125,0,0,0.062225,-0.0048072,0,0.034126,0,0,0,0.0084139,0.0026279,0.0033125,13.49,0.0047848,0.0054759,7.9905e-09,0.98,0.4,0
0.05,0.05,0.0081547,0.0034948,0.0034948,0.0013,0,0,0.060577,2.0752e-16,0,0.033801,0,0,0,0.0084928,0.0031567,0.0034948,14.58,0.0050481,0.0051753,7.0169e-09,1,0.4,0
0,0,0.007291,0.0031247,0.0031247,0.0015596,0,0,0.054162,8.6736e-19,0,0.040548,0,0,0,0.0078101,0.0026056,0.0031247,18.41,0.0045135,0.0049653,6.0562e-09,0,0.42,0
0.0010832,0.00081096,0.0072647,0.0028294,0.0030282,0.0015641,0,0,0.055074,-0.0025846,0,0.040666,0,0,0,0.0077607,0.0023333,0.0030282,17.598,0.0043741,0.0051155,6.4495e-09,0.02,0.42,0
0.0022029,0.001676,0.0073637,0.0026001,0.0029891,0.0016122,0,0,0.056869,-0.0050577,0,0.041916,0,0,0,0.007858,0.0021057,0.0029891,17.046,0.0043176,0.0053654,7.2133e-09,0.04,0.42,0
0.003358,0.0025905,0.0074612,0.0023811,0.0029527,0.001648,0,0,0.058611,-0.0074308,0,0.042848,0,0,0,0.007949,0.0018933,0.0029527,16.488,0.004265,0.0056016,7.9502e-09,0.06,0.42,0
0.0045474,0.0035505,0.0075578,0.0021723,0.002919,0.0016722,0,0,0.060304,-0.0097076,0,0.043477,0,0,0,0.0080347,0.0016953,0.002919,15.92,0.0042163,0.0058248,8.6591e-09,0.08,0.42,0
0.0057702,0.0045521,0.0076534,0.0019739,0.0028882,0.001685,0,0,0.061948,-0.011886,0,0.04381,0,0,0,0.0081157,0.0015116,0.0028882,15.341,0.0041718,0.0060348,9.3378e-09,0.1,0.42,0
0.0070253,0.005592,0.0077483,0.0017866,0.0028605,0.0016867,0,0,0.063542,-0.013961,0,0.043854,0,0,0,0.0081924,0.0013424,0.0028605,14.751,0.0041318,0.0062312,9.984e-09,0.12,0.42,0
0.0083118,0.0066668,0.0078422,0.0016114,0.0028361,0.0016776,0,0,0.06508,-0.015921,0,0.043617,0,0,0,0.0082652,0.0011884,0.0028361,14.15,0.0040966,0.0064137,1.0595e-08,0.14,0.42,0
0.0096285,0.0077741,0.0079353,0.0014496,0.0028155,0.001658,0,0,0.066558,-0.017756,0,0.043108,0,0,0,0.0083345,0.0010503,0.0028155,13.54,0.0040668,0.0065816,1.1169e-08,0.16,0.42,0
0.010974,0.0089114,0.0080273,0.0013025,0.002799,0.0016286,0,0,0.067969,-0.019453,0,0.042344,0,0,0,0.008401,0.00092888,0.002799,12.922,0.0040429,0.0067347,1.1706e-08,0.18,0.42,0
0.012347,0.010077,0.0081186,0.0011717,0.0027871,0.0015904,0,0,0.069309,-0.021,0,0.04135,0,0,0,0.0084654,0.00082496,0.0027871,12.301,0.0040258,0.0068727,1.2205e-08,0.2,0.42,0
0.013747,0.011271,0.0082095,0.0010587,0.0027805,0.0015447,0,0,0.070577,-0.022383,0,0.040163,0,0,0,0.0085289,0.00073929,0.0027805,11.683,0.0040162,0.006996,1.2671e-08,0.22,0.42,0
0.01517,0.012494,0.0083009,0.00096502,0.0027798,0.0014939,0,0,0.071774,-0.023592,0,0.038841,0,0,0,0.0085934,0.00067247,0.0027798,11.08,0.0040152,0.0071057,1.3109e-08,0.24,0.42,0
0.016618,0.013747,0.0083945,0.00089211,0.002786,0.0014412,0,0,0.072911,-0.02462,0,0.037471,0,0,0,0.0086618,0.00062478,0.002786,10.508,0.0040242,0.0072038,1.3535e-08,0.26,0.42,0
0.018087,0.015037,0.0084937,0.00084127,0.0028005,0.0013918,0,0,0.074011,-0.02547,0,0.036186,0,0,0,0.0087389,0.000596,0.0028005,9.9945,0.0040451,0.0072949,1.3972e-08,0.28,0.42,0
0.019578,0.016372,0.0086047,0.00081345,0.0028255,0.0013536,0,0,0.075131,-0.026156,0,0.035194,0,0,0,0.0088332,0.00058498,0.0028255,9.5804,0.0040812,0.0073874,1.4466e-08,0.3,0.42,0
0.021092,0.017763,0.0087397,0.00080922,0.0028647,0.0013392,0,0,0.076375,-0.026721,0,0.03482,0,0,0,0.0089598,0.00058917,0.0028647,9.3311,0.0041379,0.0074965,1.5106e-08,0.32,0.42,0
0.022633,0.019233,0.0089216,0.00083003,0.0029255,0.0013704,0,0,0.07795,-0.027241,0,0.035631,0,0,0,0.0091474,0.00060423,0.0029255,9.3562,0.0042257,0.0076514,1.6069e-08,0.34,0.42,0
0.02421,0.020813,0.0091901,0.00088091,0.0030213,0.0014832,0,0,0.080195,-0.027825,0,0.038563,0,0,0,0.0094469,0.0006241,0.0030213,9.8233,0.0043641,0.0079018,1.7699e-08,0.36,0.42,0
0.025841,0.022555,0.0096219,0.00099972,0.0031865,0.0017872,0,0,0.08366,-0.028428,0,0.046467,0,0,0,0.0099777,0.00064395,0.0031865,11.258,0.0046027,0.0083577,2.0894e-08,0.38,0.42,0
0.027556,0.024581,0.0097298,0.0010589,0.0032366,0.0023594,0,0,0.084411,-0.02831,0,0.061345,0,0,0,0.01033,0.00045851,0.0032366,14.278,0.0046751,0.0088172,2.3783e-08,0.4,0.42,0
0.029217,0.026929,0.0076499,-0.004166,0.0010451,0.0024235,0,0,0.045953,-0.012317,0,0.04111,0,0,0,0.0082835,-0.0047997,0.0010451,12.997,0.0015097,0.011581,-7.8666e-09,0.42,0.42,0
0.029395,0.027827,0.009914,-0.00028592,0.0028884,0.0033149,0,0,0.0091332,-0.0041266,0,0.0086189,0,0,0,0.010897,-0.0012686,0.0028884,16.512,0.0041722,0.01071,3.2566e-08,0.44,0.42,0
0.029583,0.028599,0.01032,-0.0002925,0.0030083,0.0023251,0,0,0.0095056,-0.0042911,0,0.0060452,0,0,0,0.010807,-0.00077954,0.0030083,11.831,0.0043454,0.010233,3.0701e-08,0.46,0.42,0
0.029775,0.029332,0.010431,-0.000311,0.0030361,0.0022684,0,0,0.0096139,-0.0043513,0,0.0058979,0,0,0,0.010891,-0.00077036,0.0030361,11.448,0.0043855,0.0103,3.1381e-08,0.48,0.42,0
0.029967,0.030054,0.010363,-0.00031853,0.0030135,0.0024135,0,0,0.009555,-0.0043316,0,0.0062751,0,0,0,0.010884,-0.00083852,0.0030135,12.159,0.0043528,0.010348,3.1483e-08,0.5,0.42,0
0.030157,0.030774,0.01025,-0.00021672,0.00301,0.002606,0,0,0.0094119,-0.0041947,0,0.0067755,0,0,0,0.010863,-0.00082965,0.00301,13.236,0.0043477,0.010323,3.1287e-08,0.52,0.42,0
0.030343,0.031496,0.010143,1.427e-05,0.0030472,0.0027521,0,0,0.0092247,-0.0039428,0,0.0071555,0,0,0,0.010843,-0.0006852,0.0030472,14.26,0.0044015,0.010188,3.0766e-08,0.54,0.42,0
0.030526,0.032217,0.010035,0.00028357,0.0030957,0.0028185,0,0,0.0090215,-0.0036557,0,0.007328,0,0,0,0.010791,-0.00047242,0.0030957,15.015,0.0044715,0.0099706,2.9806e-08,0.56,0.42,0
0.030704,0.032935,0.0099451,0.00052204,0.0031401,0.0028018,0,0,0.0088464,-0.0034035,0,0.0072847,0,0,0,0.010715,-0.0002481,0.0031401,15.369,0.0045358,0.0097226,2.8606e-08,0.58,0.42,0
0.03088,0.033646,0.009891,0.00067695,0.0031704,0.0027208,0,0,0.0087368,-0.0032414,0,0.007074,0,0,0,0.010634,-6.6466e-05,0.0031704,15.282,0.0045794,0.0095052,2.7483e-08,0.6,0.42,0
0.031054,0.034348,0.009886,0.00070381,0.0031769,0.0026073,0,0,0.0087218,-0.0032151,0,0.006779,0,0,0,0.010575,1.5118e-05,0.0031769,14.796,0.0045889,0.0093869,2.6803e-08,0.62,0.42,0
0.031229,0.035043,0.0099424,0.00058917,0.0031595,0.0025181,0,0,0.0088178,-0.0033414,0,0.0065471,0,0,0,0.010577,-4.5686e-05,0.0031595,14.15,0.0045637,0.0094378,2.6987e-08,0.64,0.42,0
0.031407,0.035731,0.010022,0.00035406,0.0031128,0.0025083,0,0,0.0089819,-0.0035864,0,0.0065215,0,0,0,0.010634,-0.00025794,0.0031128,13.712,0.0044963,0.0096582,2.7991e-08,0.66,0.42,0
0.031588,0.036418,0.010178,0.00021563,0.0031182,0.0026374,0,0,0.0091782,-0.0037733,0,0.0068572,0,0,0,0.010833,-0.00043948,0.0031182,13.95,0.0045041,0.0099815,3.0066e-08,0.68,0.42,0
0.031774,0.037108,0.010249,0.00017673,0.0031277,0.0027936,0,0,0.0092576,-0.0038363,0,0.0072635,0,0,0,0.010972,-0.00054622,0.0031277,14.509,0.0045178,0.010191,3.1501e-08,0.7,0.42,0
0.031958,0.037795,0.010769,0.00077812,0.0034642,0.0030136,0,0,0.0094964,-0.0034918,0,0.0078353,0,0,0,0.011608,-6.0472e-05,0.0034642,15.55,0.0050038,0.010365,3.5702e-08,0.72,0.42,0
0.032154,0.038474,0.010061,0.0006969,0.0032275,0.0022964,0,0,0.0088842,-0.0032898,0,0.0059708,0,0,0,0.010594,0.00016407,0.0032275,13.063,0.004662,0.0092856,2.6539e-08,0.74,0.42,0
0.032314,0.039067,0.0094292,0.0014305,0.0032579,0.002257,0,0,0.044212,-0.0043194,0,0.019528,0,0,0,0.010062,0.0007979,0.0032579,13.733,0.0047059,0.0084106,1.8415e-08,0.76,0.42,0
0.033922,0.040093,0.010149,0.002753,0.0038705,0.0015447,0,0,0.081616,-0.014527,0,0.040162,0,0,0,0.010458,0.0024434,0.0038705,11.336,0.0055908,0.0074053,1.8273e-08,0.78,0.42,0
0.035578,0.041003,0.010061,0.002496,0.0037671,0.0017358,0,0,0.081819,-0.016524,0,0.045131,0,0,0,0.01044,0.0021167,0.0037671,12.326,0.0054413,0.0076332,1.9292e-08,0.8,0.42,0
0.037195,0.041961,0.0097414,0.0022507,0.0035976,0.0019346,0,0,0.079869,-0.01751,0,0.0503,0,0,0,0.010212,0.0017806,0.0035976,13.659,0.0051966,0.0076853,1.8992e-08,0.82,0.42,0
0.038773,0.04295,0.0094667,0.0020203,0.0034461,0.0019847,0,0,0.078267,-0.018535,0,0.051603,0,0,0,0.0099626,0.0015244,0.0034461,14.031,0.0049777,0.0076604,1.8281e-08,0.84,0.42,0
0.040326,0.043941,0.0092676,0.0019312,0.0033596,0.0019467,0,0,0.076803,-0.018569,0,0.050615,0,0,0,0.0097521,0.0014467,0.0033596,13.978,0.0048528,0.0075334,1.7277e-08,0.86,0.42,0
0.041845,0.044909,0.0090734,0.0019372,0.0033032,0.0018689,0,0,0.075013,-0.017757,0,0.048592,0,0,0,0.0095332,0.0014774,0.0033032,13.822,0.0047713,0.0073158,1.5966e-08,0.88,0.42,0
0.043326,0.045845,0.0088834,0.0020192,0.0032708,0.0017808,0,0,0.072964,-0.01627,0,0.046301,0,0,0,0.0093179,0.0015847,0.0032708,13.712,0.0047244,0.0070432,1.4536e-08,0.9,0.42,0
0.044764,0.046744,0.0086996,0.0021667,0.0032599,0.0016943,0,0,0.070716,-0.014211,0,0.044052,0,0,0,0.0091128,0.0017534,0.0032599,13.708,0.0047087,0.0067338,1.3075e-08,0.92,0.42,0
0.046155,0.047606,0.0085213,0.002376,0.0032692,0.0016155,0,0,0.068278,-0.011611,0,0.042003,0,0,0,0.0089202,0.0019772,0.0032692,13.867,0.0047222,0.0063956,1.1609e-08,0.94,0.42,0
0.047495,0.048433,0.008345,0.0026487,0.0032981,0.0015485,0,0,0.06561,-0.0084422,0,0.040261,0,0,0,0.0087388,0.002255,0.0032981,14.266,0.004764,0.0060303,1.0136e-08,0.96,0.42,0
0.048779,0.049229,0.0081643,0.0029913,0.0033467,0.0014973,0,0,0.062629,-0.0046201,0,0.038929,0,0,0,0.0085664,0.0025892,0.0033467,15.033,0.0048341,0.0056368,8.6412e-09,0.98,0.42,0
0.05,0.05,0.0082179,0.003522,0.003522,0.0014827,0,0,0.061047,-9.3024e-17,0,0.038549,0,0,0,0.0086469,0.003093,0.003522,16.136,0.0050873,0.0053523,7.7045e-09,1,0.42,0
0,0,0.0071211,0.0030519,0.0030519,0.001463,0,0,0.0529,0,0,0.038038,0,0,0,0.0075925,0.0025805,0.0030519,17.859,0.0044083,0.0047937,5.4737e-09,0,0.44,0
0.001058,0.00076076,0.0070963,0.0027741,0.0029611,0.0014676,0,0,0.053757,-0.0024311,0,0.038158,0,0,0,0.0075476,0.0023229,0.0029611,17.09,0.0042772,0.0049366,5.832e-09,0.02,0.44,0
0.0021503,0.0015777,0.0071889,0.0025575,0.0029239,0.0015174,0,0,0.055445,-0.0047638,0,0.039453,0,0,0,0.0076418,0.0021046,0.0029239,16.618,0.0042234,0.0051764,6.5262e-09,0.04,0.44,0
0.0032758,0.0024461,0.0072796,0.0023503,0.002889,0.0015547,0,0,0.057078,-0.0070025,0,0.040421,0,0,0,0.007729,0.001901,0.002889,16.122,0.004173,0.0054022,7.1928e-09,0.06,0.44,0
0.0044334,0.0033618,0.0073686,0.0021529,0.0028564,0.0015801,0,0,0.058658,-0.0091463,0,0.041083,0,0,0,0.0078099,0.0017115,0.0028564,15.606,0.004126,0.0056142,7.8295e-09,0.08,0.44,0
0.0056221,0.0043212,0.0074556,0.0019655,0.0028264,0.0015943,0,0,0.060181,-0.011191,0,0.041451,0,0,0,0.007885,0.0015361,0.0028264,15.074,0.0040825,0.0058122,8.4333e-09,0.1,0.44,0
0.0068407,0.005321,0.0075406,0.001789,0.0027989,0.0015975,0,0,0.061642,-0.013128,0,0.041536,0,0,0,0.0079545,0.0013751,0.0027989,14.526,0.0040428,0.0059957,9.0006e-09,0.12,0.44,0
0.0080878,0.006358,0.0076231,0.0016243,0.0027742,0.0015902,0,0,0.063035,-0.014949,0,0.041345,0,0,0,0.0080185,0.0012288,0.0027742,13.966,0.0040072,0.0061641,9.5279e-09,0.14,0.44,0
0.0093621,0.00743,0.0077028,0.0014725,0.0027526,0.0015727,0,0,0.064352,-0.016641,0,0.040889,0,0,0,0.0080772,0.001098,0.0027526,13.393,0.0039759,0.0063166,1.0012e-08,0.16,0.44,0
0.010662,0.0085348,0.0077793,0.0013347,0.0027342,0.0015455,0,0,0.065586,-0.018193,0,0.040182,0,0,0,0.0081307,0.00098328,0.0027342,12.812,0.0039494,0.0064527,1.045e-08,0.18,0.44,0
0.011985,0.0096712,0.0078524,0.0012121,0.0027194,0.0015094,0,0,0.066729,-0.019594,0,0.039246,0,0,0,0.0081794,0.00088511,0.0027194,12.224,0.003928,0.006572,1.0841e-08,0.2,0.44,0
0.013331,0.010839,0.007922,0.0011057,0.0027083,0.0014658,0,0,0.067778,-0.020834,0,0.03811,0,0,0,0.0082239,0.00080388,0.0027083,11.636,0.003912,0.0066747,1.1185e-08,0.22,0.44,0
0.014697,0.012039,0.0079885,0.0010163,0.0027014,0.0014162,0,0,0.068732,-0.021907,0,0.036822,0,0,0,0.0082652,0.00073958,0.0027014,11.055,0.003902,0.0067616,1.1487e-08,0.24,0.44,0
0.01608,0.013273,0.0080527,0.0009441,0.0026991,0.0013633,0,0,0.069598,-0.022814,0,0.035444,0,0,0,0.0083052,0.00069163,0.0026991,10.492,0.0038986,0.0068347,1.1754e-08,0.26,0.44,0
0.017481,0.014546,0.0081172,0.00088875,0.0027018,0.0013104,0,0,0.0704,-0.023569,0,0.034071,0,0,0,0.0083474,0.00065853,0.0027018,9.9646,0.0039026,0.0068981,1.2005e-08,0.28,0.44,0
0.018896,0.015866,0.0081864,0.00084848,0.0027105,0.0012627,0,0,0.071187,-0.024206,0,0.03283,0,0,0,0.0083976,0.00063729,0.0027105,9.4955,0.0039151,0.0069593,1.2272e-08,0.3,0.44,0
0.020328,0.017245,0.0082698,0.00081957,0.0027268,0.0012273,0,0,0.072059,-0.024794,0,0.031909,0,0,0,0.0084668,0.0006226,0.0027268,9.1175,0.0039387,0.0070323,1.2618e-08,0.32,0.44,0
0.021779,0.018701,0.0083859,0.00079588,0.0027545,0.0012142,0,0,0.073208,-0.025462,0,0.031568,0,0,0,0.0085754,0.00060638,0.0027545,8.8708,0.0039788,0.0071415,1.3158e-08,0.34,0.44,0
0.023256,0.02026,0.0085749,0.00076963,0.0028034,0.0012457,0,0,0.07503,-0.026438,0,0.032388,0,0,0,0.0087689,0.00057564,0.0028034,8.8514,0.0040493,0.0073375,1.4163e-08,0.36,0.44,0
0.02478,0.021974,0.0089553,0.00074938,0.0029114,0.0013466,0,0,0.078571,-0.028106,0,0.035011,0,0,0,0.0091706,0.00053405,0.0029114,9.0849,0.0042054,0.0077272,1.6355e-08,0.38,0.44,0
0.026399,0.023911,0.0098778,0.0007968,0.0032024,0.0019589,0,0,0.086781,-0.031273,0,0.05093,0,0,0,0.010282,0.00039227,0.0032024,11.668,0.0046257,0.0088271,2.3632e-08,0.4,0.44,0
0.028251,0.026627,0.014996,-0.0041674,0.0032487,0.0020456,0,0,0.046588,-0.028598,0,0.018968,0,0,0,0.015217,-0.0043877,0.0032487,6.5797,0.0046925,0.017115,1.7768e-07,0.42,0.44,0
0.028723,0.027745,0.010141,0.0007811,0.0032767,0.0025273,0,0,0.019537,-0.0071693,0,0.017069,0,0,0,0.010788,0.00013473,0.0032767,15.738,0.004733,0.0094811,7.19e-08,0.44,0.44,0
0.028952,0.028508,0.012489,0.00056426,0.0039159,0.0029367,0,0,0.011145,-0.0043572,0,0.0076353,0,0,0,0.013173,-0.00011972,0.0039159,13.111,0.0056564,0.011804,5.2392e-08,0.46,0.44,0
0.029169,0.02924,0.01152,-0.00013951,0.0034141,0.0025684,0,0,0.010538,-0.0046198,0,0.0066778,0,0,0,0.012061,-0.0006802,0.0034141,11.888,0.0049315,0.011266,4.2092e-08,0.48,0.44,0
0.029373,0.029963,0.010892,-0.0004693,0.0031267,0.0026111,0,0,0.010094,-0.0046748,0,0.0067887,0,0,0,0.011463,-0.0010407,0.0031267,12.343,0.0045163,0.011027,3.7195e-08,0.5,0.44,0
0.029572,0.030687,0.010624,-0.00036889,0.0030766,0.0027558,0,0,0.0098119,-0.0044792,0,0.0071652,0,0,0,0.011276,-0.001021,0.0030766,13.314,0.004444,0.010846,3.5401e-08,0.52,0.44,0
0.029766,0.031415,0.010432,-7.1261e-05,0.0031081,0.002883,0,0,0.0095206,-0.0041332,0,0.0074959,0,0,0,0.011171,-0.00081061,0.0031081,14.383,0.0044895,0.010581,3.3918e-08,0.54,0.44,0
0.029953,0.032143,0.010292,0.00028362,0.0031727,0.0029232,0,0,0.0092551,-0.0037558,0,0.0076002,0,0,0,0.011083,-0.00050761,0.0031727,15.146,0.0045828,0.010258,3.2352e-08,0.56,0.44,0
0.030136,0.032866,0.01018,0.00058303,0.0032288,0.0028829,0,0,0.0090361,-0.0034395,0,0.0074954,0,0,0,0.010979,-0.0002164,0.0032288,15.499,0.0046638,0.0099317,3.0666e-08,0.58,0.44,0
0.030315,0.033581,0.010101,0.00079199,0.003268,0.0027751,0,0,0.0088833,-0.0032188,0,0.0072153,0,0,0,0.010866,2.7503e-05,0.003268,15.402,0.0047204,0.0096357,2.9043e-08,0.6,0.44,0
0.030491,0.034285,0.010082,0.00087014,0.0032857,0.0026134,0,0,0.0088355,-0.0031402,0,0.0067949,0,0,0,0.010772,0.00018037,0.0032857,14.785,0.004746,0.0094306,2.7857e-08,0.62,0.44,0
0.030668,0.034976,0.010112,0.00070893,0.0032464,0.002441,0,0,0.0089258,-0.0032987,0,0.0063466,0,0,0,0.010708,0.00011304,0.0032464,13.719,0.0046892,0.0094275,2.7556e-08,0.64,0.44,0
0.030848,0.035658,0.010249,0.00037215,0.0031864,0.0023859,0,0,0.0091817,-0.0036586,0,0.0062033,0,0,0,0.010795,-0.00017397,0.0031864,12.893,0.0046026,0.0097344,2.9046e-08,0.66,0.44,0
0.031035,0.03634,0.010312,-6.7358e-05,0.0030735,0.0024437,0,0,0.0094104,-0.0040831,0,0.0063536,0,0,0,0.010859,-0.00061391,0.0030735,12.607,0.0044395,0.010145,3.0724e-08,0.68,0.44,0
0.031225,0.037025,0.010887,0.00027682,0.0033493,0.0027036,0,0,0.0097996,-0.0039942,0,0.0070294,0,0,0,0.011537,-0.00037235,0.0033493,13.502,0.0048378,0.010552,3.6022e-08,0.7,0.44,0
0.031427,0.037724,0.010612,0.00033215,0.0032834,0.0023695,0,0,0.0095278,-0.0038366,0,0.0061607,0,0,0,0.011132,-0.0001877,0.0032834,12.374,0.0047427,0.010045,3.1875e-08,0.72,0.44,0
0.031606,0.0384,0.0081422,0.0011309,0.0027819,0.0012277,0,0,0.015265,-0.0040179,0,0.005399,0,0,0,0.0083547,0.00091837,0.0027819,8.1256,0.0040184,0.0067036,3.0591e-08,0.74,0.44,0
0.031975,0.038973,0.015605,0.0037283,0.0057998,0.003449,0,0,0.04449,-0.0058084,0,0.036964,0,0,0,0.016563,0.0027695,0.0057998,16.407,0.0083776,0.01256,1.256e-07,0.76,0.44,0
0.033906,0.039727,0.011366,0.0029064,0.0042817,0.0021021,0,0,0.092096,-0.017879,0,0.054654,0,0,0,0.01186,0.0024128,0.0042817,13.213,0.0061847,0.0086648,2.8243e-08,0.78,0.44,0
0.035658,0.040634,0.010356,0.00244,0.0038387,0.0022088,0,0,0.084721,-0.018183,0,0.057429,0,0,0,0.01093,0.0018653,0.0038387,14.583,0.0055448,0.0082571,2.3441e-08,0.8,0.44,0
0.037295,0.041594,0.0097711,0.0022019,0.0035919,0.0022274,0,0,0.08033,-0.01807,0,0.057912,0,0,0,0.010378,0.0015951,0.0035919,15.239,0.0051883,0.0079742,2.064e-08,0.82,0.44,0
0.038872,0.042582,0.0094352,0.0020763,0.0034535,0.002206,0,0,0.077763,-0.017903,0,0.057357,0,0,0,0.010046,0.0014657,0.0034535,15.473,0.0049883,0.0077792,1.896e-08,0.84,0.44,0
0.040406,0.043578,0.0091952,0.0020166,0.0033635,0.002143,0,0,0.075812,-0.01751,0,0.055718,0,0,0,0.0097863,0.0014255,0.0033635,15.42,0.0048585,0.0075799,1.7534e-08,0.86,0.44,0
0.041904,0.044564,0.0090023,0.0020323,0.0033104,0.0020548,0,0,0.073995,-0.016615,0,0.053424,0,0,0,0.009563,0.0014716,0.0033104,15.262,0.0047817,0.0073466,1.6145e-08,0.88,0.44,0
0.043366,0.045528,0.008827,0.002113,0.003282,0.0019581,0,0,0.072085,-0.015197,0,0.05091,0,0,0,0.0093563,0.0015837,0.003282,15.127,0.0047406,0.007078,1.4737e-08,0.9,0.44,0
0.044787,0.046468,0.0086605,0.0022531,0.0032741,0.0018646,0,0,0.070024,-0.013273,0,0.048479,0,0,0,0.0091636,0.00175,0.0032741,15.1,0.0047292,0.0067812,1.3329e-08,0.92,0.44,0
0.046166,0.04738,0.0084986,0.0024507,0.0032848,0.0017817,0,0,0.06778,-0.010843,0,0.046325,0,0,0,0.0089844,0.0019648,0.0032848,15.253,0.0047447,0.0064616,1.193e-08,0.94,0.44,0
0.047498,0.048269,0.008337,0.0027073,0.0033133,0.0017153,0,0,0.065308,-0.0078777,0,0.044599,0,0,0,0.0088184,0.0022258,0.0033133,15.679,0.0047858,0.0061218,1.0541e-08,0.96,0.44,0
0.048779,0.049139,0.0081701,0.0030286,0.0033596,0.0016716,0,0,0.062536,-0.0043035,0,0.043463,0,0,0,0.0086658,0.0025328,0.0033596,16.517,0.0048527,0.0057642,9.158e-09,0.98,0.44,0
0.05,0.05,0.0082202,0.0035229,0.0035229,0.0016554,0,0,0.061064,-1.5374e-16,0,0.043041,0,0,0,0.008745,0.0029982,0.0035229,17.589,0.0050887,0.0055032,8.2981e-09,1,0.44,0
0,0,0.0069452,0.0029765,0.0029765,0.0013725,0,0,0.051593,-6.5052e-19,0,0.035686,0,0,0,0.0073737,0.0025481,0.0029765,17.335,0.0042994,0.0046263,4.9385e-09,0,0.46,0
0.0010319,0.00071372,0.006922,0.0027169,0.0028917,0.0013774,0,0,0.052394,-0.0022718,0,0.035812,0,0,0,0.007333,0.0023059,0.0028917,16.615,0.0041769,0.0047613,5.2619e-09,0.02,0.46,0
0.0020958,0.0014854,0.0070079,0.0025132,0.0028563,0.0014292,0,0,0.053971,-0.004461,0,0.037159,0,0,0,0.0074239,0.0020973,0.0028563,16.227,0.0041258,0.0049906,5.8889e-09,0.04,0.46,0
0.0031907,0.0023104,0.0070916,0.0023179,0.0028229,0.0014684,0,0,0.055494,-0.0065643,0,0.038178,0,0,0,0.0075072,0.0019024,0.0028229,15.8,0.0040775,0.0052059,6.4893e-09,0.06,0.46,0
0.0043155,0.0031846,0.0071728,0.0021317,0.0027914,0.001496,0,0,0.056959,-0.0085759,0,0.038897,0,0,0,0.0075834,0.0017211,0.0027914,15.345,0.004032,0.0054072,7.0593e-09,0.08,0.46,0
0.0054691,0.0041045,0.0072511,0.0019551,0.0027619,0.0015127,0,0,0.05836,-0.010488,0,0.039331,0,0,0,0.0076527,0.0015534,0.0027619,14.869,0.0039894,0.0055939,7.5949e-09,0.1,0.46,0
0.0066499,0.0050668,0.0073259,0.001789,0.0027345,0.001519,0,0,0.059689,-0.012291,0,0.039494,0,0,0,0.0077152,0.0013997,0.0027345,14.376,0.0039498,0.0057653,8.0915e-09,0.12,0.46,0
0.0078566,0.0060689,0.0073966,0.0016344,0.0027093,0.0015152,0,0,0.060935,-0.013974,0,0.039394,0,0,0,0.0077707,0.0012603,0.0027093,13.87,0.0039134,0.0059205,8.5444e-09,0.14,0.46,0
0.0090874,0.0071084,0.0074626,0.0014922,0.0026864,0.0015016,0,0,0.06209,-0.015526,0,0.039043,0,0,0,0.007819,0.0011357,0.0026864,13.352,0.0038804,0.0060586,8.9492e-09,0.16,0.46,0
0.01034,0.0081836,0.0075231,0.0013633,0.0026659,0.001479,0,0,0.063143,-0.016934,0,0.038455,0,0,0,0.0078598,0.0010266,0.0026659,12.826,0.0038508,0.0061789,9.3017e-09,0.18,0.46,0
0.011613,0.0092935,0.0075774,0.0012487,0.0026478,0.0014481,0,0,0.064085,-0.018189,0,0.037651,0,0,0,0.007893,0.00093304,0.0026478,12.295,0.0038246,0.0062807,9.5989e-09,0.2,0.46,0
0.012904,0.010438,0.0076247,0.0011488,0.0026321,0.0014099,0,0,0.064905,-0.019282,0,0.036658,0,0,0,0.0079184,0.00085517,0.0026321,11.765,0.0038019,0.0063636,9.8388e-09,0.22,0.46,0
0.014209,0.011617,0.0076646,0.001064,0.0026186,0.0013659,0,0,0.065598,-0.02021,0,0.035513,0,0,0,0.0079361,0.00079249,0.0026186,11.241,0.0037824,0.0064281,1.0021e-08,0.24,0.46,0
0.015527,0.012835,0.0076966,0.00099361,0.0026071,0.001318,0,0,0.066164,-0.020975,0,0.034267,0,0,0,0.0079464,0.00074378,0.0026071,10.733,0.0037658,0.0064753,1.015e-08,0.26,0.46,0
0.016856,0.014095,0.0077207,0.0009361,0.0025971,0.0012687,0,0,0.066608,-0.021592,0,0.032988,0,0,0,0.0079502,0.0007066,0.0025971,10.253,0.0037513,0.0065077,1.0231e-08,0.28,0.46,0
0.018192,0.015403,0.0077375,0.00088795,0.0025876,0.0012216,0,0,0.066949,-0.022096,0,0.031761,0,0,0,0.0079489,0.0006766,0.0025876,9.8154,0.0037377,0.00653,1.0279e-08,0.3,0.46,0
0.019534,0.016771,0.007748,0.00084253,0.0025772,0.0011806,0,0,0.067221,-0.02255,0,0.030697,0,0,0,0.0079443,0.00064625,0.0025772,9.4389,0.0037226,0.0065497,1.0314e-08,0.32,0.46,0
0.020881,0.018214,0.0077515,0.00078702,0.0025615,0.0011524,0,0,0.067469,-0.023069,0,0.029962,0,0,0,0.0079372,0.00060129,0.0025615,9.1556,0.0037,0.0065786,1.0364e-08,0.34,0.46,0
0.022232,0.019756,0.0077427,0.00069784,0.0025321,0.0011442,0,0,0.067737,-0.023846,0,0.029749,0,0,0,0.0079238,0.00051667,0.0025321,8.9976,0.0036575,0.0066332,1.0456e-08,0.36,0.46,0
0.02359,0.02143,0.0076497,0.00049112,0.0024422,0.0012006,0,0,0.067696,-0.025365,0,0.031216,0,0,0,0.0078456,0.00029512,0.0024422,9.2717,0.0035277,0.0067386,1.0505e-08,0.38,0.46,0
0.02494,0.02333,0.0077058,0.00016619,0.0023616,0.0013189,0,0,0.069475,-0.02854,0,0.034291,0,0,0,0.0079298,-5.7858e-05,0.0023616,9.6412,0.0034112,0.0070945,1.1408e-08,0.4,0.46,0
0.026369,0.025514,0.0077243,-0.0020459,0.0017035,0.00093556,0,0,0.078271,-0.048743,0,0.024325,0,0,0,0.0078131,-0.0021347,0.0017035,5.4208,0.0024607,0.0086896,1.2912e-08,0.42,0.46,0
0.028071,0.027571,0.011441,-0.0018905,0.0028652,0.0021968,0,0,0.039093,-0.022574,0,0.011537,0,0,0,0.01184,-0.002289,0.0028652,7.4232,0.0041387,0.012384,7.228e-08,0.44,0.46,0
0.028393,0.028425,0.0073758,-7.3919e-06,0.0022105,0.0020275,0,0,0.013954,-0.0059976,0,0.01055,0,0,0,0.0078962,-0.00052777,0.0022105,14.006,0.003193,0.0074427,3.2743e-08,0.46,0.46,0
0.028587,0.029148,0.010943,-2.8197e-05,0.0032743,0.0030544,0,0,0.0099687,-0.0042932,0,0.0079415,0,0,0,0.011736,-0.00082127,0.0032743,14.555,0.0047295,0.011092,3.9239e-08,0.48,0.46,0
0.028792,0.029867,0.010894,-0.00055623,0.0031012,0.0028233,0,0,0.01013,-0.0047547,0,0.0073406,0,0,0,0.011552,-0.0012146,0.0031012,13.125,0.0044795,0.011248,3.8486e-08,0.5,0.46,0
0.028992,0.030595,0.010651,-0.00053912,0.0030336,0.0029145,0,0,0.0099029,-0.0046446,0,0.0075778,0,0,0,0.011365,-0.0012527,0.0030336,13.758,0.0043819,0.011113,3.6783e-08,0.52,0.46,0
0.029188,0.031331,0.010581,-0.00010466,0.003143,0.0029787,0,0,0.0096698,-0.004222,0,0.0077445,0,0,0,0.011355,-0.00087886,0.003143,14.57,0.0045399,0.0108,3.5771e-08,0.54,0.46,0
0.029379,0.032067,0.010518,0.00030498,0.0032469,0.0029717,0,0,0.0094525,-0.0038245,0,0.0077265,0,0,0,0.01132,-0.00049677,0.0032469,15.098,0.00469,0.01046,3.4407e-08,0.56,0.46,0
0.029566,0.032797,0.010472,0.00062243,0.0033283,0.0029283,0,0,0.0092867,-0.0035176,0,0.0076136,0,0,0,0.011277,-0.00018241,0.0033283,15.368,0.0048075,0.010169,3.3109e-08,0.58,0.46,0
0.02975,0.033517,0.010402,0.00086925,0.0033813,0.0028506,0,0,0.0091267,-0.0032657,0,0.0074116,0,0,0,0.011189,8.1854e-05,0.0033813,15.441,0.0048842,0.00988,3.1551e-08,0.6,0.46,0
0.029931,0.034223,0.010307,0.0010323,0.0034018,0.002696,0,0,0.0089767,-0.0030803,0,0.0070096,0,0,0,0.011034,0.00030554,0.0034018,15.086,0.0049137,0.0095636,2.9564e-08,0.62,0.46,0
0.030109,0.034911,0.010309,0.00099828,0.0033923,0.0024634,0,0,0.0089921,-0.0031122,0,0.0064049,0,0,0,0.010921,0.0003867,0.0033923,13.943,0.0048999,0.009399,2.8407e-08,0.64,0.46,0
0.030291,0.035585,0.010178,0.00031183,0.003147,0.002259,0,0,0.0091404,-0.0036857,0,0.0058733,0,0,0,0.010671,-0.00018079,0.003147,12.302,0.0045456,0.009629,2.8074e-08,0.66,0.46,0
0.030475,0.036254,0.010375,-0.00014629,0.0030687,0.0024724,0,0,0.0094985,-0.0041795,0,0.0064281,0,0,0,0.010927,-0.00069829,0.0030687,12.586,0.0044326,0.010274,3.1512e-08,0.68,0.46,0
0.030671,0.036948,0.0095204,-0.0005515,0.0026907,0.0023705,0,0,0.0088786,-0.0042148,0,0.0061632,0,0,0,0.01005,-0.0010815,0.0026907,12.603,0.0038865,0.009806,2.5391e-08,0.7,0.46,0
0.03083,0.037641,0.0065932,0.00022942,0.0020468,0.0015181,0,0,0.012668,-0.0044056,0,0.0088104,0,0,0,0.0069377,-0.00011505,0.0020468,13.489,0.0029565,0.0062593,2.0365e-08,0.72,0.46,0
0.03113,0.038317,0.013051,0.0026969,0.0047243,0.0029739,0,0,0.040662,-0.0076396,0,0.032359,0,0,0,0.013856,0.001892,0.0047243,15.693,0.0068239,0.010831,7.1175e-08,0.74,0.46,0
0.032969,0.038812,0.010425,0.0030588,0.004045,0.0025892,0,0,0.082935,-0.012821,0,0.067319,0,0,0,0.011244,0.0022397,0.004045,17.554,0.0058428,0.0082508,2.4257e-08,0.76,0.46,0
0.034448,0.039378,0.0094013,0.0024524,0.0035561,0.0025336,0,0,0.075987,-0.014348,0,0.065874,0,0,0,0.010227,0.0016267,0.0035561,18.05,0.0051366,0.0078162,1.9579e-08,0.78,0.46,0
0.036009,0.040276,0.0095442,0.002303,0.0035541,0.0026038,0,0,0.07787,-0.016265,0,0.067699,0,0,0,0.010383,0.0014639,0.0035541,17.861,0.0051338,0.0080796,2.1099e-08,0.8,0.46,0
0.037563,0.041239,0.0093917,0.0022046,0.0034789,0.0025099,0,0,0.076867,-0.016566,0,0.065257,0,0,0,0.010181,0.0014149,0.0034789,17.466,0.0050251,0.0079384,1.9957e-08,0.82,0.46,0
0.039084,0.042234,0.0091839,0.0021324,0.0033949,0.0024194,0,0,0.075257,-0.016412,0,0.062905,0,0,0,0.0099341,0.0013821,0.0033949,17.229,0.0049037,0.0077443,1.8533e-08,0.84,0.46,0
0.040573,0.043241,0.0090019,0.0021077,0.0033329,0.0023217,0,0,0.073697,-0.015928,0,0.060364,0,0,0,0.0097108,0.0013987,0.0033329,16.981,0.0048141,0.0075336,1.7177e-08,0.86,0.46,0
0.042031,0.044245,0.0088419,0.0021335,0.0032926,0.0022174,0,0,0.072141,-0.015068,0,0.057653,0,0,0,0.0095086,0.0014668,0.0032926,16.734,0.004756,0.0073021,1.5861e-08,0.88,0.46,0
0.043458,0.045237,0.008695,0.0022127,0.0032723,0.0021126,0,0,0.070495,-0.013775,0,0.054928,0,0,0,0.0093227,0.0015849,0.0032723,16.548,0.0047267,0.0070473,1.4561e-08,0.9,0.46,0
0.044851,0.046213,0.0085537,0.0023437,0.0032692,0.0020147,0,0,0.068698,-0.012032,0,0.052381,0,0,0,0.00915,0.0017473,0.0032692,16.489,0.0047222,0.0067713,1.327e-08,0.92,0.46,0
0.046206,0.047172,0.0084137,0.0025262,0.003282,0.0019304,0,0,0.066713,-0.0098254,0,0.050191,0,0,0,0.0089902,0.0019496,0.003282,16.628,0.0047406,0.006478,1.1995e-08,0.94,0.46,0
0.04752,0.048118,0.0082715,0.0027618,0.00331,0.0018666,0,0,0.0645,-0.0071265,0,0.048531,0,0,0,0.0088444,0.002189,0.00331,17.06,0.0047811,0.0061717,1.0743e-08,0.96,0.46,0
0.048786,0.049057,0.008123,0.0030549,0.0033534,0.0018308,0,0,0.062006,-0.0038806,0,0.047601,0,0,0,0.0087152,0.0024627,0.0033534,17.924,0.0048437,0.0058582,9.5258e-09,0.98,0.46,0
0.05,0.05,0.0081685,0.0035008,0.0035008,0.0018137,0,0,0.06068,-2.1359e-16,0,0.047156,0,0,0,0.0087904,0.0028789,0.0035008,18.926,0.0050567,0.0056264,8.7719e-09,1,0.46,0
0,0,0.006765,0.0028993,0.0028993,0.0012882,0,0,0.050254,0,0,0.033495,0,0,0,0.007155,0.0025093,0.0028993,16.842,0.0041878,0.0044635,4.4497e-09,0,0.48,0
0.0010051,0.00066989,0.0067434,0.0026578,0.0028204,0.0012936,0,0,0.050999,-0.0021131,0,0.033632,0,0,0,0.0071185,0.0022827,0.0028204,16.172,0.0040739,0.0045906,4.7397e-09,0.02,0.48,0
0.00204,0.0013992,0.0068227,0.0024668,0.0027869,0.0013475,0,0,0.052466,-0.0041607,0,0.035034,0,0,0,0.0072058,0.0020837,0.0027869,15.872,0.0040255,0.0048093,5.3036e-09,0.04,0.48,0
0.0031037,0.0021835,0.0068995,0.0022831,0.0027548,0.0013892,0,0,0.053882,-0.0061318,0,0.03612,0,0,0,0.0072854,0.0018973,0.0027548,15.521,0.0039791,0.0050146,5.8431e-09,0.06,0.48,0
0.0041952,0.0030188,0.0069732,0.0021076,0.0027242,0.0014199,0,0,0.055236,-0.0080158,0,0.036919,0,0,0,0.0073572,0.0017236,0.0027242,15.136,0.003935,0.005206,6.3534e-09,0.08,0.48,0
0.0053132,0.0039017,0.0070428,0.0019413,0.0026953,0.0014403,0,0,0.056519,-0.0098013,0,0.037449,0,0,0,0.0074214,0.0015627,0.0026953,14.726,0.0038931,0.0053825,6.8292e-09,0.1,0.48,0
0.006456,0.0048293,0.0071078,0.001785,0.0026679,0.001451,0,0,0.05772,-0.011477,0,0.037726,0,0,0,0.0074777,0.0014152,0.0026679,14.3,0.0038536,0.0055433,7.2651e-09,0.12,0.48,0
0.0076219,0.0057991,0.0071672,0.0016398,0.0026421,0.0014523,0,0,0.058826,-0.01303,0,0.037761,0,0,0,0.0075256,0.0012814,0.0026421,13.861,0.0038164,0.0056872,7.6556e-09,0.14,0.48,0
0.0088091,0.006809,0.00722,0.0015065,0.0026179,0.0014449,0,0,0.059827,-0.01445,0,0.037567,0,0,0,0.0075646,0.0011619,0.0026179,13.414,0.0037815,0.0058132,7.9953e-09,0.16,0.48,0
0.010015,0.0078574,0.0072652,0.0013858,0.0025953,0.0014292,0,0,0.060709,-0.015724,0,0.037161,0,0,0,0.0075943,0.0010568,0.0025953,12.964,0.0037488,0.0059201,8.2793e-09,0.18,0.48,0
0.011237,0.0089436,0.0073016,0.0012784,0.002574,0.0014063,0,0,0.061459,-0.016843,0,0.036563,0,0,0,0.0076137,0.00096623,0.002574,12.515,0.003718,0.0060072,8.5033e-09,0.2,0.48,0
0.012473,0.010068,0.0073279,0.0011845,0.0025537,0.001377,0,0,0.062064,-0.0178,0,0.035803,0,0,0,0.0076224,0.00088994,0.0025537,12.073,0.0036887,0.0060739,8.6639e-09,0.22,0.48,0
0.01372,0.01123,0.0073426,0.0011038,0.0025339,0.0013429,0,0,0.062513,-0.018592,0,0.034917,0,0,0,0.0076194,0.00082701,0.0025339,11.646,0.0036601,0.0061201,8.7589e-09,0.24,0.48,0
0.014974,0.012434,0.0073442,0.0010352,0.0025138,0.0013059,0,0,0.062795,-0.019222,0,0.033954,0,0,0,0.0076038,0.0007756,0.0025138,11.245,0.0036311,0.0061463,8.788e-09,0.26,0.48,0
0.016232,0.013683,0.0073308,0.00097633,0.0024921,0.0012685,0,0,0.062902,-0.019705,0,0.03298,0,0,0,0.0075746,0.00073248,0.0024921,10.882,0.0035997,0.006154,8.7526e-09,0.28,0.48,0
0.01749,0.014983,0.0072997,0.00092253,0.0024667,0.0012338,0,0,0.062829,-0.020074,0,0.032079,0,0,0,0.0075301,0.00069214,0.0024667,10.577,0.003563,0.0061459,8.657e-09,0.3,0.48,0
0.018745,0.016343,0.0072469,0.00086553,0.0024337,0.0012066,0,0,0.062572,-0.020387,0,0.031372,0,0,0,0.0074675,0.000645,0.0024337,10.358,0.0035154,0.0061272,8.5079e-09,0.32,0.48,0
0.019993,0.017778,0.0071668,0.00079096,0.0023873,0.0011938,0,0,0.062133,-0.020753,0,0.031039,0,0,0,0.007383,0.00057477,0.0023873,10.265,0.0034484,0.0061071,8.318e-09,0.34,0.48,0
0.02123,0.019307,0.0070482,0.00066825,0.0023149,0.0012105,0,0,0.061533,-0.021407,0,0.031472,0,0,0,0.0072701,0.00044631,0.0023149,10.39,0.0033438,0.0061078,8.1157e-09,0.36,0.48,0
0.022454,0.020959,0.0069494,0.00046788,0.0022252,0.0012738,0,0,0.061414,-0.022845,0,0.033119,0,0,0,0.0071907,0.00022653,0.0022252,10.729,0.0032141,0.0062109,8.1466e-09,0.38,0.48,0
0.023687,0.02277,0.006926,-5.0549e-05,0.0020626,0.0013259,0,0,0.063224,-0.027471,0,0.034474,0,0,0,0.0071695,-0.00029405,0.0020626,10.406,0.0029794,0.0066083,8.7183e-09,0.4,0.48,0
0.024983,0.024678,0.0066253,-0.0013017,0.0015971,0.0011537,0,0,0.065366,-0.037684,0,0.029997,0,0,0,0.0067898,-0.0014662,0.0015971,8.115,0.0023069,0.0072287,8.3245e-09,0.42,0.48,0
0.026301,0.026565,0.0067606,-0.0021119,0.0013946,0.00049993,0,0,0.069758,-0.045585,0,0.012998,0,0,0,0.0067886,-0.00214,0.0013946,3.2148,0.0020144,0.0077881,8.5239e-09,0.44,0.48,0
0.027773,0.028287,0.0098168,-0.0013324,0.0025453,0.001678,0,0,0.033564,-0.019267,0,0.0070951,0,0,0,0.010119,-0.0016349,0.0025453,6.4279,0.0036766,0.01032,4.3921e-08,0.46,0.48,0
0.028044,0.029069,0.0063209,-0.00024068,0.0018241,0.0016934,0,0,0.011942,-0.0055264,0,0.0079341,0,0,0,0.0067345,-0.00065424,0.0018241,12.394,0.0026348,0.0065134,2.1257e-08,0.48,0.48,0
0.028219,0.029773,0.0097616,-0.00077597,0.0026957,0.0028148,0,0,0.0091857,-0.0045132,0,0.0073186,0,0,0,0.010466,-0.0014808,0.0026957,14.057,0.0038938,0.010502,2.9345e-08,0.5,0.48,0
0.028412,0.030502,0.010312,-0.00060964,0.0029107,0.0028426,0,0,0.0096217,-0.0045765,0,0.0073908,0,0,0,0.011008,-0.0013052,0.0029107,13.749,0.0042044,0.010838,3.3621e-08,0.52,0.48,0
0.028604,0.031246,0.010526,-6.1166e-05,0.0031393,0.00284,0,0,0.009602,-0.0041606,0,0.0073839,0,0,0,0.011239,-0.00077489,0.0031393,14.107,0.0045345,0.010613,3.4437e-08,0.54,0.48,0
0.028796,0.03199,0.010737,0.00028095,0.0033053,0.0028166,0,0,0.0096609,-0.0039317,0,0.0073231,0,0,0,0.011447,-0.0004295,0.0033053,14.157,0.0047743,0.010519,3.5369e-08,0.56,0.48,0
0.02899,0.032726,0.010953,0.00058604,0.0034618,0.0028389,0,0,0.0097391,-0.0037385,0,0.0073812,0,0,0,0.01168,-0.00014043,0.0034618,14.354,0.0050004,0.010494,3.6632e-08,0.58,0.48,0
0.029185,0.033451,0.011005,0.00083517,0.003552,0.0028944,0,0,0.0096887,-0.0035319,0,0.0075253,0,0,0,0.011771,6.9124e-05,0.003552,14.825,0.0051307,0.010407,3.6789e-08,0.6,0.48,0
0.029378,0.034161,0.01079,0.0010223,0.0035436,0.002909,0,0,0.0094199,-0.0032777,0,0.0075634,0,0,0,0.01159,0.00022153,0.0035436,15.39,0.0051185,0.010125,3.4609e-08,0.62,0.48,0
0.029562,0.034851,0.01044,0.0011859,0.0034878,0.0027417,0,0,0.0090381,-0.0029925,0,0.0071284,0,0,0,0.011192,0.00043462,0.0034878,15.324,0.005038,0.0096015,3.0446e-08,0.64,0.48,0
0.029739,0.03551,0.010473,0.00089715,0.0034111,0.002541,0,0,0.0091807,-0.0032681,0,0.0066067,0,0,0,0.011106,0.00026465,0.0034111,13.978,0.0049271,0.0096601,3.0281e-08,0.66,0.48,0
0.02993,0.036173,0.0088107,-0.0015409,0.0021809,0.0024679,0,0,0.0086187,-0.0048384,0,0.0064165,0,0,0,0.009369,-0.0020992,0.0021809,12.746,0.0031502,0.010038,2.194e-08,0.68,0.48,0
0.030084,0.036856,0.0060739,-0.0004053,0.0017006,0.001828,0,0,0.01214,-0.0052634,0,0.011256,0,0,0,0.0065575,-0.00088891,0.0017006,16.101,0.0024564,0.0065481,1.8739e-08,0.7,0.48,0
0.030371,0.037551,0.012323,0.0020367,0.0043079,0.0033569,0,0,0.039652,-0.0090955,0,0.034384,0,0,0,0.013325,0.0010349,0.0043079,16.963,0.0062226,0.011027,6.8566e-08,0.72,0.48,0
0.032176,0.038025,0.0098524,0.0022502,0.0036308,0.0025778,0,0,0.080881,-0.017948,0,0.067023,0,0,0,0.010644,0.0014585,0.0036308,17.072,0.0052445,0.008315,2.2873e-08,0.74,0.48,0
0.033606,0.03846,0.0088868,0.0021377,0.0033074,0.0023955,0,0,0.072533,-0.015205,0,0.062284,0,0,0,0.0096507,0.0013739,0.0033074,17.685,0.0047773,0.0074994,1.6905e-08,0.76,0.48,0
0.035078,0.039154,0.0090793,0.0026022,0.0035045,0.0026548,0,0,0.072473,-0.01173,0,0.069025,0,0,0,0.010028,0.0016531,0.0035045,19.672,0.005062,0.0076202,1.8283e-08,0.78,0.48,0
0.036505,0.039983,0.0088961,0.0023632,0.0033778,0.0026978,0,0,0.071738,-0.01319,0,0.070143,0,0,0,0.0098662,0.0013932,0.0033778,19.777,0.004879,0.0076756,1.8096e-08,0.8,0.48,0
0.037947,0.040932,0.0088845,0.0022667,0.0033454,0.0026592,0,0,0.072009,-0.014023,0,0.06914,0,0,0,0.0098207,0.0013306,0.0033454,19.393,0.0048322,0.0076834,1.8008e-08,0.82,0.48,0
0.039386,0.041926,0.0088132,0.002217,0.0033091,0.0025623,0,0,0.071554,-0.014197,0,0.066619,0,0,0,0.0096915,0.0013386,0.0033091,18.922,0.0047797,0.0075627,1.7235e-08,0.84,0.48,0
0.040809,0.042941,0.0087151,0.0022069,0.0032766,0.0024546,0,0,0.070701,-0.013906,0,0.063819,0,0,0,0.0095371,0.001385,0.0032766,18.514,0.0047329,0.0073902,1.624e-08,0.86,0.48,0
0.042214,0.043961,0.0086101,0.0022388,0.0032547,0.0023442,0,0,0.069621,-0.013206,0,0.060949,0,0,0,0.0093796,0.0014693,0.0032547,18.174,0.0047012,0.007186,1.5165e-08,0.88,0.48,0
0.043594,0.044977,0.0085026,0.0023145,0.0032451,0.0022372,0,0,0.068347,-0.012099,0,0.058167,0,0,0,0.0092267,0.0015904,0.0032451,17.935,0.0046874,0.0069581,1.4058e-08,0.9,0.48,0
0.044948,0.045986,0.0083925,0.0024346,0.0032481,0.0021395,0,0,0.066877,-0.010576,0,0.055628,0,0,0,0.0090812,0.0017459,0.0032481,17.843,0.0046917,0.0067115,1.2943e-08,0.92,0.48,0
0.046269,0.046987,0.0082785,0.0025997,0.0032635,0.0020576,0,0,0.065196,-0.0086289,0,0.053498,0,0,0,0.0089457,0.0019326,0.0032635,17.965,0.0047139,0.0064515,1.1837e-08,0.94,0.48,0
0.047555,0.047984,0.0081592,0.0028109,0.003291,0.0019986,0,0,0.063286,-0.0062414,0,0.051963,0,0,0,0.0088235,0.0021466,0.003291,18.387,0.0047537,0.0061846,1.0761e-08,0.96,0.48,0
0.048801,0.048984,0.0080322,0.0030707,0.0033309,0.0019711,0,0,0.061117,-0.0033818,0,0.051248,0,0,0,0.0087199,0.002383,0.0033309,19.235,0.0048113,0.0059202,9.7422e-09,0.98,0.48,0
0.05,0.05,0.008072,0.0034594,0.0034594,0.0019539,0,0,0.059964,-1.8583e-16,0,0.050802,0,0,0,0.0087884,0.002743,0.0034594,20.136,0.004997,0.005721,9.1104e-09,1,0.48,0
0,0,0.0065822,0.0028209,0.0028209,0.00121,0,0,0.048896,3.2526e-19,0,0.03146,0,0,0,0.0069378,0.0024653,0.0028209,16.379,0.0040747,0.0043057,4.0056e-09,0,0.5,0
0.00097792,0.0006292,0.0065621,0.0025968,0.0027477,0.0012159,0,0,0.049588,-0.0019612,0,0.031613,0,0,0,0.0069053,0.0022537,0.0027477,15.76,0.0039689,0.0044253,4.2645e-09,0.02,0.5,0
0.0019835,0.001319,0.0066352,0.002418,0.002716,0.001272,0,0,0.05095,-0.0038737,0,0.033073,0,0,0,0.0069892,0.002064,0.002716,15.55,0.003923,0.0046337,4.7707e-09,0.04,0.5,0
0.0030159,0.0020651,0.0067055,0.0022452,0.0026852,0.0013169,0,0,0.052264,-0.00572,0,0.034238,0,0,0,0.0070653,0.0018855,0.0026852,15.28,0.0038787,0.0048299,5.2559e-09,0.06,0.5,0
0.0040741,0.002864,0.0067721,0.0020798,0.0026556,0.0013515,0,0,0.053514,-0.0074845,0,0.035138,0,0,0,0.0071335,0.0017184,0.0026556,14.972,0.0038358,0.0050126,5.714e-09,0.08,0.5,0
0.0051565,0.0037124,0.0068338,0.001923,0.0026271,0.0013766,0,0,0.054688,-0.0091528,0,0.035792,0,0,0,0.0071934,0.0015634,0.0026271,14.638,0.0037946,0.0051807,6.1392e-09,0.1,0.5,0
0.0062616,0.0046077,0.0068898,0.0017757,0.0025997,0.0013929,0,0,0.055772,-0.010712,0,0.036216,0,0,0,0.0072446,0.0014209,0.0025997,14.289,0.0037551,0.0053329,6.5251e-09,0.12,0.5,0
0.0073874,0.0055477,0.0069389,0.0016389,0.0025734,0.0014009,0,0,0.056753,-0.012148,0,0.036424,0,0,0,0.0072865,0.0012914,0.0025734,13.932,0.0037171,0.005468,6.866e-09,0.14,0.5,0
0.0085317,0.0065304,0.00698,0.0015134,0.002548,0.0014013,0,0,0.057615,-0.013449,0,0.036434,0,0,0,0.0073183,0.0011752,0.002548,13.572,0.0036805,0.0055847,7.1561e-09,0.16,0.5,0
0.009692,0.0075547,0.0070116,0.0013999,0.0025234,0.0013947,0,0,0.058346,-0.014606,0,0.036263,0,0,0,0.0073391,0.0010724,0.0025234,13.215,0.003645,0.0056819,7.3903e-09,0.18,0.5,0
0.010866,0.0086198,0.0070324,0.0012986,0.0024993,0.0013821,0,0,0.058931,-0.015609,0,0.035935,0,0,0,0.0073482,0.0009828,0.0024993,12.869,0.0036101,0.0057589,7.564e-09,0.2,0.5,0
0.012049,0.0097258,0.0070407,0.0012094,0.002475,0.0013648,0,0,0.059354,-0.016453,0,0.035485,0,0,0,0.0073444,0.0009058,0.002475,12.542,0.0035751,0.005815,7.6738e-09,0.22,0.5,0
0.01324,0.010874,0.0070347,0.0011317,0.0024499,0.0013443,0,0,0.059602,-0.017137,0,0.034952,0,0,0,0.0073264,0.00083997,0.0024499,12.244,0.0035388,0.00585,7.7173e-09,0.24,0.5,0
0.014433,0.012066,0.007012,0.0010638,0.0024227,0.0013228,0,0,0.059661,-0.017667,0,0.034394,0,0,0,0.007293,0.00078285,0.0024227,11.989,0.0034995,0.0058647,7.694e-09,0.26,0.5,0
0.015626,0.013306,0.0069702,0.0010025,0.0023918,0.0013032,0,0,0.059519,-0.018061,0,0.033883,0,0,0,0.0072424,0.00073035,0.0023918,11.796,0.0034549,0.0058607,7.606e-09,0.28,0.5,0
0.016814,0.0146,0.0069063,0.0009425,0.0023546,0.0012891,0,0,0.059171,-0.018358,0,0.033518,0,0,0,0.007173,0.00067576,0.0023546,11.69,0.0034011,0.0058416,7.459e-09,0.3,0.5,0
0.017993,0.015956,0.0068171,0.00087453,0.0023075,0.0012859,0,0,0.058625,-0.018628,0,0.033434,0,0,0,0.0070834,0.00060821,0.0023075,11.701,0.003333,0.0058149,7.2666e-09,0.32,0.5,0
0.019159,0.017384,0.0067013,0.00078233,0.0022451,0.0013009,0,0,0.057931,-0.019016,0,0.033824,0,0,0,0.0069746,0.00050903,0.0022451,11.864,0.0032429,0.005796,7.0584e-09,0.34,0.5,0
0.02031,0.018899,0.0065727,0.00064017,0.0021639,0.0013416,0,0,0.057315,-0.019808,0,0.034882,0,0,0,0.006862,0.00035088,0.0021639,12.168,0.0031256,0.0058204,6.9131e-09,0.36,0.5,0
0.021452,0.020517,0.0064566,0.00037949,0.0020508,0.0013982,0,0,0.057275,-0.021728,0,0.036353,0,0,0,0.0067629,7.3228e-05,0.0020508,12.355,0.0029623,0.0059526,6.9393e-09,0.38,0.5,0
0.022601,0.022231,0.0063215,-0.00013259,0.0018567,0.0014086,0,0,0.058043,-0.02586,0,0.036624,0,0,0,0.0066155,-0.00042662,0.0018567,11.791,0.0026819,0.006223,6.9962e-09,0.4,0.5,0
0.023773,0.024007,0.0061896,-0.00081869,0.0016113,0.0012406,0,0,0.059519,-0.03159,0,0.032255,0,0,0,0.0064028,-0.0010318,0.0016113,9.7478,0.0023274,0.0065275,6.7976e-09,0.42,0.5,0
0.024982,0.025748,0.0058651,-0.0015693,0.0012887,0.00091446,0,0,0.059493,-0.037155,0,0.023776,0,0,0,0.005976,-0.0016802,0.0012887,6.9103,0.0018615,0.0066858,5.7871e-09,0.44,0.5,0
0.026153,0.027408,0.0058692,-0.0019298,0.0011818,0.00034369,0,0,0.060935,-0.040451,0,0.0089358,0,0,0,0.0058843,-0.0019449,0.0011818,2.5184,0.0017071,0.0068259,5.5557e-09,0.46,0.5,0
0.027419,0.028942,0.0082942,-0.0014399,0.0020563,0.0012181,0,0,0.028845,-0.017029,0,0.004854,0,0,0,0.0084815,-0.0016273,0.0020563,5.3239,0.0029702,0.0088615,2.5939e-08,0.48,0.5,0
0.027652,0.029687,0.0053999,-0.00081558,0.0013753,0.0012486,0,0,0.010457,-0.005764,0,0.0045057,0,0,0,0.0056516,-0.0010673,0.0013753,8.0506,0.0019865,0.0058905,1.3592e-08,0.5,0.5,0
0.027815,0.030412,0.0091122,-0.00073949,0.0025118,0.0019752,0,0,0.0085805,-0.0042267,0,0.0051354,0,0,0,0.0094935,-0.0011207,0.0025118,10.925,0.0036282,0.0093435,2.156e-08,0.52,0.5,0
0.027995,0.031164,0.010261,-0.00026416,0.0029991,0.0021993,0,0,0.0094406,-0.0042422,0,0.0057181,0,0,0,0.010702,-0.00070523,0.0029991,11.34,0.004332,0.010079,2.9656e-08,0.54,0.5,0
0.028192,0.03191,0.011204,0.0001353,0.0034017,0.0023159,0,0,0.010143,-0.0042463,0,0.0060212,0,0,0,0.011669,-0.00032972,0.0034017,11.354,0.0049135,0.010635,3.7128e-08,0.56,0.5,0
0.0284,0.032648,0.01181,0.00042689,0.0036712,0.0025172,0,0,0.010581,-0.0042176,0,0.0065448,0,0,0,0.012342,-0.00010489,0.0036712,11.929,0.0053029,0.011054,4.3066e-08,0.58,0.5,0
0.028615,0.033376,0.012158,0.00066323,0.0038463,0.0027717,0,0,0.010805,-0.0041379,0,0.0072064,0,0,0,0.012791,2.9792e-05,0.0038463,12.873,0.0055557,0.011345,4.7389e-08,0.6,0.5,0
0.028833,0.034092,0.01217,0.00084318,0.003904,0.0030794,0,0,0.010746,-0.0039791,0,0.0080065,0,0,0,0.012953,6.013e-05,0.003904,14.267,0.0056391,0.011465,4.9092e-08,0.62,0.5,0
0.029045,0.034791,0.011356,0.00079944,0.0036466,0.0033514,0,0,0.010022,-0.0037014,0,0.0087136,0,0,0,0.01233,-0.00017463,0.0036466,16.206,0.0052674,0.011099,4.3192e-08,0.64,0.5,0
0.029234,0.035454,0.0095453,0.00046778,0.0030039,0.0035284,0,0,0.0085038,-0.003297,0,0.0091739,0,0,0,0.010755,-0.00074238,0.0030039,18.931,0.004339,0.010157,3.0182e-08,0.66,0.5,0
0.029385,0.036061,0.0054517,-0.0019237,0.0010584,0.0024297,0,0,0.012317,-0.0080574,0,0.017265,0,0,0,0.0061971,-0.0026692,0.0010584,19.181,0.0015288,0.0077108,1.591e-08,0.68,0.5,0
0.029679,0.036744,0.012179,0.0012326,0.0040236,0.003908,0,0,0.039967,-0.011025,0,0.038996,0,0,0,0.013434,-2.2255e-05,0.0040236,18.137,0.0058118,0.011962,7.7836e-08,0.7,0.5,0
0.03149,0.037186,0.0096453,0.0018485,0.0034482,0.0027416,0,0,0.080563,-0.020795,0,0.071282,0,0,0,0.010513,0.00098102,0.0034482,17.559,0.0049807,0.0085689,2.3511e-08,0.72,0.5,0
0.032902,0.037599,0.0085179,0.0016586,0.003053,0.0024717,0,0,0.071045,-0.018127,0,0.064265,0,0,0,0.0093158,0.00086075,0.003053,17.89,0.0044098,0.0075999,1.6381e-08,0.74,0.5,0
0.034332,0.038204,0.0086251,0.0022759,0.0032703,0.0026169,0,0,0.069613,-0.012927,0,0.06804,0,0,0,0.0095647,0.0013363,0.0032703,19.75,0.0047238,0.007452,1.6526e-08,0.76,0.5,0
0.035686,0.038908,0.0084455,0.0023658,0.0032434,0.0026554,0,0,0.067627,-0.011409,0,0.069041,0,0,0,0.0094419,0.0013693,0.0032434,20.569,0.0046849,0.0073179,1.5764e-08,0.78,0.5,0
0.037037,0.039748,0.0084495,0.0024125,0.0032586,0.0027164,0,0,0.067482,-0.010999,0,0.070626,0,0,0,0.0094918,0.0013702,0.0032586,20.992,0.0047069,0.0073614,1.6032e-08,0.8,0.5,0
0.038385,0.040678,0.0084284,0.0023437,0.0032316,0.0026947,0,0,0.067558,-0.011543,0,0.070061,0,0,0,0.0094502,0.0013219,0.0032316,20.766,0.0046679,0.0073616,1.5935e-08,0.82,0.5,0
0.039739,0.041666,0.0084216,0.0023097,0.0032194,0.0026254,0,0,0.067629,-0.011826,0,0.068262,0,0,0,0.0093945,0.0013368,0.0032194,20.333,0.0046502,0.0073008,1.5595e-08,0.84,0.5,0
0.041091,0.042685,0.0083893,0.0023083,0.0032093,0.0025304,0,0,0.06734,-0.011712,0,0.065791,0,0,0,0.0093045,0.0013931,0.0032093,19.884,0.0046356,0.0071777,1.4972e-08,0.86,0.5,0
0.042433,0.043717,0.0083371,0.0023423,0.0032038,0.0024281,0,0,0.066732,-0.011199,0,0.063131,0,0,0,0.0091971,0.0014822,0.0032038,19.505,0.0046277,0.0070144,1.419e-08,0.88,0.5,0
0.04376,0.044753,0.0082708,0.0024132,0.0032052,0.0023277,0,0,0.065852,-0.010296,0,0.060521,0,0,0,0.0090831,0.0016009,0.0032052,19.238,0.0046297,0.006823,1.3323e-08,0.9,0.5,0
0.045067,0.04579,0.0081936,0.0025218,0.0032146,0.0022363,0,0,0.064727,-0.0090069,0,0.058145,0,0,0,0.0089693,0.0017461,0.0032146,19.129,0.0046433,0.0066124,1.2416e-08,0.92,0.5,0
0.046349,0.046827,0.0081072,0.0026683,0.0032326,0.0021609,0,0,0.063369,-0.0073361,0,0.056184,0,0,0,0.0088612,0.0019143,0.0032326,19.236,0.0046694,0.0063905,1.1505e-08,0.94,0.5,0
0.047601,0.047868,0.0080119,0.0028532,0.0032595,0.0021091,0,0,0.061781,-0.0052827,0,0.054837,0,0,0,0.0087644,0.0021006,0.0032595,19.636,0.0047082,0.0061666,1.0624e-08,0.96,0.5,0
0.04882,0.048922,0.007908,0.003077,0.0032955,0.0020901,0,0,0.059963,-0.002841,0,0.054344,0,0,0,0.0086868,0.0022982,0.0032955,20.435,0.0047602,0.0059529,9.8174e-09,0.98,0.5,0
0.05,0.05,0.0079417,0.0034036,0.0034036,0.0020738,0,0,0.058995,-3.9899e-17,0,0.05392,0,0,0,0.0087466,0.0025986,0.0034036,21.213,0.0049163,0.0057876,9.3109e-09,1,0.5,0
0,0,0.0063984,0.0027422,0.0027422,0.0011374,0,0,0.047531,-2.1684e-19,0,0.029572,0,0,0,0.0067234,0.0024172,0.0027422,15.944,0.0039609,0.0041532,3.6035e-09,0,0.52,0
0.00095062,0.00059145,0.0063799,0.0025341,0.0026742,0.001144,0,0,0.048174,-0.0018216,0,0.029745,0,0,0,0.0066945,0.0022195,0.0026742,15.375,0.0038627,0.0042658,3.8346e-09,0.02,0.52,0
0.001927,0.0012443,0.0064473,0.0023664,0.0026441,0.0012025,0,0,0.049441,-0.0036102,0,0.031264,0,0,0,0.0067752,0.0020384,0.0026441,15.256,0.0038193,0.0044649,4.2892e-09,0.04,0.52,0
0.0029283,0.0019547,0.0065117,0.0022037,0.0026146,0.0012508,0,0,0.050662,-0.0053425,0,0.03252,0,0,0,0.0068485,0.0018668,0.0026146,15.071,0.0037767,0.0046531,4.7269e-09,0.06,0.52,0
0.0039535,0.0027194,0.006572,0.0020474,0.0025858,0.0012899,0,0,0.05182,-0.006999,0,0.033537,0,0,0,0.0069139,0.0017055,0.0025858,14.845,0.0037351,0.0048287,5.1408e-09,0.08,0.52,0
0.0050011,0.0035356,0.0066268,0.0018991,0.0025578,0.0013206,0,0,0.052897,-0.0085627,0,0.034336,0,0,0,0.0069707,0.0015552,0.0025578,14.596,0.0036946,0.0049903,5.5243e-09,0.1,0.52,0
0.0060694,0.0044009,0.006675,0.0017598,0.0025304,0.0013437,0,0,0.053879,-0.010019,0,0.034935,0,0,0,0.0070183,0.0014164,0.0025304,14.333,0.0036551,0.0051363,5.871e-09,0.12,0.52,0
0.0071563,0.0053132,0.0067154,0.0016303,0.0025037,0.0013596,0,0,0.054752,-0.011354,0,0.035349,0,0,0,0.0070561,0.0012897,0.0025037,14.067,0.0036165,0.0052654,6.1749e-09,0.14,0.52,0
0.0082594,0.006271,0.0067466,0.0015115,0.0024774,0.0013691,0,0,0.055499,-0.012557,0,0.035596,0,0,0,0.007083,0.0011751,0.0024774,13.806,0.0035785,0.0053764,6.4304e-09,0.16,0.52,0
0.0093762,0.0072732,0.0067673,0.0014038,0.0024513,0.0013731,0,0,0.056108,-0.013618,0,0.0357,0,0,0,0.0070984,0.0010727,0.0024513,13.556,0.0035408,0.0054683,6.6328e-09,0.18,0.52,0
0.010504,0.0083192,0.0067759,0.0013071,0.0024249,0.0013726,0,0,0.056563,-0.014531,0,0.035687,0,0,0,0.0071011,0.00098194,0.0024249,13.328,0.0035026,0.0055404,6.7781e-09,0.2,0.52,0
0.011639,0.0094094,0.0067707,0.0012211,0.0023976,0.0013691,0,0,0.056851,-0.015294,0,0.035596,0,0,0,0.0070901,0.00090174,0.0023976,13.131,0.0034631,0.0055925,6.8638e-09,0.22,0.52,0
0.012778,0.010545,0.0067498,0.0011447,0.0023683,0.0013644,0,0,0.056959,-0.015908,0,0.035474,0,0,0,0.0070643,0.00083019,0.0023683,12.979,0.0034209,0.005625,6.8889e-09,0.24,0.52,0
0.013917,0.011727,0.0067112,0.0010755,0.002336,0.0013609,0,0,0.056877,-0.016386,0,0.035383,0,0,0,0.0070226,0.00076414,0.002336,12.889,0.0033743,0.0056393,6.8552e-09,0.26,0.52,0
0.015053,0.01296,0.0066528,0.00101,0.0022988,0.0013615,0,0,0.056602,-0.016755,0,0.0354,0,0,0,0.0069642,0.00069867,0.0022988,12.88,0.0033206,0.0056384,6.7676e-09,0.28,0.52,0
0.016181,0.014248,0.0065729,0.00094189,0.0022544,0.0013702,0,0,0.05614,-0.017063,0,0.035626,0,0,0,0.0068886,0.00062617,0.0022544,12.975,0.0032564,0.0056278,6.6371e-09,0.3,0.52,0
0.017299,0.015598,0.006471,0.00086104,0.0021996,0.0013914,0,0,0.055529,-0.017402,0,0.036176,0,0,0,0.0067972,0.00053492,0.0021996,13.191,0.0031772,0.005618,6.4836e-09,0.32,0.52,0
0.018402,0.017018,0.0063513,0.00075121,0.0021308,0.001429,0,0,0.054867,-0.017934,0,0.037153,0,0,0,0.0066949,0.00040767,0.0021308,13.518,0.0030778,0.0056271,6.3416e-09,0.34,0.52,0
0.019493,0.018514,0.006223,0.00058317,0.0020419,0.0014811,0,0,0.054355,-0.018963,0,0.038507,0,0,0,0.0065883,0.0002179,0.0020419,13.854,0.0029493,0.0056824,6.2541e-09,0.36,0.52,0
0.020577,0.02009,0.0060894,0.00030963,0.0019197,0.0015288,0,0,0.054205,-0.020931,0,0.039748,0,0,0,0.0064688,-6.9826e-05,0.0019197,13.94,0.0027729,0.0058054,6.2153e-09,0.38,0.52,0
0.021661,0.021735,0.0059491,-9.5545e-05,0.0017561,0.0015237,0,0,0.05451,-0.024071,0,0.039617,0,0,0,0.0063115,-0.00045793,0.0017561,13.378,0.0025365,0.0059782,6.1172e-09,0.4,0.52,0
0.022757,0.023414,0.005751,-0.00062274,0.0015385,0.0014182,0,0,0.054762,-0.028096,0,0.036872,0,0,0,0.0060523,-0.00092405,0.0015385,11.995,0.0022222,0.0061281,5.713e-09,0.42,0.52,0
0.023852,0.025079,0.0055151,-0.0011009,0.0013243,0.0011673,0,0,0.054481,-0.031527,0,0.030349,0,0,0,0.005715,-0.0013008,0.0013243,9.718,0.0019128,0.0061396,4.9863e-09,0.44,0.52,0
0.024936,0.026669,0.0050559,-0.0015719,0.0010452,0.0008558,0,0,0.052139,-0.034022,0,0.022251,0,0,0,0.0051646,-0.0016806,0.0010452,7.2401,0.0015097,0.0059689,3.7556e-09,0.46,0.52,0
0.025937,0.028173,0.0047737,-0.001857,0.000875,0.00036352,0,0,0.050683,-0.035516,0,0.0094516,0,0,0,0.0047935,-0.0018769,0.000875,3.1287,0.0012639,0.0058061,2.9892e-09,0.48,0.52,0
0.026963,0.029557,0.0058691,-0.0023492,0.001056,0.0009743,0,0,0.022967,-0.015108,0,0.0056815,0,0,0,0.0059944,-0.0024745,0.001056,5.6263,0.0015253,0.0073693,8.3481e-09,0.5,0.52,0
0.027139,0.030332,0.005252,-0.00085604,0.0013188,0.00095042,0,0,0.0092967,-0.010303,0,0.0056757,0,0,0,0.0053968,-0.0010008,0.0013188,8.2561,0.0019049,0.0056622,1.3278e-08,0.52,0.52,0
0.027335,0.031076,0.0060594,-0.00045924,0.00168,0.0012801,0,0,0.010351,-0.008043,0,0.01433,0,0,0,0.0063819,-0.00078179,0.00168,15.976,0.0024267,0.0063312,1.8094e-08,0.54,0.52,0
0.027554,0.03182,0.0067912,-4.6379e-05,0.0020234,0.0016988,0,0,0.011269,-0.0067446,0,0.021339,0,0,0,0.0073761,-0.00063129,0.0020234,19.88,0.0029228,0.0070878,2.4038e-08,0.56,0.52,0
0.027786,0.032557,0.0072926,0.00022946,0.0022566,0.0020751,0,0,0.011903,-0.0059455,0,0.027401,0,0,0,0.0081304,-0.00060837,0.0022566,22.062,0.0032596,0.0077403,2.9135e-08,0.58,0.52,0
0.02803,0.033285,0.0077049,0.00046237,0.0024502,0.0024667,0,0,0.01242,-0.0054376,0,0.033356,0,0,0,0.008806,-0.00063876,0.0024502,23.643,0.0035391,0.0083687,3.4258e-08,0.6,0.52,0
0.028283,0.034002,0.0081385,0.00069962,0.0026515,0.002909,0,0,0.01297,-0.0052333,0,0.039797,0,0,0,0.0095319,-0.00069375,0.0026515,24.928,0.0038299,0.0090649,4.0683e-08,0.62,0.52,0
0.028548,0.034703,0.0087881,0.00098862,0.002933,0.003483,0,0,0.013839,-0.005553,0,0.04752,0,0,0,0.010537,-0.00075995,0.002933,26.041,0.0042366,0.010023,5.2151e-08,0.64,0.52,0
0.028837,0.035379,0.010477,0.0018729,0.0037049,0.003751,0,0,0.016006,-0.0068196,0,0.055068,0,0,0,0.012389,-3.9572e-05,0.0037049,25.273,0.0053515,0.011135,7.5454e-08,0.66,0.52,0
0.029189,0.035875,0.013248,-0.00024499,0.0039008,0.0045535,0,0,0.042263,-0.012088,0,0.050955,0,0,0,0.014718,-0.0017159,0.0039008,18.965,0.0056345,0.014481,1.1244e-07,0.68,0.52,0
0.03102,0.036307,0.009445,0.0016588,0.0033311,0.0031949,0,0,0.07948,-0.021741,0,0.083068,0,0,0,0.010588,0.0005156,0.0033311,19.687,0.0048116,0.0090013,2.5474e-08,0.7,0.52,0
0.032368,0.036719,0.0080246,0.001357,0.0028145,0.00272,0,0,0.067732,-0.018947,0,0.070719,0,0,0,0.0089934,0.00038822,0.0028145,19.605,0.0040654,0.0076849,1.5717e-08,0.72,0.52,0
0.033729,0.037299,0.0081062,0.0019254,0.0030095,0.0027098,0,0,0.066257,-0.014093,0,0.070456,0,0,0,0.009126,0.00090558,0.0030095,20.623,0.004347,0.0073964,1.5253e-08,0.74,0.52,0
0.035018,0.037943,0.0079568,0.0021175,0.0030223,0.0026424,0,0,0.064149,-0.011763,0,0.068703,0,0,0,0.0089751,0.0010992,0.0030223,21.073,0.0043655,0.007112,1.4022e-08,0.76,0.52,0
0.036295,0.038697,0.0079848,0.0023315,0.0030949,0.0026738,0,0,0.063568,-0.0099235,0,0.069519,0,0,0,0.009049,0.0012673,0.0030949,21.704,0.0044704,0.007048,1.3987e-08,0.78,0.52,0
0.037561,0.039543,0.0079913,0.002386,0.0031132,0.0026873,0,0,0.063416,-0.0094534,0,0.06987,0,0,0,0.0090715,0.0013058,0.0031132,21.898,0.0044969,0.0070383,1.4005e-08,0.8,0.52,0
0.038832,0.04047,0.0080278,0.002396,0.0031271,0.002677,0,0,0.063709,-0.0095046,0,0.069603,0,0,0,0.0090972,0.0013266,0.0031271,21.776,0.004517,0.0070451,1.4082e-08,0.82,0.52,0
0.040109,0.041453,0.0080529,0.0023881,0.0031323,0.0026287,0,0,0.063968,-0.0096751,0,0.068346,0,0,0,0.0090848,0.0013562,0.0031323,21.432,0.0045244,0.0070114,1.3946e-08,0.84,0.52,0
0.041391,0.042472,0.0080634,0.0023991,0.0031387,0.0025559,0,0,0.06402,-0.0096156,0,0.066454,0,0,0,0.0090462,0.0014163,0.0031387,21.032,0.0045337,0.0069311,1.3606e-08,0.86,0.52,0
0.04267,0.043513,0.0080521,0.0024363,0.0031465,0.0024711,0,0,0.063773,-0.0092329,0,0.064248,0,0,0,0.0089846,0.0015038,0.0031465,20.675,0.004545,0.0068097,1.3092e-08,0.88,0.52,0
0.043942,0.044566,0.0080215,0.0025032,0.0031574,0.0023848,0,0,0.063233,-0.008505,0,0.062004,0,0,0,0.0089092,0.0016154,0.0031574,20.419,0.0045607,0.0066581,1.2462e-08,0.9,0.52,0
0.045199,0.045626,0.0079746,0.0026007,0.0031726,0.0023053,0,0,0.062426,-0.0074343,0,0.059936,0,0,0,0.008828,0.0017473,0.0031726,20.314,0.0045826,0.0064865,1.1768e-08,0.92,0.52,0
0.046439,0.046694,0.0079142,0.002729,0.003193,0.0022401,0,0,0.061376,-0.0060315,0,0.058243,0,0,0,0.008748,0.0018953,0.003193,20.414,0.0046121,0.0063048,1.1056e-08,0.94,0.52,0
0.047654,0.047773,0.0078426,0.0028873,0.003219,0.0021976,0,0,0.060107,-0.0043113,0,0.057137,0,0,0,0.0086767,0.0020532,0.003219,20.786,0.0046496,0.0061245,1.0372e-08,0.96,0.52,0
0.048843,0.04887,0.0077616,0.0030745,0.0032508,0.0021872,0,0,0.05864,-0.0022923,0,0.056866,0,0,0,0.0086236,0.0022124,0.0032508,21.512,0.0046956,0.0059602,9.7713e-09,0.98,0.52,0
0.05,0.05,0.0077888,0.0033381,0.0033381,0.0021725,0,0,0.05786,2.4178e-17,0,0.056484,0,0,0,0.0086734,0.0024535,0.0033381,22.155,0.0048216,0.0058282,9.383e-09,1,0.52,0
0,0,0.0062153,0.0026637,0.0026637,0.0010699,0,0,0.046171,4.3368e-19,0,0.027817,0,0,0,0.0065127,0.0023663,0.0026637,15.534,0.0038476,0.004006,3.2405e-09,0,0.54,0
0.00092342,0.00055634,0.0061981,0.0024696,0.0026003,0.0010773,0,0,0.046771,-0.0016989,0,0.028011,0,0,0,0.006487,0.0021807,0.0026003,15.012,0.003756,0.0041126,3.4473e-09,0.02,0.54,0
0.0018708,0.0011746,0.0062605,0.0023118,0.0025717,0.0011381,0,0,0.047954,-0.0033784,0,0.029591,0,0,0,0.0065651,0.0020073,0.0025717,14.981,0.0037147,0.0043034,3.8569e-09,0.04,0.54,0
0.0028416,0.0018514,0.0063199,0.0021579,0.0025434,0.0011902,0,0,0.049096,-0.0050107,0,0.030944,0,0,0,0.0066362,0.0018416,0.0025434,14.883,0.0036737,0.0044851,4.254e-09,0.06,0.54,0
0.0038347,0.002584,0.0063748,0.0020098,0.0025154,0.0012343,0,0,0.050173,-0.0065731,0,0.032092,0,0,0,0.0066997,0.0016849,0.0025154,14.745,0.0036333,0.0046554,4.6311e-09,0.08,0.54,0
0.0048485,0.0033699,0.0064239,0.0018688,0.0024878,0.0012713,0,0,0.051169,-0.0080469,0,0.033053,0,0,0,0.0067547,0.0015381,0.0024878,14.585,0.0035935,0.0048126,4.9815e-09,0.1,0.54,0
0.0058814,0.004207,0.0064659,0.0017363,0.0024606,0.0013017,0,0,0.052068,-0.0094166,0,0.033845,0,0,0,0.0068005,0.0014017,0.0024606,14.416,0.0035543,0.0049549,5.2986e-09,0.12,0.54,0
0.0069312,0.0050935,0.0064994,0.001613,0.0024337,0.0013263,0,0,0.052854,-0.010669,0,0.034485,0,0,0,0.0068362,0.0012762,0.0024337,14.248,0.0035154,0.0050811,5.5767e-09,0.14,0.54,0
0.0079956,0.0060282,0.0065232,0.0014996,0.0024068,0.0013459,0,0,0.053513,-0.011794,0,0.034992,0,0,0,0.0068611,0.0011617,0.0024068,14.091,0.0034765,0.00519,5.8108e-09,0.16,0.54,0
0.0090717,0.00701,0.006536,0.0013962,0.0023797,0.0013613,0,0,0.054032,-0.012785,0,0.035393,0,0,0,0.0068742,0.0010579,0.0023797,13.955,0.0034373,0.005281,5.9968e-09,0.18,0.54,0
0.010157,0.0080385,0.0065362,0.0013027,0.0023517,0.0013737,0,0,0.054399,-0.013637,0,0.035717,0,0,0,0.0068749,0.000964,0.0023517,13.849,0.0033968,0.0053537,6.132e-09,0.2,0.54,0
0.011248,0.009114,0.0065224,0.0012182,0.0023222,0.0013848,0,0,0.054603,-0.014352,0,0.036006,0,0,0,0.0068622,0.00087843,0.0023222,13.786,0.0033543,0.0054084,6.2152e-09,0.22,0.54,0
0.012341,0.010238,0.0064932,0.0011413,0.0022903,0.0013965,0,0,0.054637,-0.014938,0,0.036308,0,0,0,0.0068356,0.0007988,0.0022903,13.779,0.0033083,0.0054465,6.2475e-09,0.24,0.54,0
0.013433,0.011411,0.0064469,0.0010692,0.0022548,0.001411,0,0,0.054498,-0.015414,0,0.036686,0,0,0,0.0067947,0.00072142,0.0022548,13.844,0.003257,0.0054702,6.2328e-09,0.26,0.54,0
0.014521,0.012636,0.0063827,0.00099757,0.0022141,0.0014313,0,0,0.054192,-0.015815,0,0.037214,0,0,0,0.0067395,0.00064078,0.0022141,13.997,0.0031981,0.005484,6.1792e-09,0.28,0.54,0
0.015601,0.013918,0.0063002,0.00091987,0.002166,0.0014605,0,0,0.053744,-0.0162,0,0.037972,0,0,0,0.0066711,0.000549,0.002166,14.249,0.0031287,0.005495,6.0997e-09,0.3,0.54,0
0.016671,0.01526,0.006201,0.00082591,0.0021081,0.0015012,0,0,0.053208,-0.016668,0,0.039031,0,0,0,0.0065919,0.00043506,0.0021081,14.593,0.003045,0.0055141,6.0137e-09,0.32,0.54,0
0.017729,0.016667,0.006089,0.00070022,0.0020368,0.0015538,0,0,0.052679,-0.017375,0,0.040398,0,0,0,0.0065049,0.00028431,0.0020368,14.985,0.002942,0.0055557,5.9433e-09,0.34,0.54,0
0.018778,0.018141,0.0059683,0.00052081,0.0019467,0.0016121,0,0,0.052281,-0.018537,0,0.041915,0,0,0,0.0064097,7.9486e-05,0.0019467,15.31,0.002812,0.0056336,5.8975e-09,0.36,0.54,0
0.01982,0.019679,0.0058406,0.00026601,0.001832,0.0016585,0,0,0.052112,-0.020358,0,0.043121,0,0,0,0.0062967,-0.0001901,0.001832,15.377,0.0026462,0.005749,5.8453e-09,0.38,0.54,0
0.020862,0.021268,0.005693,-7.5023e-05,0.0016854,0.0016657,0,0,0.052099,-0.022886,0,0.043307,0,0,0,0.0061395,-0.00052147,0.0016854,15.004,0.0024345,0.005877,5.6881e-09,0.4,0.54,0
0.021904,0.022883,0.0055107,-0.00046818,0.0015127,0.0016028,0,0,0.051973,-0.025752,0,0.041673,0,0,0,0.0059132,-0.00087075,0.0015127,14.099,0.0021851,0.005961,5.3109e-09,0.42,0.54,0
0.022941,0.024487,0.0052418,-0.00087658,0.0013096,0.0014684,0,0,0.051119,-0.02842,0,0.03818,0,0,0,0.005576,-0.0012108,0.0013096,12.821,0.0018916,0.005942,4.6128e-09,0.44,0.54,0
0.023949,0.026047,0.0048887,-0.0012087,0.001104,0.0012591,0,0,0.049201,-0.030065,0,0.032736,0,0,0,0.0051385,-0.0014585,0.001104,11.22,0.0015947,0.0057603,3.6809e-09,0.46,0.54,0
0.024909,0.027522,0.0042545,-0.0015908,0.00079912,0.0010565,0,0,0.04492,-0.031068,0,0.027469,0,0,0,0.0044396,-0.0017759,0.00079912,9.9371,0.0011543,0.005409,2.3705e-09,0.48,0.54,0
0.025746,0.02891,0.0035865,-0.0019703,0.00048484,0.00060365,0,0,0.040321,-0.031917,0,0.015695,0,0,0,0.0036513,-0.0020351,0.00048484,6.129,0.00070033,0.0049352,1.2061e-09,0.5,0.54,0
0.026522,0.03,0.003211,-0.0010623,0.00064463,0.0007522,0,0,0.033363,-0.022189,0,0.019557,0,0,0,0.0033395,-0.0011908,0.00064463,9.6973,0.00093113,0.0039468,1.0152e-09,0.52,0.54,0
0.027081,0.030843,0.002579,-0.00066986,0.00057275,0.0010506,0,0,0.026082,-0.016154,0,0.027315,0,0,0,0.0028892,-0.00097999,0.00057275,16.446,0.00082731,0.0033725,6.577e-10,0.54,0.54,0
0.027565,0.03164,0.0024523,-0.00037501,0.00062318,0.0014594,0,0,0.023778,-0.012976,0,0.037945,0,0,0,0.0030704,-0.00099319,0.00062318,22.956,0.00090014,0.0035437,7.8911e-10,0.56,0.54,0
0.028032,0.03241,0.0025205,-0.00013859,0.00071457,0.0018427,0,0,0.023477,-0.011091,0,0.047911,0,0,0,0.0034632,-0.0010813,0.00071457,27.095,0.0010321,0.0039644,1.1314e-09,0.58,0.54,0
0.028504,0.033158,0.0026973,4.5226e-05,0.00082275,0.0022181,0,0,0.024369,-0.010108,0,0.057672,0,0,0,0.0039555,-0.001213,0.00082275,29.564,0.0011884,0.0045096,1.6848e-09,0.6,0.54,0
0.029006,0.033882,0.0030074,0.00018847,0.00095877,0.0025982,0,0,0.026633,-0.010014,0,0.067554,0,0,0,0.0045539,-0.001358,0.00095877,30.761,0.0013849,0.0051596,2.5681e-09,0.62,0.54,0
0.02957,0.034569,0.0035933,0.0003188,0.0011736,0.0029807,0,0,0.031456,-0.011113,0,0.077498,0,0,0,0.0053568,-0.0014447,0.0011736,30.61,0.0016952,0.005942,4.1581e-09,0.64,0.54,0
0.030265,0.035181,0.0047017,0.00042847,0.001539,0.0032089,0,0,0.041114,-0.014437,0,0.08343,0,0,0,0.0064202,-0.00129,0.001539,28.171,0.0022231,0.0067556,6.9931e-09,0.66,0.54,0
0.031214,0.035521,0.0054499,0.00057899,0.0018087,0.0035047,0,0,0.047336,-0.015986,0,0.091122,0,0,0,0.0072823,-0.0012534,0.0018087,27.602,0.0026125,0.0074898,1.0062e-08,0.68,0.54,0
0.032158,0.035875,0.0061883,0.00090035,0.0021266,0.0028846,0,0,0.052802,-0.015941,0,0.074999,0,0,0,0.0074573,-0.00036866,0.0021266,23.746,0.0030717,0.0069241,9.8875e-09,0.7,0.54,0
0.033326,0.036429,0.0071203,0.001631,0.0026254,0.0027929,0,0,0.058433,-0.012927,0,0.072615,0,0,0,0.0082914,0.00045988,0.0026254,22.75,0.0037922,0.0070045,1.213e-08,0.72,0.54,0
0.034495,0.037035,0.0072667,0.0018556,0.0027367,0.0026471,0,0,0.05889,-0.011454,0,0.068826,0,0,0,0.0083463,0.00077596,0.0027367,22.187,0.003953,0.0068052,1.1771e-08,0.74,0.54,0
0.035682,0.037734,0.007428,0.0021292,0.0028672,0.0026224,0,0,0.059291,-0.0095934,0,0.068183,0,0,0,0.0085064,0.0010508,0.0028672,22.354,0.0041414,0.0067337,1.1919e-08,0.76,0.54,0
0.036867,0.038511,0.007508,0.0022809,0.0029366,0.0026183,0,0,0.059427,-0.008525,0,0.068075,0,0,0,0.0085939,0.001195,0.0029366,22.526,0.0042418,0.0067,1.2e-08,0.78,0.54,0
0.038059,0.03937,0.0075923,0.0023775,0.0029909,0.0026292,0,0,0.059817,-0.0079741,0,0.06836,0,0,0,0.0086877,0.001282,0.0029909,22.62,0.0043202,0.0067163,1.223e-08,0.8,0.54,0
0.03926,0.040297,0.0076611,0.0024186,0.0030239,0.002623,0,0,0.060284,-0.0078692,0,0.068197,0,0,0,0.0087481,0.0013316,0.0030239,22.509,0.0043679,0.0067318,1.2393e-08,0.82,0.54,0
0.04047,0.041279,0.0077194,0.002443,0.0030487,0.0025941,0,0,0.060719,-0.0078747,0,0.067445,0,0,0,0.0087811,0.0013813,0.0030487,22.258,0.0044037,0.006723,1.243e-08,0.84,0.54,0
0.041689,0.0423,0.0077584,0.0024702,0.0030686,0.0025438,0,0,0.060968,-0.0077788,0,0.066139,0,0,0,0.0087834,0.0014452,0.0030686,21.946,0.0044324,0.0066762,1.229e-08,0.86,0.54,0
0.042909,0.043347,0.0077763,0.0025139,0.0030871,0.0024805,0,0,0.06096,-0.007451,0,0.064493,0,0,0,0.0087612,0.001529,0.0030871,21.656,0.0044591,0.0065927,1.1992e-08,0.88,0.54,0
0.044127,0.044413,0.0077731,0.0025791,0.0031057,0.0024128,0,0,0.060677,-0.0068452,0,0.062733,0,0,0,0.008721,0.0016313,0.0031057,21.447,0.004486,0.0064796,1.157e-08,0.9,0.54,0
0.045336,0.045493,0.0077512,0.0026677,0.0031257,0.0023489,0,0,0.060132,-0.005954,0,0.061072,0,0,0,0.0086704,0.0017485,0.0031257,21.371,0.0045149,0.0063464,1.1073e-08,0.92,0.54,0
0.046532,0.046586,0.0077136,0.0027793,0.0031479,0.0022969,0,0,0.059354,-0.0047909,0,0.059719,0,0,0,0.0086173,0.0018757,0.0031479,21.477,0.0045469,0.0062041,1.0547e-08,0.94,0.54,0
0.04771,0.047696,0.0076633,0.0029126,0.0031727,0.0022649,0,0,0.058377,-0.0033822,0,0.058889,0,0,0,0.00857,0.0020058,0.0031727,21.819,0.0045829,0.0060655,1.0046e-08,0.96,0.54,0
0.048867,0.04883,0.0076036,0.0030645,0.0032004,0.0022626,0,0,0.057241,-0.0017667,0,0.058829,0,0,0,0.0085388,0.0021293,0.0032004,22.456,0.0046229,0.0059467,9.6302e-09,0.98,0.54,0
0.05,0.05,0.0076245,0.0032676,0.0032676,0.0022502,0,0,0.056639,-2.6997e-17,0,0.058504,0,0,0,0.008578,0.0023142,0.0032676,22.964,0.0047199,0.0058457,9.3462e-09,1,0.54,0
0,0,0.006034,0.002586,0.002586,0.0010067,0,0,0.044824,1.4095e-18,0,0.026174,0,0,0,0.0063064,0.0023136,0.002586,15.141,0.0037354,0.0038638,2.913e-09,0,0.56,0
0.00089649,0.00052349,0.0060179,0.0024036,0.0025264,0.0010151,0,0,0.045388,-0.0015968,0,0.026392,0,0,0,0.0062834,0.002138,0.0025264,14.662,0.0036493,0.0039655,3.0993e-09,0.02,0.56,0
0.0018155,0.0011091,0.0060763,0.0022541,0.0024991,0.0010782,0,0,0.046503,-0.0031848,0,0.028033,0,0,0,0.0063594,0.001971,0.0024991,14.716,0.0036098,0.0041497,3.4704e-09,0.04,0.56,0
0.0027566,0.0017543,0.0061316,0.0021077,0.0024718,0.0011341,0,0,0.047578,-0.0047331,0,0.029487,0,0,0,0.0064293,0.0018101,0.0024718,14.705,0.0035704,0.0043264,3.8333e-09,0.06,0.56,0
0.0037186,0.0024565,0.0061823,0.0019664,0.0024446,0.0011836,0,0,0.04859,-0.0062172,0,0.030773,0,0,0,0.0064919,0.0016568,0.0024446,14.657,0.0035311,0.0044933,4.1805e-09,0.08,0.56,0
0.0047002,0.0032137,0.006227,0.0018316,0.0024176,0.0012272,0,0,0.049522,-0.0076173,0,0.031906,0,0,0,0.0065464,0.0015122,0.0024176,14.589,0.0034921,0.0046481,4.505e-09,0.1,0.56,0
0.0056995,0.0040242,0.0062643,0.0017047,0.0023907,0.0012654,0,0,0.050356,-0.0089179,0,0.032902,0,0,0,0.0065919,0.001377,0.0023907,14.517,0.0034532,0.0047892,4.8008e-09,0.12,0.56,0
0.0067145,0.0048864,0.006293,0.0015863,0.0023638,0.0012991,0,0,0.051079,-0.010107,0,0.033778,0,0,0,0.0066277,0.0012516,0.0023638,14.45,0.0034144,0.0049154,5.0625e-09,0.14,0.56,0
0.0077427,0.0057992,0.0063119,0.001477,0.0023367,0.001329,0,0,0.051678,-0.011176,0,0.034554,0,0,0,0.0066531,0.0011358,0.0023367,14.4,0.0033752,0.0050257,5.2857e-09,0.16,0.56,0
0.0087816,0.0067618,0.0063198,0.0013767,0.0023089,0.001356,0,0,0.052141,-0.012119,0,0.035256,0,0,0,0.0066673,0.0010291,0.0023089,14.376,0.0033351,0.0051197,5.4674e-09,0.18,0.56,0
0.0098283,0.0077737,0.0063155,0.0012849,0.0022801,0.0013814,0,0,0.05246,-0.012938,0,0.035917,0,0,0,0.0066699,0.00093051,0.0022801,14.388,0.0032935,0.0051977,5.606e-09,0.2,0.56,0
0.01088,0.0088353,0.006298,0.0012005,0.0022495,0.0014068,0,0,0.052629,-0.013637,0,0.036575,0,0,0,0.0066604,0.00083807,0.0022495,14.448,0.0032493,0.0052606,5.7017e-09,0.22,0.56,0
0.011933,0.0099471,0.0062661,0.0011217,0.0022163,0.0014338,0,0,0.052647,-0.014231,0,0.03728,0,0,0,0.0066388,0.00074902,0.0022163,14.568,0.0032014,0.0053104,5.7574e-09,0.24,0.56,0
0.012986,0.011111,0.0062194,0.0010453,0.0021794,0.0014649,0,0,0.052519,-0.014743,0,0.038086,0,0,0,0.0066053,0.00065933,0.0021794,14.76,0.003148,0.0053504,5.7785e-09,0.26,0.56,0
0.014034,0.012327,0.0061575,0.00096676,0.0021373,0.0015021,0,0,0.052263,-0.015217,0,0.039054,0,0,0,0.0065609,0.00056343,0.0021373,15.03,0.0030872,0.0053858,5.774e-09,0.28,0.56,0
0.015076,0.0136,0.0060815,0.00087954,0.0020883,0.0015476,0,0,0.051911,-0.015714,0,0.040238,0,0,0,0.0065071,0.00045394,0.0020883,15.377,0.0030164,0.0054239,5.7564e-09,0.3,0.56,0
0.016111,0.014932,0.0059933,0.00077428,0.0020303,0.0016024,0,0,0.05152,-0.016328,0,0.041663,0,0,0,0.0064461,0.00032156,0.0020303,15.776,0.0029326,0.005474,5.7397e-09,0.32,0.56,0
0.017137,0.016323,0.005896,0.00063864,0.0019604,0.0016647,0,0,0.051163,-0.017183,0,0.043283,0,0,0,0.0063788,0.00015585,0.0019604,16.173,0.0028317,0.0055454,5.734e-09,0.34,0.56,0
0.018157,0.017773,0.005792,0.00045883,0.0018753,0.0017278,0,0,0.050918,-0.018414,0,0.044923,0,0,0,0.0063029,-5.2011e-05,0.0018753,16.471,0.0027087,0.0056437,5.734e-09,0.36,0.56,0
0.019174,0.019276,0.00568,0.00022374,0.0017711,0.0017791,0,0,0.050815,-0.020116,0,0.046256,0,0,0,0.0062088,-0.00030509,0.0017711,16.555,0.0025583,0.0057635,5.7051e-09,0.38,0.56,0
0.02019,0.02082,0.0055537,-6.4858e-05,0.0016467,0.0018014,0,0,0.050792,-0.02225,0,0.046836,0,0,0,0.0060817,-0.00059279,0.0016467,16.334,0.0023785,0.0058836,5.5835e-09,0.4,0.56,0
0.021206,0.022384,0.0053972,-0.0003912,0.0015018,0.0017821,0,0,0.05064,-0.024609,0,0.046333,0,0,0,0.0059018,-0.00089584,0.0015018,15.811,0.0021693,0.0059715,5.2947e-09,0.42,0.56,0
0.022215,0.023942,0.0052002,-0.00071737,0.0013449,0.0017164,0,0,0.05012,-0.026809,0,0.044627,0,0,0,0.005662,-0.0011792,0.0013449,15.059,0.0019426,0.0059921,4.812e-09,0.44,0.56,0
0.02321,0.025466,0.0049361,-0.0010322,0.0011712,0.0016243,0,0,0.048944,-0.028643,0,0.042231,0,0,0,0.0053495,-0.0014456,0.0011712,14.28,0.0016917,0.0059363,4.1416e-09,0.46,0.56,0
0.024173,0.02693,0.00468,-0.0012745,0.0010217,0.0014979,0,0,0.047559,-0.02985,0,0.038946,0,0,0,0.0050356,-0.0016301,0.0010217,13.354,0.0014757,0.0058127,3.481e-09,0.48,0.56,0
0.025113,0.02828,0.0043014,-0.0016015,0.00080997,0.0013577,0,0,0.045388,-0.031349,0,0.0353,0,0,0,0.0045987,-0.0018988,0.00080997,12.351,0.00117,0.0056528,2.6263e-09,0.5,0.56,0
0.025989,0.029445,0.0039773,-0.0014603,0.0007551,0.0011906,0,0,0.041888,-0.0288,0,0.030954,0,0,0,0.0042265,-0.0017095,0.0007551,11.824,0.0010907,0.0051654,2.0433e-09,0.52,0.56,0
0.026788,0.03043,0.0037412,-0.00098457,0.00082698,0.0012576,0,0,0.037885,-0.02355,0,0.032697,0,0,0,0.004055,-0.0012984,0.00082698,14.012,0.0011945,0.0046689,1.8173e-09,0.54,0.56,0
0.027504,0.031301,0.0035433,-0.00068025,0.00085892,0.0014683,0,0,0.034897,-0.020009,0,0.038176,0,0,0,0.0040036,-0.0011405,0.00085892,17.405,0.0012407,0.0044916,1.7414e-09,0.56,0.56,0
0.028184,0.032113,0.0035454,-0.00044385,0.00093048,0.0017348,0,0,0.033995,-0.017866,0,0.045104,0,0,0,0.0041943,-0.0010927,0.00093048,20.507,0.001344,0.0046205,1.9915e-09,0.58,0.56,0
0.028864,0.032881,0.0037082,-0.00025927,0.0010347,0.0020018,0,0,0.034756,-0.016821,0,0.052046,0,0,0,0.0045427,-0.0010937,0.0010347,22.63,0.0014946,0.0049298,2.5156e-09,0.6,0.56,0
0.029574,0.033602,0.0040318,-0.00011454,0.0011752,0.0022415,0,0,0.037136,-0.016766,0,0.05828,0,0,0,0.0050119,-0.0010946,0.0011752,23.617,0.0016975,0.0053462,3.3514e-09,0.62,0.56,0
0.030349,0.034259,0.0045233,-1.5912e-06,0.0013565,0.0023932,0,0,0.041168,-0.017655,0,0.062224,0,0,0,0.0055542,-0.0010325,0.0013565,23.305,0.0019594,0.0057755,4.4959e-09,0.64,0.56,0
0.031221,0.034801,0.0049459,6.081e-05,0.001502,0.0024107,0,0,0.044771,-0.018736,0,0.062678,0,0,0,0.0059352,-0.00092846,0.001502,22.312,0.0021696,0.0060279,5.3998e-09,0.66,0.56,0
0.03214,0.035236,0.0055284,0.00077373,0.0018906,0.0023167,0,0,0.047291,-0.01452,0,0.060234,0,0,0,0.0064705,-0.00016841,0.0018906,22.13,0.0027309,0.005886,6.3169e-09,0.68,0.56,0
0.033113,0.03567,0.0060254,0.0014187,0.0022332,0.0024327,0,0,0.049298,-0.010589,0,0.063251,0,0,0,0.0070722,0.00037187,0.0022332,23.282,0.0032258,0.0059906,7.5545e-09,0.7,0.56,0
0.034112,0.036202,0.0063618,0.0016106,0.0023917,0.0024548,0,0,0.051611,-0.010155,0,0.063826,0,0,0,0.0074022,0.00057007,0.0023917,22.97,0.0034547,0.0061279,8.3926e-09,0.72,0.56,0
0.035177,0.036841,0.0067416,0.0019046,0.0025939,0.0024802,0,0,0.053921,-0.0089607,0,0.064486,0,0,0,0.0077873,0.0008589,0.0025939,22.861,0.0037467,0.0062444,9.327e-09,0.74,0.56,0
0.036269,0.03756,0.0069557,0.0020985,0.0027163,0.0024893,0,0,0.055113,-0.0080309,0,0.064721,0,0,0,0.0080049,0.0010494,0.0027163,22.853,0.0039235,0.0062899,9.8188e-09,0.76,0.56,0
0.037382,0.038356,0.0071213,0.0022563,0.0028133,0.0025137,0,0,0.056004,-0.0072411,0,0.065356,0,0,0,0.0081868,0.0011908,0.0028133,22.97,0.0040636,0.0063423,1.0269e-08,0.78,0.56,0
0.038509,0.039224,0.0072444,0.0023583,0.0028808,0.0025344,0,0,0.056727,-0.006793,0,0.065895,0,0,0,0.0083215,0.0012811,0.0028808,23.026,0.0041611,0.0063925,1.0637e-08,0.8,0.56,0
0.039651,0.040155,0.007346,0.0024259,0.0029316,0.0025436,0,0,0.057388,-0.006574,0,0.066133,0,0,0,0.0084245,0.0013473,0.0029316,22.978,0.0042345,0.0064331,1.0929e-08,0.82,0.56,0
0.040805,0.041138,0.0074262,0.0024736,0.0029699,0.0025339,0,0,0.057931,-0.0064525,0,0.065882,0,0,0,0.0084929,0.0014069,0.0029699,22.829,0.0042899,0.0064481,1.109e-08,0.84,0.56,0
0.041968,0.042161,0.0074856,0.0025186,0.0030013,0.0025063,0,0,0.058297,-0.0062748,0,0.065164,0,0,0,0.0085305,0.0014737,0.0030013,22.631,0.0043351,0.0064305,1.1103e-08,0.86,0.56,0
0.043137,0.043215,0.0075231,0.0025713,0.0030283,0.0024654,0,0,0.058432,-0.0059411,0,0.0641,0,0,0,0.0085412,0.0015532,0.0030283,22.439,0.0043742,0.0063797,1.097e-08,0.88,0.56,0
0.044305,0.044292,0.0075394,0.0026378,0.0030532,0.0024181,0,0,0.058321,-0.0054,0,0.06287,0,0,0,0.0085315,0.0016457,0.0030532,22.307,0.0044101,0.0063011,1.0719e-08,0.9,0.56,0
0.045469,0.045388,0.0075364,0.00272,0.0030769,0.0023718,0,0,0.057973,-0.0046397,0,0.061665,0,0,0,0.0085082,0.0017482,0.0030769,22.282,0.0044444,0.0062033,1.0389e-08,0.92,0.56,0
0.046624,0.046502,0.007517,0.0028177,0.0031004,0.0023341,0,0,0.057416,-0.0036749,0,0.060687,0,0,0,0.0084793,0.0018555,0.0031004,22.405,0.0044784,0.0060975,1.0027e-08,0.94,0.56,0
0.047766,0.047637,0.0074848,0.0029286,0.003124,0.0023133,0,0,0.05669,-0.0025401,0,0.060145,0,0,0,0.0084534,0.00196,0.003124,22.72,0.0045125,0.0059967,9.6838e-09,0.96,0.56,0
0.048892,0.0488,0.0074439,0.0030486,0.0031477,0.0023182,0,0,0.05585,-0.0012891,0,0.060275,0,0,0,0.0084406,0.0020518,0.0031477,23.265,0.0045467,0.0059174,9.4232e-09,0.98,0.56,0
0.05,0.05,0.0074589,0.0031967,0.0031967,0.0023084,0,0,0.055409,-2.0757e-16,0,0.060018,0,0,0,0.0084694,0.0021861,0.0031967,23.643,0.0046174,0.005844,9.2258e-09,1,0.56,0
0,0,0.0058555,0.0025095,0.0025095,0.00094705,0,0,0.043498,1.0842e-19,0,0.024623,0,0,0,0.0061049,0.00226,0.0025095,14.757,0.0036248,0.0037265,2.6176e-09,0,0.58,0
0.00086996,0.00049246,0.0058401,0.0023361,0.0024529,0.00095637,0,0,0.044034,-0.0015177,0,0.024865,0,0,0,0.0060842,0.0020921,0.0024529,14.314,0.0035431,0.0038245,2.787e-09,0.02,0.58,0
0.0017614,0.0010472,0.0058955,0.0021933,0.0024266,0.0010218,0,0,0.045095,-0.0030337,0,0.026566,0,0,0,0.0061587,0.00193,0.0024266,14.449,0.0035051,0.0040036,3.1256e-09,0.04,0.58,0
0.0026738,0.0016621,0.0059478,0.0020528,0.0024002,0.0010817,0,0,0.046119,-0.0045155,0,0.028123,0,0,0,0.006228,0.0017726,0.0024002,14.524,0.0034669,0.0041771,3.4602e-09,0.06,0.58,0
0.0036061,0.0023353,0.0059955,0.001917,0.0023737,0.0011365,0,0,0.047082,-0.0059378,0,0.02955,0,0,0,0.0062908,0.0016216,0.0023737,14.566,0.0034287,0.0043422,3.7832e-09,0.08,0.58,0
0.0045571,0.0030652,0.0060371,0.0017872,0.0023473,0.0011868,0,0,0.047967,-0.0072807,0,0.030858,0,0,0,0.006346,0.0014782,0.0023473,14.592,0.0033905,0.0044967,4.0881e-09,0.1,0.58,0
0.0055248,0.0038503,0.0060714,0.0016647,0.0023208,0.0012331,0,0,0.048757,-0.0085293,0,0.03206,0,0,0,0.0063929,0.0013432,0.0023208,14.617,0.0033523,0.0046389,4.3691e-09,0.12,0.58,0
0.0065073,0.0046893,0.0060972,0.0015501,0.0022942,0.0012758,0,0,0.049439,-0.0096728,0,0.033171,0,0,0,0.0064307,0.0012166,0.0022942,14.65,0.0033139,0.0047675,4.6214e-09,0.14,0.58,0
0.0075024,0.0055811,0.0061136,0.0014437,0.0022672,0.0013158,0,0,0.050003,-0.010705,0,0.034212,0,0,0,0.0064589,0.0010985,0.0022672,14.702,0.0032749,0.0048821,4.8414e-09,0.16,0.58,0
0.0085075,0.0065252,0.0061196,0.0013453,0.0022395,0.0013541,0,0,0.050441,-0.011624,0,0.035206,0,0,0,0.0064769,0.00098803,0.0022395,14.782,0.0032348,0.0049824,5.0269e-09,0.18,0.58,0
0.00952,0.007521,0.0061142,0.0012542,0.0022105,0.0013917,0,0,0.050748,-0.012432,0,0.036184,0,0,0,0.0064845,0.00088388,0.0022105,14.9,0.003193,0.0050692,5.1775e-09,0.2,0.58,0
0.010537,0.0085685,0.006097,0.0011689,0.0021798,0.0014301,0,0,0.050924,-0.013141,0,0.037182,0,0,0,0.0064819,0.00078396,0.0021798,15.065,0.0031485,0.0051441,5.2944e-09,0.22,0.58,0
0.011557,0.0096682,0.0060673,0.0010873,0.0021464,0.0014709,0,0,0.050972,-0.013768,0,0.038242,0,0,0,0.0064693,0.00068531,0.0021464,15.285,0.0031003,0.0052095,5.3815e-09,0.24,0.58,0
0.012576,0.010821,0.0060253,0.0010061,0.0021094,0.0015158,0,0,0.050907,-0.014343,0,0.03941,0,0,0,0.0064476,0.00058389,0.0021094,15.566,0.003047,0.0052692,5.4447e-09,0.26,0.58,0
0.013593,0.012027,0.0059716,0.00092088,0.0020678,0.0015664,0,0,0.05075,-0.014909,0,0.040727,0,0,0,0.006418,0.00047452,0.0020678,15.905,0.0029867,0.0053286,5.4927e-09,0.28,0.58,0
0.014606,0.013289,0.0059076,0.00082545,0.0020199,0.0016239,0,0,0.05054,-0.015528,0,0.042222,0,0,0,0.0063822,0.00035087,0.0020199,16.291,0.0029176,0.0053941,5.5353e-09,0.3,0.58,0
0.015615,0.014607,0.0058354,0.00071202,0.0019642,0.0016881,0,0,0.050325,-0.016279,0,0.043889,0,0,0,0.0063415,0.00020584,0.0019642,16.692,0.0028372,0.0054726,5.5815e-09,0.32,0.58,0
0.016619,0.015979,0.0057574,0.00057159,0.0018987,0.0017563,0,0,0.050164,-0.017253,0,0.045663,0,0,0,0.0062962,3.2783e-05,0.0018987,17.055,0.0027426,0.0055701,5.6344e-09,0.34,0.58,0
0.017621,0.017404,0.0056755,0.00039552,0.0018213,0.0018228,0,0,0.050105,-0.018535,0,0.047392,0,0,0,0.0062436,-0.00017262,0.0018213,17.311,0.0026308,0.0056878,5.6845e-09,0.36,0.58,0
0.018624,0.018875,0.0055892,0.00017908,0.0017305,0.0018786,0,0,0.050163,-0.020168,0,0.048842,0,0,0,0.0061775,-0.00040923,0.0017305,17.389,0.0024996,0.0058198,5.705e-09,0.38,0.58,0
0.019628,0.020378,0.0054946,-7.531e-05,0.0016258,0.0019135,0,0,0.050294,-0.022114,0,0.049751,0,0,0,0.0060886,-0.00066933,0.0016258,17.246,0.0023484,0.0059521,5.6548e-09,0.4,0.58,0
0.020635,0.021899,0.0053872,-0.00035456,0.0015098,0.0019196,0,0,0.050406,-0.024236,0,0.049909,0,0,0,0.0059698,-0.00093719,0.0015098,16.884,0.0021808,0.0060657,5.4965e-09,0.42,0.58,0
0.021644,0.023414,0.0052608,-0.00064256,0.0013855,0.0018959,0,0,0.050379,-0.026364,0,0.049293,0,0,0,0.0058172,-0.001199,0.0013855,16.357,0.0020012,0.006146,5.2138e-09,0.44,0.58,0
0.02265,0.024901,0.0051265,-0.00091564,0.0012633,0.0018418,0,0,0.050222,-0.028326,0,0.047888,0,0,0,0.0056437,-0.0014328,0.0012633,15.685,0.0018247,0.006186,4.8428e-09,0.46,0.58,0
0.023653,0.026328,0.004967,-0.0011872,0.0011339,0.0017574,0,0,0.04983,-0.030175,0,0.045691,0,0,0,0.0054335,-0.0016537,0.0011339,14.866,0.0016379,0.006184,4.3656e-09,0.48,0.58,0
0.024644,0.027656,0.0047841,-0.0013836,0.0010202,0.0016243,0,0,0.048932,-0.031249,0,0.042231,0,0,0,0.0051857,-0.0017852,0.0010202,13.888,0.0014736,0.0060752,3.803e-09,0.5,0.58,0
0.02561,0.028848,0.0046047,-0.0013628,0.00097258,0.0015036,0,0,0.047218,-0.03036,0,0.039094,0,0,0,0.0049622,-0.0017202,0.00097258,13.373,0.0014048,0.0058233,3.3319e-09,0.52,0.58,0
0.026532,0.029901,0.0044496,-0.0011512,0.00098952,0.0014588,0,0,0.044981,-0.02783,0,0.037928,0,0,0,0.0048068,-0.0015084,0.00098952,13.758,0.0014293,0.0055087,3.0255e-09,0.54,0.58,0
0.027409,0.030839,0.0043565,-0.00088444,0.0010416,0.0015255,0,0,0.043094,-0.025039,0,0.039662,0,0,0,0.0047682,-0.0012961,0.0010416,15.103,0.0015046,0.0052976,2.934e-09,0.56,0.58,0
0.028256,0.031695,0.0043555,-0.00066044,0.0011085,0.0016551,0,0,0.042211,-0.022996,0,0.043032,0,0,0,0.0048524,-0.0011573,0.0011085,16.711,0.0016012,0.0052568,3.0637e-09,0.58,0.58,0
0.029098,0.032485,0.0044787,-0.00046923,0.0012028,0.0017975,0,0,0.042586,-0.021737,0,0.046736,0,0,0,0.0050628,-0.0010533,0.0012028,18.001,0.0017374,0.005357,3.4398e-09,0.6,0.58,0
0.02996,0.033212,0.0047111,-0.00029822,0.0013239,0.0019073,0,0,0.044034,-0.021087,0,0.049591,0,0,0,0.0053546,-0.00094178,0.0013239,18.645,0.0019122,0.0055238,4.0081e-09,0.62,0.58,0
0.030859,0.033863,0.0049896,-0.00012273,0.0014601,0.0019507,0,0,0.045884,-0.020576,0,0.050718,0,0,0,0.0056489,-0.00078201,0.0014601,18.674,0.002109,0.0056538,4.6046e-09,0.64,0.58,0
0.031795,0.034432,0.0052992,0.00021207,0.0016534,0.0019262,0,0,0.047396,-0.018737,0,0.050081,0,0,0,0.0059462,-0.00043495,0.0016534,18.568,0.0023882,0.0056351,5.1179e-09,0.66,0.58,0
0.032755,0.034941,0.0056118,0.0007409,0.0019058,0.0019383,0,0,0.048178,-0.015144,0,0.050395,0,0,0,0.0062889,6.3741e-05,0.0019058,19.258,0.0027528,0.0055389,5.5846e-09,0.68,0.58,0
0.033722,0.035451,0.0059087,0.0012705,0.0021537,0.0020139,0,0,0.048814,-0.011483,0,0.052362,0,0,0,0.0066611,0.00051808,0.0021537,20.486,0.003111,0.0055104,6.1094e-09,0.7,0.58,0
0.034708,0.036022,0.0061804,0.0016319,0.0023437,0.0021424,0,0,0.049877,-0.0092527,0,0.055703,0,0,0,0.0070306,0.00078171,0.0023437,21.646,0.0033853,0.0056327,6.8545e-09,0.72,0.58,0
0.035717,0.036677,0.0064248,0.001862,0.002486,0.0022379,0,0,0.051204,-0.0081125,0,0.058185,0,0,0,0.0073392,0.00094762,0.002486,22.224,0.0035909,0.005778,7.5903e-09,0.74,0.58,0
0.036756,0.037412,0.006652,0.0020622,0.0026142,0.0023133,0,0,0.05249,-0.0071766,0,0.060146,0,0,0,0.0076156,0.0010986,0.0026142,22.614,0.0037761,0.0059068,8.2819e-09,0.76,0.58,0
0.037817,0.038222,0.0068284,0.0022131,0.0027124,0.0023714,0,0,0.053507,-0.0064916,0,0.061655,0,0,0,0.0078296,0.0012119,0.0027124,22.89,0.003918,0.0060096,8.8479e-09,0.78,0.58,0
0.038896,0.039099,0.0069722,0.0023285,0.0027902,0.0024171,0,0,0.054365,-0.006002,0,0.062845,0,0,0,0.008002,0.0012987,0.0027902,23.076,0.0040303,0.0060959,9.3281e-09,0.8,0.58,0
0.039991,0.040035,0.007088,0.0024141,0.0028506,0.0024466,0,0,0.055086,-0.0056749,0,0.063612,0,0,0,0.0081345,0.0013677,0.0028506,23.157,0.0041176,0.0061607,9.7034e-09,0.82,0.58,0
0.0411,0.041021,0.007181,0.0024824,0.002899,0.0024584,0,0,0.055665,-0.0054158,0,0.063917,0,0,0,0.008232,0.0014313,0.002899,23.15,0.0041875,0.0061986,9.9587e-09,0.84,0.58,0
0.042218,0.042049,0.0072517,0.002544,0.0029387,0.002453,0,0,0.056069,-0.0051314,0,0.063777,0,0,0,0.0082975,0.0014982,0.0029387,23.09,0.0042448,0.0062057,1.008e-08,0.86,0.58,0
0.043342,0.04311,0.007301,0.0026074,0.0029725,0.0024341,0,0,0.05627,-0.0047463,0,0.063286,0,0,0,0.0083353,0.0015731,0.0029725,23.023,0.0042936,0.0061825,1.0072e-08,0.88,0.58,0
0.044469,0.044197,0.0073297,0.0026777,0.0030022,0.0024072,0,0,0.056257,-0.0042192,0,0.062587,0,0,0,0.008351,0.0016563,0.0030022,22.991,0.0043365,0.0061335,9.9545e-09,0.9,0.58,0
0.045593,0.045307,0.0073397,0.0027566,0.0030289,0.0023787,0,0,0.056041,-0.0035398,0,0.061846,0,0,0,0.0083511,0.0017452,0.0030289,23.034,0.0043751,0.0060668,9.7598e-09,0.92,0.58,0
0.04671,0.046439,0.007334,0.0028436,0.0030533,0.0023556,0,0,0.055649,-0.0027254,0,0.061246,0,0,0,0.008343,0.0018346,0.0030533,23.188,0.0044103,0.0059927,9.5307e-09,0.94,0.58,0
0.047819,0.047594,0.0073161,0.0029358,0.0030756,0.0023455,0,0,0.055126,-0.0018165,0,0.060983,0,0,0,0.008335,0.0019169,0.0030756,23.481,0.0044425,0.0059243,9.3173e-09,0.96,0.58,0
0.048915,0.048778,0.0072907,0.0030282,0.0030956,0.0023565,0,0,0.054535,-0.00087728,0,0.061269,0,0,0,0.0083367,0.0019821,0.0030956,23.937,0.0044715,0.0058775,9.179e-09,0.98,0.58,0
0.05,0.05,0.0073004,0.0031287,0.0031287,0.0023493,0,0,0.054231,-1.2869e-16,0,0.061083,0,0,0,0.0083562,0.0020729,0.0031287,24.2,0.0045193,0.0058276,9.0501e-09,1,0.58,0
0,0,0.0056803,0.0024344,0.0024344,0.00088997,0,0,0.042196,0,0,0.023139,0,0,0,0.0059083,0.0022064,0.0024344,14.37,0.0035163,0.0035933,2.3505e-09,0,0.6,0
0.00084392,0.00046278,0.0056655,0.0022673,0.0023798,0.00090024,0,0,0.042713,-0.0014628,0,0.023406,0,0,0,0.0058892,0.0020435,0.0023798,13.958,0.0034375,0.0036891,2.5064e-09,0.02,0.6,0
0.0017085,0.0009878,0.0057187,0.0021292,0.0023544,0.00096784,0,0,0.043736,-0.0029272,0,0.025164,0,0,0,0.0059631,0.0018849,0.0023544,14.168,0.0034008,0.0038649,2.818e-09,0.04,0.6,0
0.0025934,0.0015737,0.005769,0.0019933,0.0023287,0.0010317,0,0,0.044725,-0.0043606,0,0.026824,0,0,0,0.0060325,0.0017298,0.0023287,14.328,0.0033637,0.0040368,3.1293e-09,0.06,0.6,0
0.0034975,0.002219,0.0058148,0.0018616,0.0023029,0.0010919,0,0,0.045655,-0.0057376,0,0.028391,0,0,0,0.0060964,0.00158,0.0023029,14.459,0.0033264,0.0042018,3.433e-09,0.08,0.6,0
0.0044196,0.0029225,0.0058547,0.0017356,0.0022771,0.0011489,0,0,0.046509,-0.0070393,0,0.029871,0,0,0,0.0061535,0.0014368,0.0022771,14.577,0.0032891,0.0043577,3.723e-09,0.1,0.6,0
0.0053579,0.003683,0.0058876,0.0016165,0.0022512,0.0012029,0,0,0.047273,-0.0082518,0,0.031274,0,0,0,0.006203,0.001301,0.0022512,14.695,0.0032517,0.0045028,3.994e-09,0.12,0.6,0
0.0063105,0.0044995,0.0059124,0.0015046,0.0022251,0.0012543,0,0,0.047935,-0.0093662,0,0.032613,0,0,0,0.0062444,0.0011727,0.0022251,14.823,0.0032141,0.004636,4.2417e-09,0.14,0.6,0
0.0072753,0.005371,0.0059284,0.0014003,0.0021986,0.001304,0,0,0.048488,-0.010379,0,0.033904,0,0,0,0.0062771,0.0010516,0.0021986,14.97,0.0031758,0.0047569,4.4634e-09,0.16,0.6,0
0.00825,0.0062968,0.0059349,0.0013029,0.0021713,0.0013526,0,0,0.048926,-0.01129,0,0.035168,0,0,0,0.006301,0.00093686,0.0021713,15.143,0.0031364,0.0048658,4.6575e-09,0.18,0.6,0
0.0092323,0.0072764,0.0059314,0.0012116,0.0021429,0.0014012,0,0,0.04925,-0.012106,0,0.036431,0,0,0,0.0063161,0.00082701,0.0021429,15.35,0.0030953,0.0049637,4.8243e-09,0.2,0.6,0
0.01022,0.0083096,0.0059176,0.0011249,0.0021128,0.0014509,0,0,0.049464,-0.012842,0,0.037724,0,0,0,0.0063227,0.00071986,0.0021128,15.597,0.0030518,0.0050525,4.966e-09,0.22,0.6,0
0.011211,0.0093963,0.0058937,0.0010403,0.0020802,0.0015031,0,0,0.049576,-0.013519,0,0.039081,0,0,0,0.0063215,0.00061249,0.0020802,15.887,0.0030047,0.005135,5.0863e-09,0.24,0.6,0
0.012203,0.010537,0.0058602,0.00095466,0.0020444,0.001559,0,0,0.049604,-0.014167,0,0.040534,0,0,0,0.0063137,0.00050114,0.0020444,16.22,0.0029531,0.0052151,5.1913e-09,0.26,0.6,0
0.013195,0.011731,0.005818,0.0008637,0.0020045,0.0016195,0,0,0.049576,-0.014831,0,0.042107,0,0,0,0.0063005,0.00038128,0.0020045,16.588,0.0028954,0.0052975,5.2881e-09,0.28,0.6,0
0.014186,0.012979,0.0057691,0.00076211,0.0019594,0.001685,0,0,0.049527,-0.015564,0,0.04381,0,0,0,0.0062833,0.00024786,0.0019594,16.971,0.0028302,0.0053876,5.3841e-09,0.3,0.6,0
0.015176,0.01428,0.0057154,0.00064366,0.0019077,0.0017545,0,0,0.0495,-0.016433,0,0.045618,0,0,0,0.0062632,9.5856e-05,0.0019077,17.34,0.0027556,0.0054904,5.4846e-09,0.32,0.6,0
0.016166,0.015633,0.0056593,0.00050194,0.0018484,0.0018254,0,0,0.049542,-0.017504,0,0.047462,0,0,0,0.00624,-7.8786e-05,0.0018484,17.647,0.0026699,0.0056093,5.5895e-09,0.34,0.6,0
0.017158,0.017031,0.0056024,0.00033169,0.0017802,0.0018929,0,0,0.049688,-0.018831,0,0.049215,0,0,0,0.0062117,-0.00027766,0.0017802,17.844,0.0025714,0.0057439,5.6898e-09,0.36,0.6,0
0.018154,0.018469,0.0055451,0.00013069,0.0017028,0.0019503,0,0,0.049951,-0.020437,0,0.050707,0,0,0,0.0061745,-0.00049864,0.0017028,17.884,0.0024595,0.0058895,5.7664e-09,0.38,0.6,0
0.019156,0.019935,0.0054869,-9.8104e-05,0.0016166,0.0019905,0,0,0.050313,-0.022291,0,0.051752,0,0,0,0.0061237,-0.0007349,0.0016166,17.741,0.0023351,0.0060367,5.7943e-09,0.4,0.6,0
0.020166,0.021414,0.005426,-0.00034678,0.0015238,0.0020077,0,0,0.050729,-0.024317,0,0.0522,0,0,0,0.0060556,-0.00097636,0.0015238,17.411,0.002201,0.006174,5.751e-09,0.42,0.6,0
0.021185,0.022888,0.0053633,-0.00060257,0.0014282,0.0019975,0,0,0.051156,-0.0264,0,0.051934,0,0,0,0.0059703,-0.0012096,0.0014282,16.904,0.002063,0.0062905,5.6279e-09,0.44,0.6,0
0.022212,0.024333,0.0052959,-0.00085539,0.0013322,0.0019565,0,0,0.051529,-0.028438,0,0.050869,0,0,0,0.0058655,-0.0014249,0.0013322,16.231,0.0019242,0.0063758,5.4188e-09,0.46,0.6,0
0.023246,0.025723,0.0052209,-0.0010815,0.0012418,0.0018784,0,0,0.051728,-0.030203,0,0.048838,0,0,0,0.0057383,-0.0015988,0.0012418,15.399,0.0017937,0.0064078,5.1211e-09,0.48,0.6,0
0.024282,0.02703,0.0051341,-0.001235,0.0011698,0.0017702,0,0,0.051537,-0.031261,0,0.046025,0,0,0,0.0055931,-0.0016939,0.0011698,14.534,0.0016897,0.0063587,4.7609e-09,0.5,0.6,0
0.025308,0.02823,0.0050452,-0.0012578,0.0011362,0.0016575,0,0,0.050817,-0.031122,0,0.043096,0,0,0,0.0054545,-0.0016671,0.0011362,13.871,0.0016412,0.0062138,4.4172e-09,0.52,0.6,0
0.026314,0.029317,0.0049699,-0.0011505,0.0011458,0.0015838,0,0,0.049713,-0.029852,0,0.041179,0,0,0,0.0053554,-0.0015361,0.0011458,13.682,0.001655,0.0060169,4.1695e-09,0.54,0.6,0
0.027296,0.030299,0.004928,-0.00097244,0.0011867,0.0015668,0,0,0.048637,-0.028068,0,0.040738,0,0,0,0.0053183,-0.0013627,0.0011867,13.986,0.0017141,0.0058397,4.0551e-09,0.56,0.6,0
0.02826,0.031193,0.0049447,-0.00077429,0.0012511,0.0015962,0,0,0.048016,-0.02633,0,0.0415,0,0,0,0.00536,-0.0011896,0.0012511,14.585,0.0018072,0.0057332,4.105e-09,0.58,0.6,0
0.029217,0.032011,0.0050304,-0.00057746,0.0013359,0.0016405,0,0,0.048028,-0.024873,0,0.042653,0,0,0,0.005475,-0.0010221,0.0013359,15.165,0.0019296,0.0056967,4.3081e-09,0.6,0.6,0
0.030181,0.032758,0.0051739,-0.00037071,0.001441,0.0016706,0,0,0.048528,-0.023552,0,0.043435,0,0,0,0.0056383,-0.00083516,0.001441,15.537,0.0020814,0.0056879,4.6065e-09,0.62,0.6,0
0.031158,0.033436,0.0053527,-0.00011059,0.0015726,0.0016724,0,0,0.049141,-0.021882,0,0.043481,0,0,0,0.005824,-0.00058186,0.0015726,15.738,0.0022716,0.0056458,4.9124e-09,0.64,0.6,0
0.032146,0.034051,0.0055418,0.00024561,0.0017362,0.0016673,0,0,0.049473,-0.019378,0,0.043349,0,0,0,0.006023,-0.00023554,0.0017362,16.097,0.0025079,0.0055423,5.1596e-09,0.66,0.6,0
0.033137,0.03463,0.0057354,0.00069667,0.0019296,0.0016927,0,0,0.049476,-0.016029,0,0.044011,0,0,0,0.0062513,0.00018082,0.0019296,16.948,0.0027872,0.0054123,5.3689e-09,0.68,0.6,0
0.034125,0.03521,0.0059255,0.0011469,0.0021217,0.0017781,0,0,0.04945,-0.012673,0,0.046231,0,0,0,0.0065146,0.00055786,0.0021217,18.328,0.0030647,0.0053491,5.6545e-09,0.7,0.6,0
0.035115,0.035832,0.0061116,0.0015098,0.0022864,0.0018987,0,0,0.049728,-0.010096,0,0.049366,0,0,0,0.0067938,0.0008275,0.0022864,19.765,0.0033026,0.0053871,6.0884e-09,0.72,0.6,0
0.036115,0.036517,0.0062983,0.0017813,0.0024239,0.0020247,0,0,0.050367,-0.0083534,0,0.052643,0,0,0,0.007073,0.0010066,0.0024239,20.938,0.0035012,0.0054966,6.6554e-09,0.74,0.6,0
0.03713,0.037272,0.0064758,0.0019861,0.0025386,0.0021327,0,0,0.051183,-0.0071815,0,0.05545,0,0,0,0.0073273,0.0011346,0.0025386,21.767,0.0036668,0.0056238,7.2513e-09,0.76,0.6,0
0.038162,0.038097,0.0066375,0.0021501,0.0026363,0.0022217,0,0,0.052016,-0.0063202,0,0.057763,0,0,0,0.0075513,0.0012363,0.0026363,22.359,0.003808,0.0057444,7.8208e-09,0.78,0.6,0
0.03921,0.038984,0.0067757,0.0022793,0.0027165,0.0022916,0,0,0.05277,-0.0056837,0,0.059581,0,0,0,0.0077377,0.0013172,0.0027165,22.774,0.0039238,0.0058478,8.322e-09,0.8,0.6,0
0.040273,0.039928,0.0068919,0.0023832,0.0027825,0.002343,0,0,0.053422,-0.0051917,0,0.060917,0,0,0,0.0078889,0.0013861,0.0027825,23.052,0.0040192,0.0059292,8.7369e-09,0.82,0.6,0
0.041347,0.040921,0.0069867,0.0024699,0.002837,0.0023759,0,0,0.053946,-0.004772,0,0.061773,0,0,0,0.0080063,0.0014503,0.002837,23.226,0.0040979,0.0059843,9.0463e-09,0.84,0.6,0
0.042431,0.041956,0.0070609,0.0025477,0.0028826,0.0023918,0,0,0.054318,-0.0043535,0,0.062186,0,0,0,0.0080926,0.001516,0.0028826,23.333,0.0041637,0.0060109,9.2404e-09,0.86,0.6,0
0.04352,0.043025,0.007115,0.0026227,0.0029213,0.0023937,0,0,0.054518,-0.0038815,0,0.062236,0,0,0,0.0081514,0.0015864,0.0029213,23.411,0.0042197,0.0060098,9.3205e-09,0.88,0.6,0
0.044611,0.044123,0.0071501,0.0026989,0.0029547,0.0023862,0,0,0.05454,-0.0033252,0,0.06204,0,0,0,0.0081875,0.0016615,0.0029547,23.497,0.0042679,0.0059851,9.3017e-09,0.9,0.6,0
0.045701,0.045246,0.0071679,0.0027775,0.0029836,0.0023746,0,0,0.054396,-0.0026798,0,0.061741,0,0,0,0.0082066,0.0017388,0.0029836,23.624,0.0043097,0.0059439,9.2112e-09,0.92,0.6,0
0.046787,0.046393,0.0071713,0.0028573,0.0030086,0.0023653,0,0,0.054115,-0.0019664,0,0.061498,0,0,0,0.0082155,0.0018132,0.0030086,23.819,0.0043457,0.0058962,9.0862e-09,0.94,0.6,0
0.047866,0.047565,0.0071639,0.0029351,0.0030297,0.0023648,0,0,0.053745,-0.0012301,0,0.061486,0,0,0,0.0082218,0.0018772,0.0030297,24.1,0.0043762,0.005854,8.9723e-09,0.96,0.6,0
0.048937,0.048765,0.0071506,0.003005,0.0030467,0.0023804,0,0,0.053351,-0.00054152,0,0.06189,0,0,0,0.0082342,0.0019215,0.0030467,24.476,0.0044008,0.0058321,8.9233e-09,0.98,0.6,0
0.05,0.05,0.0071558,0.0030668,0.0030668,0.0023759,0,0,0.053158,-1.5778e-16,0,0.061772,0,0,0,0.0082457,0.0019769,0.0030668,24.643,0.0044298,0.0058012,8.8461e-09,1,0.6,0
0,0,0.0055085,0.0023608,0.0023608,0.00083452,0,0,0.04092,7.5894e-19,0,0.021698,0,0,0,0.0057161,0.0021532,0.0023608,13.967,0.00341,0.0034637,2.1085e-09,0,0.62,0
0.0008184,0.00043395,0.005494,0.0021972,0.0023074,0.00084573,0,0,0.041427,-0.0014325,0,0.021989,0,0,0,0.0056983,0.0019929,0.0023074,13.58,0.0033328,0.0035586,2.2537e-09,0.02,0.62,0
0.0016571,0.0009301,0.0055462,0.002062,0.0022825,0.00091549,0,0,0.042428,-0.0028658,0,0.023803,0,0,0,0.0057721,0.0018361,0.0022825,13.861,0.0032969,0.0037329,2.5432e-09,0.04,0.62,0
0.0025155,0.0014877,0.0055955,0.001929,0.0022574,0.00098316,0,0,0.043396,-0.0042683,0,0.025562,0,0,0,0.0058425,0.001682,0.0022574,14.102,0.0032606,0.0039047,2.8352e-09,0.06,0.62,0
0.0033929,0.0021058,0.0056405,0.0018002,0.0022322,0.0010486,0,0,0.044308,-0.005616,0,0.027265,0,0,0,0.0059082,0.0015325,0.0022322,14.32,0.0032243,0.0040712,3.1234e-09,0.08,0.62,0
0.0042879,0.0027836,0.0056799,0.001677,0.0022071,0.001112,0,0,0.045147,-0.0068911,0,0.028911,0,0,0,0.0059681,0.0013888,0.0022071,14.528,0.003188,0.0042299,3.4019e-09,0.1,0.62,0
0.0051988,0.0035202,0.0057127,0.0015602,0.0021819,0.0011733,0,0,0.045901,-0.0080815,0,0.030505,0,0,0,0.0060213,0.0012516,0.0021819,14.735,0.0031516,0.0043793,3.666e-09,0.12,0.62,0
0.0061239,0.0043146,0.0057381,0.0014503,0.0021565,0.0012329,0,0,0.046561,-0.0091805,0,0.032056,0,0,0,0.0060674,0.0011211,0.0021565,14.951,0.003115,0.0045184,3.912e-09,0.14,0.62,0
0.0070612,0.005166,0.0057555,0.0013473,0.0021309,0.0012913,0,0,0.047121,-0.010186,0,0.033574,0,0,0,0.006106,0.00099687,0.0021309,15.182,0.0030779,0.0046471,4.1378e-09,0.16,0.62,0
0.0080087,0.0060736,0.0057646,0.0012505,0.0021045,0.0013492,0,0,0.047581,-0.011103,0,0.035078,0,0,0,0.0061371,0.00087796,0.0021045,15.434,0.0030399,0.0047657,4.3425e-09,0.18,0.62,0
0.0089645,0.0070367,0.0057651,0.0011588,0.0020771,0.0014072,0,0,0.047943,-0.011939,0,0.036588,0,0,0,0.006161,0.00076288,0.0020771,15.712,0.0030003,0.0048757,4.5266e-09,0.2,0.62,0
0.0099264,0.0080549,0.0057572,0.0010705,0.0020483,0.0014664,0,0,0.048215,-0.012712,0,0.038126,0,0,0,0.0061782,0.00064948,0.0020483,16.018,0.0029586,0.0049789,4.6926e-09,0.22,0.62,0
0.010893,0.0091275,0.0057413,0.00098323,0.0020174,0.0015275,0,0,0.048411,-0.013444,0,0.039716,0,0,0,0.0061895,0.00053504,0.0020174,16.352,0.002914,0.0050782,4.8442e-09,0.24,0.62,0
0.011863,0.010254,0.0057184,0.00089396,0.0019837,0.0015915,0,0,0.048551,-0.014167,0,0.041379,0,0,0,0.0061961,0.00041625,0.0019837,16.708,0.0028653,0.0051772,4.9865e-09,0.26,0.62,0
0.012835,0.011434,0.0056898,0.00079882,0.0019466,0.0016587,0,0,0.048662,-0.014921,0,0.043125,0,0,0,0.0061992,0.00028939,0.0019466,17.074,0.0028117,0.00528,5.1254e-09,0.28,0.62,0
0.013809,0.012667,0.0056573,0.00069333,0.0019052,0.0017288,0,0,0.048777,-0.015754,0,0.044948,0,0,0,0.0062,0.00015062,0.0019052,17.429,0.0027519,0.0053907,5.266e-09,0.3,0.62,0
0.014786,0.013949,0.005623,0.00057268,0.0018587,0.0018005,0,0,0.048936,-0.016719,0,0.046812,0,0,0,0.0061992,-3.4728e-06,0.0018587,17.745,0.0026848,0.0055127,5.4114e-09,0.32,0.62,0
0.015767,0.015279,0.0055891,0.00043232,0.0018064,0.0018712,0,0,0.049175,-0.017864,0,0.048651,0,0,0,0.0061965,-0.00017511,0.0018064,17.985,0.0026093,0.0056479,5.5602e-09,0.34,0.62,0
0.016753,0.016651,0.0055573,0.00026898,0.0017479,0.0019368,0,0,0.049522,-0.019226,0,0.050357,0,0,0,0.0061908,-0.00036448,0.0017479,18.111,0.0025247,0.0057954,5.7051e-09,0.36,0.62,0
0.017748,0.018057,0.0055287,8.1897e-05,0.0016832,0.0019921,0,0,0.049992,-0.020817,0,0.051795,0,0,0,0.0061795,-0.00056893,0.0016832,18.092,0.0024313,0.0059511,5.8329e-09,0.38,0.62,0
0.018753,0.019487,0.0055036,-0.00012637,0.0016132,0.0020314,0,0,0.050576,-0.022614,0,0.052817,0,0,0,0.0061601,-0.0007828,0.0016132,17.908,0.0023302,0.0061081,5.9269e-09,0.4,0.62,0
0.019771,0.020926,0.0054822,-0.00034939,0.0015398,0.0020492,0,0,0.051251,-0.02456,0,0.05328,0,0,0,0.0061303,-0.00099747,0.0015398,17.55,0.0022242,0.0062576,5.9714e-09,0.42,0.62,0
0.020803,0.022358,0.0054633,-0.00057794,0.0014656,0.0020408,0,0,0.05197,-0.026566,0,0.053059,0,0,0,0.0060881,-0.0012027,0.0014656,17.021,0.002117,0.0063891,5.9539e-09,0.44,0.62,0
0.02185,0.023763,0.005445,-0.00079782,0.0013942,0.0020014,0,0,0.052661,-0.028495,0,0.052037,0,0,0,0.0060315,-0.0013844,0.0013942,16.334,0.0020138,0.0064893,5.8655e-09,0.46,0.62,0
0.022909,0.02512,0.0054232,-0.00098732,0.0013307,0.0019301,0,0,0.053201,-0.030135,0,0.050183,0,0,0,0.0059594,-0.0015236,0.0013307,15.528,0.0019222,0.006541,5.7049e-09,0.48,0.62,0
0.023978,0.026405,0.0053959,-0.0011147,0.0012844,0.001833,0,0,0.05345,-0.031188,0,0.047657,0,0,0,0.0058765,-0.0015953,0.0012844,14.691,0.0018552,0.0065271,5.4917e-09,0.5,0.62,0
0.025047,0.027603,0.005366,-0.001152,0.0012642,0.0017286,0,0,0.053323,-0.031411,0,0.044943,0,0,0,0.005796,-0.001582,0.0012642,13.971,0.0018261,0.0064449,5.271e-09,0.52,0.62,0
0.02611,0.028706,0.0053418,-0.0010964,0.0012736,0.0016393,0,0,0.052886,-0.030811,0,0.042622,0,0,0,0.0057352,-0.0014898,0.0012736,13.493,0.0018396,0.0063143,5.0904e-09,0.54,0.62,0
0.027163,0.029717,0.005336,-0.00097065,0.0013096,0.00158,0,0,0.052343,-0.029643,0,0.04108,0,0,0,0.0057097,-0.0013443,0.0013096,13.307,0.0018917,0.0061711,4.9862e-09,0.56,0.62,0
0.028204,0.030642,0.0053608,-0.00080281,0.0013674,0.0015487,0,0,0.051914,-0.028213,0,0.040267,0,0,0,0.0057281,-0.0011701,0.0013674,13.341,0.0019751,0.0060431,4.9739e-09,0.58,0.62,0
0.029239,0.03149,0.0054216,-0.00060688,0.0014444,0.001533,0,0,0.051704,-0.026667,0,0.039858,0,0,0,0.0057891,-0.00097431,0.0014444,13.479,0.0020864,0.0059359,5.0444e-09,0.6,0.62,0
0.030272,0.03227,0.0055135,-0.00037741,0.0015408,0.0015194,0,0,0.051645,-0.024937,0,0.039505,0,0,0,0.0058824,-0.00074622,0.0015408,13.644,0.0022257,0.0058317,5.1601e-09,0.62,0.62,0
0.031305,0.032987,0.0056242,-9.6634e-05,0.0016583,0.0015063,0,0,0.051557,-0.022814,0,0.039165,0,0,0,0.0059966,-0.00046903,0.0016583,13.886,0.0023953,0.0057075,5.2712e-09,0.64,0.62,0
0.032335,0.033657,0.0057433,0.00024916,0.0017977,0.0015064,0,0,0.051292,-0.020132,0,0.039167,0,0,0,0.0061292,-0.00013676,0.0017977,14.37,0.0025967,0.0055573,5.3494e-09,0.66,0.62,0
0.033357,0.034299,0.0058655,0.00064285,0.0019525,0.001541,0,0,0.050869,-0.017026,0,0.040066,0,0,0,0.0062863,0.00022206,0.0019525,15.273,0.0028203,0.0054107,5.4185e-09,0.68,0.62,0
0.034369,0.034944,0.0059908,0.0010362,0.0021081,0.0016191,0,0,0.050475,-0.013935,0,0.042096,0,0,0,0.0064729,0.00055403,0.0021081,16.584,0.003045,0.0053151,5.5472e-09,0.7,0.62,0
0.035376,0.035618,0.0061211,0.001382,0.0022509,0.0017317,0,0,0.050313,-0.011296,0,0.045025,0,0,0,0.0066865,0.00081664,0.0022509,18.08,0.0032514,0.0053003,5.8014e-09,0.72,0.62,0
0.036382,0.036342,0.0062571,0.0016625,0.0023759,0.0018568,0,0,0.050456,-0.009274,0,0.048277,0,0,0,0.0069136,0.0010059,0.0023759,19.474,0.0034318,0.0053558,6.1841e-09,0.74,0.62,0
0.037394,0.037125,0.0063951,0.0018858,0.0024843,0.0019773,0,0,0.050841,-0.0077802,0,0.051409,0,0,0,0.0071393,0.0011416,0.0024843,20.625,0.0035884,0.0054518,6.6514e-09,0.76,0.62,0
0.038416,0.037969,0.0065276,0.0020648,0.0025777,0.0020833,0,0,0.051348,-0.0066683,0,0.054166,0,0,0,0.0073489,0.0012434,0.0025777,21.517,0.0037233,0.0055598,7.1422e-09,0.78,0.62,0
0.039448,0.038871,0.0066487,0.0022111,0.0026579,0.0021719,0,0,0.05188,-0.0058087,0,0.05647,0,0,0,0.0075348,0.001325,0.0026579,22.194,0.0038393,0.0056622,7.6103e-09,0.8,0.62,0
0.040491,0.039827,0.0067544,0.0023329,0.0027262,0.0022421,0,0,0.052366,-0.0051127,0,0.058294,0,0,0,0.0076923,0.0013949,0.0027262,22.702,0.0039378,0.0057486,8.0207e-09,0.82,0.62,0
0.041543,0.04083,0.0068431,0.0024375,0.0027842,0.0022941,0,0,0.052766,-0.0045064,0,0.059647,0,0,0,0.0078207,0.0014599,0.0027842,23.082,0.0040216,0.005813,8.3502e-09,0.84,0.62,0
0.042601,0.041875,0.0069141,0.0025313,0.0028336,0.0023293,0,0,0.053047,-0.0039307,0,0.060561,0,0,0,0.0079208,0.0015246,0.0028336,23.373,0.004093,0.0058525,8.5849e-09,0.86,0.62,0
0.043665,0.042954,0.0069675,0.0026187,0.0028759,0.0023501,0,0,0.053191,-0.0033428,0,0.061102,0,0,0,0.0079948,0.0015914,0.0028759,23.612,0.0041541,0.0058676,8.7227e-09,0.88,0.62,0
0.044729,0.044064,0.007004,0.0027027,0.002912,0.0023602,0,0,0.053196,-0.0027212,0,0.061365,0,0,0,0.0080465,0.0016603,0.002912,23.83,0.0042062,0.0058614,8.7736e-09,0.9,0.62,0
0.045792,0.0452,0.0070253,0.0027836,0.0029427,0.0023641,0,0,0.053074,-0.0020675,0,0.061467,0,0,0,0.0080804,0.0017285,0.0029427,24.052,0.0042505,0.0058403,8.7591e-09,0.92,0.62,0
0.046852,0.04636,0.0070339,0.0028599,0.0029681,0.002367,0,0,0.052855,-0.0014069,0,0.061543,0,0,0,0.0081026,0.0017912,0.0029681,24.299,0.0042873,0.005813,8.7107e-09,0.94,0.62,0
0.047906,0.047545,0.0070335,0.0029277,0.0029883,0.0023747,0,0,0.052587,-0.00078848,0,0.061743,0,0,0,0.0081196,0.0018415,0.0029883,24.579,0.0043165,0.0057905,8.668e-09,0.96,0.62,0
0.048955,0.048757,0.0070288,0.0029809,0.0030029,0.0023931,0,0,0.052337,-0.0002858,0,0.062221,0,0,0,0.0081391,0.0018707,0.0030029,24.889,0.0043376,0.005786,8.6783e-09,0.98,0.62,0
0.05,0.05,0.0070304,0.003013,0.003013,0.002391,0,0,0.052226,-7.79e-17,0,0.062166,0,0,0,0.0081444,0.0018989,0.003013,24.983,0.0043521,0.0057697,8.6381e-09,1,0.62,0
0,0,0.0053401,0.0022886,0.0022886,0.00077977,0,0,0.039669,3.7947e-19,0,0.020274,0,0,0,0.0055278,0.0021009,0.0022886,13.535,0.0033058,0.003337,1.8882e-09,0,0.64,0
0.00079338,0.00040548,0.0053256,0.0021257,0.0022354,0.00079188,0,0,0.040173,-0.0014259,0,0.020589,0,0,0,0.0055109,0.0019405,0.0022354,13.166,0.0032289,0.0034325,2.0254e-09,0.02,0.64,0
0.0016069,0.00087317,0.0053777,0.0019918,0.0022108,0.00086376,0,0,0.041169,-0.0028479,0,0.022458,0,0,0,0.0055853,0.0017841,0.0022108,13.515,0.0031934,0.0036068,2.2965e-09,0.04,0.64,0
0.0024401,0.0014029,0.005427,0.0018603,0.0021862,0.00093512,0,0,0.04213,-0.0042364,0,0.024313,0,0,0,0.0056573,0.00163,0.0021862,13.835,0.0031578,0.00378,2.5727e-09,0.06,0.64,0
0.0032921,0.0019943,0.0054722,0.0017332,0.0021616,0.0010056,0,0,0.043037,-0.0055694,0,0.026145,0,0,0,0.0057254,0.0014799,0.0021616,14.138,0.0031223,0.0039491,2.8479e-09,0.08,0.64,0
0.0041616,0.0026469,0.0055121,0.0016117,0.0021371,0.0010749,0,0,0.043875,-0.0068309,0,0.027947,0,0,0,0.0057887,0.0013351,0.0021371,14.431,0.003087,0.0041117,3.1172e-09,0.1,0.64,0
0.0050471,0.0033598,0.0055461,0.0014966,0.0021128,0.001143,0,0,0.044632,-0.0080109,0,0.029717,0,0,0,0.0058464,0.0011962,0.0021128,14.722,0.0030518,0.0042664,3.3762e-09,0.12,0.64,0
0.0059469,0.0041323,0.0055733,0.001388,0.0020884,0.00121,0,0,0.045304,-0.0091049,0,0.031459,0,0,0,0.0058979,0.0010634,0.0020884,15.018,0.0030166,0.0044123,3.6219e-09,0.14,0.64,0
0.0068593,0.0049635,0.0055936,0.0012859,0.0020638,0.0012762,0,0,0.045887,-0.010114,0,0.03318,0,0,0,0.0059432,0.00093618,0.0020638,15.323,0.0029811,0.0045493,3.8524e-09,0.16,0.64,0
0.0077824,0.0058527,0.0056067,0.0011893,0.0020388,0.0013419,0,0,0.046382,-0.011043,0,0.03489,0,0,0,0.0059824,0.00081362,0.0020388,15.641,0.0029449,0.0046781,4.0673e-09,0.18,0.64,0
0.0087146,0.0067989,0.0056127,0.0010972,0.002013,0.0014078,0,0,0.046797,-0.011905,0,0.036603,0,0,0,0.0060157,0.00069425,0.002013,15.973,0.0029076,0.0047999,4.2674e-09,0.2,0.64,0
0.0096543,0.0078012,0.0056121,0.0010077,0.001986,0.0014744,0,0,0.04714,-0.012717,0,0.038335,0,0,0,0.0060438,0.00057607,0.001986,16.319,0.0028686,0.0049168,4.4549e-09,0.22,0.64,0
0.0106,0.0088586,0.0056057,0.0009186,0.0019573,0.0015423,0,0,0.04743,-0.013503,0,0.040099,0,0,0,0.0060677,0.00045665,0.0019573,16.674,0.0028272,0.0050314,4.6333e-09,0.24,0.64,0
0.011551,0.0099701,0.0055946,0.00082693,0.0019264,0.0016117,0,0,0.047685,-0.014294,0,0.041904,0,0,0,0.0060883,0.00033321,0.0019264,17.031,0.0027826,0.0051468,4.8068e-09,0.26,0.64,0
0.012508,0.011134,0.0055801,0.00072937,0.0018929,0.0016827,0,0,0.047935,-0.015125,0,0.04375,0,0,0,0.0061067,0.00020281,0.0018929,17.376,0.0027341,0.0052663,4.9797e-09,0.28,0.64,0
0.013469,0.012349,0.0055643,0.00062224,0.001856,0.0017546,0,0,0.048208,-0.016038,0,0.04562,0,0,0,0.0061239,6.2656e-05,0.001856,17.689,0.0026808,0.005393,5.1557e-09,0.3,0.64,0
0.014436,0.013612,0.005549,0.00050184,0.0018153,0.0018259,0,0,0.048539,-0.017074,0,0.047473,0,0,0,0.0061403,-8.9443e-05,0.0018153,17.944,0.002622,0.0055292,5.3364e-09,0.32,0.64,0
0.01541,0.014918,0.0055363,0.00036498,0.0017704,0.0018941,0,0,0.048957,-0.01827,0,0.049246,0,0,0,0.0061558,-0.00025453,0.0017704,18.112,0.0025572,0.0056756,5.5202e-09,0.34,0.64,0
0.016394,0.016262,0.0055278,0.00020971,0.0017212,0.0019555,0,0,0.049485,-0.01965,0,0.050843,0,0,0,0.0061694,-0.00043194,0.0017212,18.166,0.0024863,0.005831,5.7011e-09,0.36,0.64,0
0.01739,0.017637,0.0055248,3.6045e-05,0.0016682,0.0020059,0,0,0.050135,-0.021219,0,0.052153,0,0,0,0.0061797,-0.00061887,0.0016682,18.082,0.0024097,0.0059918,5.8696e-09,0.38,0.64,0
0.0184,0.019031,0.0055278,-0.00015336,0.0016123,0.0020403,0,0,0.050901,-0.022954,0,0.053048,0,0,0,0.0061846,-0.00081017,0.0016123,17.844,0.0023289,0.0061522,6.0135e-09,0.4,0.64,0
0.019426,0.020432,0.0055366,-0.00035296,0.0015551,0.0020539,0,0,0.051759,-0.024805,0,0.053402,0,0,0,0.0061821,-0.0009985,0.0015551,17.448,0.0022462,0.0063044,6.12e-09,0.42,0.64,0
0.02047,0.021825,0.00555,-0.00055374,0.0014989,0.0020424,0,0,0.052665,-0.026684,0,0.053102,0,0,0,0.0061703,-0.0011741,0.0014989,16.896,0.002165,0.0064385,6.1775e-09,0.44,0.64,0
0.021532,0.023193,0.0055654,-0.0007426,0.0014468,0.0020027,0,0,0.053541,-0.028463,0,0.052071,0,0,0,0.0061475,-0.0013247,0.0014468,16.207,0.0020899,0.0065427,6.1776e-09,0.46,0.64,0
0.022612,0.024518,0.0055797,-0.00090134,0.0014035,0.0019352,0,0,0.054291,-0.029963,0,0.050314,0,0,0,0.0061136,-0.0014352,0.0014035,15.422,0.0020273,0.006604,6.1194e-09,0.48,0.64,0
0.023704,0.025783,0.0055906,-0.0010091,0.0013745,0.0018456,0,0,0.05481,-0.030986,0,0.047986,0,0,0,0.0060717,-0.0014901,0.0013745,14.609,0.0019854,0.0066125,6.0154e-09,0.5,0.64,0
0.024804,0.026974,0.0055987,-0.001049,0.0013649,0.001746,0,0,0.055039,-0.03138,0,0.045396,0,0,0,0.0060294,-0.0014797,0.0013649,13.857,0.0019715,0.0065664,5.8904e-09,0.52,0.64,0
0.025906,0.028085,0.0056079,-0.0010168,0.0013773,0.0016507,0,0,0.054997,-0.031124,0,0.042919,0,0,0,0.0059964,-0.0014054,0.0013773,13.245,0.0019894,0.0064756,5.7735e-09,0.54,0.64,0
0.027004,0.029114,0.0056246,-0.00092132,0.001411,0.0015703,0,0,0.054777,-0.03032,0,0.040827,0,0,0,0.0059818,-0.0012785,0.001411,12.815,0.0020381,0.0063576,5.6872e-09,0.56,0.64,0
0.028097,0.030065,0.0056552,-0.00077553,0.0014639,0.0015077,0,0,0.054487,-0.029112,0,0.0392,0,0,0,0.0059911,-0.0011115,0.0014639,12.561,0.0021145,0.006228,5.6415e-09,0.58,0.64,0
0.029183,0.030944,0.0057023,-0.00058786,0.0015343,0.0014603,0,0,0.054184,-0.027588,0,0.037967,0,0,0,0.0060248,-0.00091033,0.0015343,12.453,0.0022163,0.0060925,5.6302e-09,0.6,0.64,0
0.030264,0.031761,0.005764,-0.00035832,0.0016217,0.001425,0,0,0.05385,-0.02574,0,0.037049,0,0,0,0.0060795,-0.00067373,0.0016217,12.481,0.0023425,0.0059475,5.6329e-09,0.62,0.64,0
0.031337,0.032523,0.0058354,-8.2446e-05,0.0017259,0.0014039,0,0,0.053424,-0.023508,0,0.036501,0,0,0,0.0061516,-0.0003986,0.0017259,12.691,0.0024929,0.0057881,5.6264e-09,0.64,0.64,0
0.032401,0.033246,0.0059118,0.00023847,0.0018451,0.0014057,0,0,0.052867,-0.020886,0,0.036548,0,0,0,0.006241,-9.0722e-05,0.0018451,13.18,0.0026651,0.0056197,5.6031e-09,0.66,0.64,0
0.033452,0.033949,0.0059919,0.00058871,0.0019742,0.0014403,0,0,0.05223,-0.018011,0,0.037449,0,0,0,0.0063519,0.00022873,0.0019742,14.032,0.0028516,0.0054637,5.5852e-09,0.68,0.64,0
0.03449,0.034653,0.0060768,0.00093909,0.0021048,0.0015119,0,0,0.051637,-0.015154,0,0.039308,0,0,0,0.0064887,0.00052722,0.0021048,15.239,0.0030402,0.0053501,5.6209e-09,0.7,0.64,0
0.035518,0.03538,0.0061688,0.0012609,0.0022289,0.0016134,0,0,0.051219,-0.012584,0,0.041949,0,0,0,0.0066517,0.000778,0.0022289,16.662,0.0032195,0.0052994,5.7557e-09,0.72,0.64,0
0.036539,0.036146,0.0062685,0.0015387,0.0023421,0.0017317,0,0,0.051042,-0.010445,0,0.045024,0,0,0,0.0068347,0.00097244,0.0023421,18.107,0.0033831,0.0053115,6.0055e-09,0.74,0.64,0
0.037559,0.036961,0.0063733,0.001771,0.0024433,0.0018525,0,0,0.05109,-0.0087402,0,0.048165,0,0,0,0.0070263,0.0011179,0.0024433,19.418,0.0035292,0.0053698,6.349e-09,0.76,0.64,0
0.038582,0.03783,0.0064785,0.0019643,0.0025329,0.001966,0,0,0.051294,-0.0073909,0,0.051116,0,0,0,0.0072147,0.0012282,0.0025329,20.528,0.0036586,0.0054525,6.7459e-09,0.78,0.64,0
0.039611,0.038752,0.0065785,0.0021268,0.0026116,0.0020663,0,0,0.05157,-0.0063028,0,0.053724,0,0,0,0.0073898,0.0013155,0.0026116,21.436,0.0037723,0.0055411,7.1525e-09,0.8,0.64,0
0.040645,0.039724,0.0066689,0.0022657,0.0026804,0.0021508,0,0,0.051851,-0.0053906,0,0.055922,0,0,0,0.0075452,0.0013895,0.0026804,22.166,0.0038717,0.0056225,7.5317e-09,0.82,0.64,0
0.041685,0.040741,0.0067467,0.0023874,0.0027403,0.0022187,0,0,0.052084,-0.0045866,0,0.057686,0,0,0,0.0076773,0.0014568,0.0027403,22.754,0.0039581,0.0056884,7.8555e-09,0.84,0.64,0
0.042729,0.041799,0.0068102,0.0024968,0.0027921,0.0022705,0,0,0.052236,-0.0038389,0,0.059033,0,0,0,0.0077851,0.001522,0.0027921,23.236,0.0040331,0.0057345,8.1064e-09,0.86,0.64,0
0.043775,0.042891,0.0068589,0.0025974,0.0028369,0.0023078,0,0,0.052286,-0.0031137,0,0.060003,0,0,0,0.0078692,0.0015871,0.0028369,23.642,0.0040977,0.0057598,8.2777e-09,0.88,0.64,0
0.04482,0.044014,0.006893,0.0026907,0.0028751,0.0023334,0,0,0.052233,-0.0023974,0,0.060669,0,0,0,0.0079319,0.0016518,0.0028751,23.999,0.0041529,0.0057665,8.374e-09,0.9,0.64,0
0.045864,0.045164,0.0069141,0.0027766,0.0029072,0.0023508,0,0,0.05209,-0.0016978,0,0.061121,0,0,0,0.0079769,0.0017139,0.0029072,24.326,0.0041993,0.0057598,8.4113e-09,0.92,0.64,0
0.046904,0.046337,0.0069246,0.0028529,0.0029333,0.0023642,0,0,0.051888,-0.0010448,0,0.06147,0,0,0,0.0080087,0.0017688,0.0029333,24.634,0.0042369,0.0057469,8.4149e-09,0.94,0.64,0
0.047939,0.047533,0.006928,0.0029153,0.002953,0.0023783,0,0,0.051675,-0.00049026,0,0.061836,0,0,0,0.0080332,0.0018101,0.002953,24.924,0.0042654,0.0057377,8.4184e-09,0.96,0.64,0
0.048971,0.048753,0.0069288,0.0029575,0.0029659,0.0023979,0,0,0.051518,-0.00010903,0,0.062346,0,0,0,0.0080565,0.0018298,0.0029659,25.186,0.0042841,0.0057435,8.4619e-09,0.98,0.64,0
0.05,0.05,0.0069276,0.002969,0.002969,0.0023978,0,0,0.051462,8.8008e-17,0,0.062344,0,0,0,0.0080575,0.0018391,0.002969,25.231,0.0042885,0.0057376,8.4465e-09,1,0.64,0
0,0,0.0051745,0.0022177,0.0022177,0.00072483,0,0,0.03844,-1.0842e-19,0,0.018846,0,0,0,0.0053427,0.0020495,0.0022177,13.059,0.0032033,0.0032124,1.6868e-09,0,0.66,0
0.00076879,0.00037691,0.0051599,0.002053,0.0021639,0.0007378,0,0,0.038948,-0.0014416,0,0.019183,0,0,0,0.0053262,0.0018866,0.0021639,12.702,0.0031256,0.0033096,1.818e-09,0.02,0.66,0
0.0015579,0.00081618,0.0052127,0.0019185,0.0021394,0.00081177,0,0,0.039953,-0.0028707,0,0.021106,0,0,0,0.0054018,0.0017293,0.0021394,13.118,0.0030902,0.0034856,2.0739e-09,0.04,0.66,0
0.0023669,0.0013182,0.0052628,0.0017873,0.002115,0.00088667,0,0,0.040921,-0.0042606,0,0.023053,0,0,0,0.0054759,0.0015741,0.002115,13.516,0.003055,0.0036614,2.3366e-09,0.06,0.66,0
0.0031948,0.0018831,0.005309,0.0016608,0.0020909,0.00096178,0,0,0.041835,-0.0055917,0,0.025006,0,0,0,0.005547,0.0014228,0.0020909,13.901,0.0030203,0.0038341,2.6009e-09,0.08,0.66,0
0.0040403,0.0025104,0.0053504,0.0015402,0.0020672,0.0010366,0,0,0.042682,-0.0068505,0,0.026952,0,0,0,0.0056142,0.0012765,0.0020672,14.276,0.002986,0.0040014,2.8621e-09,0.1,0.66,0
0.004902,0.0031998,0.0053864,0.0014261,0.0020438,0.0011108,0,0,0.043455,-0.0080292,0,0.028882,0,0,0,0.0056767,0.0011358,0.0020438,14.646,0.0029521,0.0041619,3.1167e-09,0.12,0.66,0
0.0057785,0.0039504,0.0054166,0.0013185,0.0020205,0.0011844,0,0,0.044148,-0.0091257,0,0.030794,0,0,0,0.0057342,0.0010009,0.0020205,15.014,0.0029185,0.0043148,3.362e-09,0.14,0.66,0
0.006668,0.0047614,0.0054407,0.0012171,0.0019973,0.0012572,0,0,0.044763,-0.010143,0,0.032688,0,0,0,0.0057866,0.0008712,0.0019973,15.383,0.002885,0.0044602,3.5965e-09,0.16,0.66,0
0.007569,0.0056319,0.0054588,0.0011209,0.0019739,0.0013296,0,0,0.045304,-0.011089,0,0.034569,0,0,0,0.0058339,0.00074585,0.0019739,15.754,0.0028512,0.0045987,3.8199e-09,0.18,0.66,0
0.0084801,0.0065605,0.0054714,0.0010287,0.0019501,0.0014017,0,0,0.045778,-0.011977,0,0.036444,0,0,0,0.0058767,0.00062346,0.0019501,16.126,0.0028167,0.0047316,4.0331e-09,0.2,0.66,0
0.0094001,0.0075462,0.0054791,0.00093874,0.0019253,0.0014739,0,0,0.046199,-0.012826,0,0.038321,0,0,0,0.0059156,0.00050225,0.0019253,16.497,0.0027811,0.0048606,4.238e-09,0.22,0.66,0
0.010328,0.0085874,0.0054827,0.00084872,0.0018994,0.0015463,0,0,0.046583,-0.013659,0,0.040204,0,0,0,0.0059513,0.00038012,0.0018994,16.859,0.0027436,0.0049882,4.4377e-09,0.24,0.66,0
0.011263,0.0096824,0.0054836,0.00075608,0.0018719,0.001619,0,0,0.046952,-0.014506,0,0.042094,0,0,0,0.0059849,0.0002548,0.0018719,17.204,0.0027039,0.0051169,4.6353e-09,0.26,0.66,0
0.012206,0.010829,0.0054833,0.00065793,0.0018424,0.0016915,0,0,0.047332,-0.015398,0,0.04398,0,0,0,0.0060172,0.00012403,0.0018424,17.517,0.0026612,0.0052493,4.8341e-09,0.28,0.66,0
0.013157,0.012025,0.0054834,0.00055128,0.0018104,0.0017631,0,0,0.047749,-0.016369,0,0.045839,0,0,0,0.0060488,-1.4137e-05,0.0018104,17.781,0.002615,0.0053876,5.0367e-09,0.3,0.66,0
0.014116,0.013266,0.0054858,0.0004333,0.0017757,0.0018319,0,0,0.048231,-0.017452,0,0.047631,0,0,0,0.0060802,-0.00016102,0.0017757,17.974,0.002565,0.0055331,5.2436e-09,0.32,0.66,0
0.015086,0.014549,0.0054924,0.00030181,0.0017383,0.0018958,0,0,0.048804,-0.018674,0,0.049291,0,0,0,0.0061111,-0.00031688,0.0017383,18.074,0.0025108,0.0056861,5.4533e-09,0.34,0.66,0
0.016068,0.015865,0.0055045,0.00015575,0.0016981,0.0019515,0,0,0.049483,-0.02005,0,0.050739,0,0,0,0.0061408,-0.00048057,0.0016981,18.059,0.0024528,0.0058449,5.661e-09,0.36,0.66,0
0.017065,0.017208,0.0055232,-4.2589e-06,0.0016557,0.0019953,0,0,0.050277,-0.021579,0,0.051877,0,0,0,0.0061681,-0.00064925,0.0016557,17.914,0.0023915,0.0060063,5.8592e-09,0.38,0.66,0
0.018079,0.018569,0.0055487,-0.00017547,0.001612,0.002023,0,0,0.051178,-0.023237,0,0.052598,0,0,0,0.0061915,-0.00081825,0.001612,17.627,0.0023284,0.006165,6.0385e-09,0.4,0.66,0
0.019112,0.019934,0.0055808,-0.00035256,0.0015685,0.0020307,0,0,0.05216,-0.024973,0,0.052799,0,0,0,0.0062092,-0.00098102,0.0015685,17.196,0.0022656,0.0063141,6.1884e-09,0.42,0.66,0
0.020166,0.021291,0.0056177,-0.00052731,0.0015271,0.0020151,0,0,0.053178,-0.026708,0,0.052391,0,0,0,0.0062196,-0.0011291,0.0015271,16.629,0.0022059,0.0064451,6.2993e-09,0.44,0.66,0
0.02124,0.022625,0.0056572,-0.00068834,0.0014907,0.0019742,0,0,0.054165,-0.028327,0,0.05133,0,0,0,0.0062212,-0.0012524,0.0014907,15.946,0.0021532,0.0065482,6.364e-09,0.46,0.66,0
0.022332,0.023921,0.0056962,-0.00082154,0.0014624,0.0019093,0,0,0.055039,-0.029691,0,0.049641,0,0,0,0.0062143,-0.0013396,0.0014624,15.182,0.0021123,0.0066141,6.3811e-09,0.48,0.66,0
0.023441,0.025166,0.0057325,-0.00091218,0.0014461,0.001825,0,0,0.055723,-0.030658,0,0.047451,0,0,0,0.0062007,-0.0013804,0.0014461,14.39,0.0020888,0.0066359,6.357e-09,0.5,0.66,0
0.024561,0.026348,0.0057654,-0.00094879,0.001445,0.0017299,0,0,0.056165,-0.031119,0,0.044978,0,0,0,0.0061849,-0.0013683,0.001445,13.631,0.0020872,0.0066118,6.305e-09,0.52,0.66,0
0.025688,0.027461,0.0057963,-0.00092668,0.0014609,0.0016338,0,0,0.05636,-0.031038,0,0.04248,0,0,0,0.0061723,-0.0013027,0.0014609,12.961,0.0021102,0.0065464,6.2412e-09,0.54,0.66,0
0.026816,0.028504,0.0058281,-0.00084815,0.001494,0.0015452,0,0,0.056343,-0.030448,0,0.040175,0,0,0,0.0061684,-0.0011884,0.001494,12.419,0.002158,0.0064486,6.1786e-09,0.56,0.66,0
0.027941,0.029477,0.0058638,-0.00071904,0.0015434,0.001469,0,0,0.056165,-0.029412,0,0.038195,0,0,0,0.0061767,-0.001032,0.0015434,12.026,0.0022294,0.0063272,6.123e-09,0.58,0.66,0
0.029062,0.030387,0.0059049,-0.00054445,0.0016082,0.0014076,0,0,0.055858,-0.027984,0,0.036597,0,0,0,0.0061988,-0.00083826,0.0016082,11.79,0.0023229,0.0061878,6.0718e-09,0.6,0.66,0
0.030176,0.03124,0.0059513,-0.00032697,0.0016873,0.0013626,0,0,0.055432,-0.026185,0,0.035428,0,0,0,0.0062343,-0.00060996,0.0016873,11.732,0.0024372,0.0060331,6.016e-09,0.62,0.66,0
0.03128,0.032047,0.0060012,-6.8814e-05,0.0017797,0.001338,0,0,0.054879,-0.024031,0,0.034787,0,0,0,0.006283,-0.00035064,0.0017797,11.895,0.0025707,0.0058662,5.9478e-09,0.64,0.66,0
0.032371,0.032821,0.0060537,0.00022383,0.0018833,0.0013392,0,0,0.054216,-0.021573,0,0.03482,0,0,0,0.0063467,-6.9102e-05,0.0018833,12.338,0.0027203,0.0056963,5.8704e-09,0.66,0.66,0
0.033448,0.033579,0.0061092,0.0005374,0.001994,0.0013717,0,0,0.053498,-0.018936,0,0.035665,0,0,0,0.0064286,0.00021799,0.001994,13.107,0.0028802,0.0055404,5.8046e-09,0.68,0.66,0
0.034511,0.034338,0.0061694,0.00085253,0.0021066,0.0014364,0,0,0.052817,-0.016303,0,0.037347,0,0,0,0.0065327,0.00048927,0.0021066,14.192,0.0030429,0.0054189,5.7851e-09,0.7,0.66,0
0.035561,0.035115,0.0062363,0.0011503,0.002216,0.0015284,0,0,0.052264,-0.013854,0,0.03974,0,0,0,0.0066603,0.00072633,0.002216,15.504,0.0032009,0.0053471,5.8459e-09,0.72,0.66,0
0.036602,0.035924,0.0063105,0.0014184,0.0023187,0.0016383,0,0,0.051894,-0.011704,0,0.042597,0,0,0,0.0068085,0.00092039,0.0023187,16.907,0.0033492,0.0053284,6.0034e-09,0.74,0.66,0
0.037637,0.036776,0.0063905,0.0016527,0.002413,0.0017555,0,0,0.051708,-0.0098839,0,0.045643,0,0,0,0.0069701,0.0010731,0.002413,18.27,0.0034854,0.0053543,6.2505e-09,0.76,0.66,0
0.03867,0.037673,0.0064728,0.0018551,0.0024984,0.0018708,0,0,0.051668,-0.0083624,0,0.048641,0,0,0,0.0071356,0.0011923,0.0024984,19.508,0.0036088,0.0054098,6.5615e-09,0.78,0.66,0
0.039703,0.038619,0.0065532,0.0020307,0.0025752,0.0019778,0,0,0.051715,-0.0070783,0,0.051423,0,0,0,0.0072961,0.0012878,0.0025752,20.587,0.0037197,0.0054793,6.9021e-09,0.8,0.66,0
0.040738,0.039611,0.0066276,0.0021848,0.0026437,0.0020725,0,0,0.051791,-0.0059663,0,0.053886,0,0,0,0.0074443,0.0013681,0.0026437,21.507,0.0038187,0.0055495,7.2384e-09,0.82,0.66,0
0.041775,0.040647,0.0066927,0.0023222,0.0027045,0.002153,0,0,0.051847,-0.0049698,0,0.055978,0,0,0,0.0075751,0.0014397,0.0027045,22.287,0.0039064,0.005611,7.542e-09,0.84,0.66,0
0.042812,0.041721,0.0067465,0.0024467,0.0027579,0.0022186,0,0,0.051851,-0.0040462,0,0.057685,0,0,0,0.007686,0.0015072,0.0027579,22.951,0.0039837,0.0056581,7.7925e-09,0.86,0.66,0
0.043849,0.04283,0.0067879,0.0025607,0.0028046,0.0022701,0,0,0.051783,-0.0031704,0,0.059023,0,0,0,0.007776,0.0015726,0.0028046,23.522,0.0040511,0.0056884,7.9791e-09,0.88,0.66,0
0.044884,0.043968,0.0068172,0.0026649,0.0028446,0.002309,0,0,0.051643,-0.0023363,0,0.060034,0,0,0,0.0078462,0.0016359,0.0028446,24.02,0.0041089,0.0057028,8.1018e-09,0.9,0.66,0
0.045915,0.045132,0.0068355,0.0027583,0.0028781,0.0023379,0,0,0.051445,-0.001558,0,0.060784,0,0,0,0.0078987,0.001695,0.0028781,24.456,0.0041573,0.0057049,8.1707e-09,0.92,0.66,0
0.046941,0.046318,0.0068452,0.002838,0.0029049,0.0023598,0,0,0.051223,-0.00087034,0,0.061355,0,0,0,0.0079372,0.0017459,0.0029049,24.834,0.004196,0.0057008,8.2055e-09,0.94,0.66,0
0.047964,0.047525,0.0068495,0.0028994,0.0029247,0.0023785,0,0,0.051023,-0.0003283,0,0.061841,0,0,0,0.0079661,0.0017829,0.0029247,25.147,0.0042245,0.0056988,8.2337e-09,0.96,0.66,0
0.048982,0.048752,0.0068529,0.0029362,0.0029367,0.0023978,0,0,0.05091,-6.6573e-06,0,0.062344,0,0,0,0.0079904,0.0017986,0.0029367,25.381,0.0042419,0.0057085,8.2885e-09,0.98,0.66,0
0.05,0.05,0.0068498,0.0029356,0.0029356,0.0023994,0,0,0.050884,8.1585e-17,0,0.062384,0,0,0,0.007989,0.0017964,0.0029356,25.399,0.0042404,0.0057089,8.288e-09,1,0.66,0
0,0,0.0050111,0.0021476,0.0021476,0.00066888,0,0,0.037226,-7.5894e-19,0,0.017391,0,0,0,0.0051597,0.0019991,0.0021476,12.52,0.0031021,0.003089,1.502e-09,0,0.68,0
0.00074451,0.00034782,0.004996,0.0019788,0.0020924,0.00068265,0,0,0.037747,-0.0014776,0,0.017749,0,0,0,0.0051433,0.0018315,0.0020924,12.173,0.0030224,0.0031893,1.6286e-09,0.02,0.68,0
0.0015099,0.00075834,0.0050503,0.0018424,0.0020678,0.00075875,0,0,0.038772,-0.0029304,0,0.019727,0,0,0,0.0052207,0.001672,0.0020678,12.658,0.0029868,0.0033683,1.8716e-09,0.04,0.68,0
0.0022954,0.0012325,0.005102,0.0017102,0.0020436,0.00083704,0,0,0.039758,-0.0043352,0,0.021763,0,0,0,0.0052973,0.0015148,0.0020436,13.135,0.0029519,0.0035477,2.1226e-09,0.06,0.68,0
0.0031002,0.0017707,0.00515,0.0015835,0.00202,0.00091649,0,0,0.040689,-0.0056753,0,0.023829,0,0,0,0.0053717,0.0013617,0.00202,13.6,0.0029178,0.0037247,2.3769e-09,0.08,0.68,0
0.003923,0.0023728,0.0051936,0.0014632,0.001997,0.00099634,0,0,0.041555,-0.00694,0,0.025905,0,0,0,0.005443,0.0012138,0.001997,14.055,0.0028846,0.0038971,2.6307e-09,0.1,0.68,0
0.0047624,0.0030386,0.0052324,0.0013497,0.0019746,0.001076,0,0,0.042351,-0.0081239,0,0.027977,0,0,0,0.0055106,0.0010714,0.0019746,14.499,0.0028522,0.0040636,2.8807e-09,0.12,0.68,0
0.005617,0.0037673,0.0052661,0.0012429,0.0019527,0.0011552,0,0,0.043074,-0.0092273,0,0.030035,0,0,0,0.0055742,0.00093479,0.0019527,14.934,0.0028205,0.0042234,3.1246e-09,0.14,0.68,0
0.0064853,0.0045578,0.0052947,0.0011422,0.0019311,0.0012336,0,0,0.043727,-0.010255,0,0.032075,0,0,0,0.0056336,0.00080338,0.0019311,15.359,0.0027893,0.0043767,3.3613e-09,0.16,0.68,0
0.0073661,0.0054091,0.0053186,0.0010467,0.0019096,0.0013113,0,0,0.044317,-0.011217,0,0.034094,0,0,0,0.005689,0.00067632,0.0019096,15.773,0.0027583,0.0045239,3.5906e-09,0.18,0.68,0
0.008258,0.0063198,0.0053383,0.00095501,0.001888,0.0013881,0,0,0.044854,-0.012129,0,0.036092,0,0,0,0.0057409,0.00055238,0.001888,16.175,0.0027271,0.0046663,3.8132e-09,0.2,0.68,0
0.0091602,0.0072881,0.0053545,0.00086534,0.0018659,0.0014642,0,0,0.045351,-0.013008,0,0.038069,0,0,0,0.0057899,0.00042999,0.0018659,16.559,0.0026953,0.0048056,4.0309e-09,0.22,0.68,0
0.010072,0.0083122,0.0053683,0.00077562,0.0018432,0.0015394,0,0,0.045827,-0.013878,0,0.040024,0,0,0,0.0058366,0.00030738,0.0018432,16.918,0.0026624,0.0049436,4.2459e-09,0.24,0.68,0
0.010993,0.0093899,0.005381,0.00068351,0.0018194,0.0016134,0,0,0.046302,-0.014766,0,0.04195,0,0,0,0.0058818,0.00018273,0.0018194,17.243,0.002628,0.0050824,4.4608e-09,0.26,0.68,0
0.011924,0.010518,0.0053941,0.00058655,0.0017942,0.0016857,0,0,0.046798,-0.015699,0,0.04383,0,0,0,0.0059262,5.4354e-05,0.0017942,17.521,0.0025916,0.005224,4.6779e-09,0.28,0.68,0
0.012865,0.011694,0.005409,0.00048229,0.0017674,0.0017553,0,0,0.047341,-0.016706,0,0.045636,0,0,0,0.0059704,-7.9084e-05,0.0017674,17.736,0.0025529,0.0053698,4.8989e-09,0.3,0.68,0
0.013818,0.012914,0.0054275,0.00036864,0.0017388,0.0018203,0,0,0.047953,-0.017813,0,0.047329,0,0,0,0.0060144,-0.00021828,0.0017388,17.87,0.0025117,0.0055208,5.1239e-09,0.32,0.68,0
0.014783,0.014171,0.005451,0.00024412,0.0017086,0.0018788,0,0,0.048652,-0.019038,0,0.048849,0,0,0,0.0060582,-0.00036301,0.0017086,17.908,0.0024679,0.0056764,5.3513e-09,0.34,0.68,0
0.015764,0.01546,0.0054808,0.00010833,0.0016767,0.0019279,0,0,0.049453,-0.020389,0,0.050125,0,0,0,0.006101,-0.0005119,0.0016767,17.834,0.0024219,0.005835,5.5772e-09,0.36,0.68,0
0.016761,0.016774,0.0055174,-3.7713e-05,0.0016439,0.0019644,0,0,0.050356,-0.021861,0,0.051075,0,0,0,0.0061419,-0.00066219,0.0016439,17.635,0.0023745,0.0059936,5.7956e-09,0.38,0.68,0
0.017778,0.018101,0.005561,-0.00019115,0.001611,0.0019851,0,0,0.051351,-0.023427,0,0.051612,0,0,0,0.0061796,-0.00080968,0.001611,17.307,0.0023269,0.0061474,5.999e-09,0.4,0.68,0
0.018815,0.019433,0.0056108,-0.00034701,0.0015792,0.0019867,0,0,0.052412,-0.02504,0,0.051654,0,0,0,0.0062125,-0.00094872,0.0015792,16.85,0.002281,0.0062905,6.1791e-09,0.42,0.68,0
0.019875,0.020757,0.0056652,-0.00049803,0.0015502,0.0019669,0,0,0.053496,-0.026627,0,0.051141,0,0,0,0.0062395,-0.0010723,0.0015502,16.275,0.0022391,0.0064159,6.3279e-09,0.44,0.68,0
0.020955,0.02206,0.0057219,-0.00063476,0.0015261,0.001925,0,0,0.054545,-0.028092,0,0.050049,0,0,0,0.0062594,-0.0011722,0.0015261,15.601,0.0022044,0.0065159,6.4395e-09,0.46,0.68,0
0.022056,0.023331,0.0057783,-0.00074626,0.0015096,0.0018621,0,0,0.055493,-0.029326,0,0.048414,0,0,0,0.0062723,-0.0012403,0.0015096,14.859,0.0021805,0.0065834,6.5114e-09,0.48,0.68,0
0.023175,0.024556,0.005832,-0.00082168,0.0015031,0.0017823,0,0,0.056275,-0.030222,0,0.046339,0,0,0,0.0062793,-0.001269,0.0015031,14.09,0.0021711,0.0066134,6.5461e-09,0.5,0.68,0
0.024307,0.025729,0.0058817,-0.00085242,0.0015088,0.0016919,0,0,0.056848,-0.030696,0,0.04399,0,0,0,0.0062829,-0.0012536,0.0015088,13.339,0.0021794,0.0066039,6.5499e-09,0.52,0.68,0
0.025449,0.026843,0.0059275,-0.00083386,0.0015281,0.0015985,0,0,0.057192,-0.030705,0,0.041561,0,0,0,0.0062864,-0.0011927,0.0015281,12.653,0.0022073,0.0065567,6.5308e-09,0.54,0.68,0
0.026595,0.027896,0.0059703,-0.00076563,0.0015614,0.0015091,0,0,0.057315,-0.030251,0,0.039238,0,0,0,0.0062929,-0.0010883,0.0015614,12.068,0.0022554,0.0064765,6.4958e-09,0.56,0.68,0
0.027742,0.028888,0.0060114,-0.00065012,0.0016084,0.0014295,0,0,0.057239,-0.029361,0,0.037168,0,0,0,0.0063052,-0.00094394,0.0016084,11.614,0.0023232,0.0063689,6.4482e-09,0.58,0.68,0
0.028885,0.029825,0.0060519,-0.0004907,0.0016684,0.001364,0,0,0.056986,-0.028068,0,0.035465,0,0,0,0.0063249,-0.00076369,0.0016684,11.317,0.0024098,0.0062388,6.3877e-09,0.6,0.68,0
0.030021,0.030713,0.0060922,-0.0002909,0.0017404,0.0013165,0,0,0.056573,-0.026407,0,0.034228,0,0,0,0.006353,-0.00055175,0.0017404,11.208,0.0025139,0.0060912,6.3121e-09,0.62,0.68,0
0.031148,0.031562,0.0061324,-5.5291e-05,0.0018231,0.001291,0,0,0.05602,-0.02442,0,0.033565,0,0,0,0.0063909,-0.00031382,0.0018231,11.325,0.0026334,0.0059323,6.2217e-09,0.64,0.68,0
0.032262,0.032383,0.0061731,0.00020872,0.0019146,0.0012917,0,0,0.055362,-0.022176,0,0.033585,0,0,0,0.0064409,-5.9014e-05,0.0019146,11.71,0.0027655,0.0057719,6.1247e-09,0.66,0.68,0
0.033362,0.033191,0.0062157,0.00048992,0.0020117,0.0013216,0,0,0.054652,-0.019783,0,0.034363,0,0,0,0.0065061,0.00019958,0.0020117,12.39,0.0029058,0.0056238,6.0399e-09,0.68,0.68,0
0.034448,0.034001,0.0062619,0.00077449,0.0021109,0.0013807,0,0,0.053963,-0.017374,0,0.035897,0,0,0,0.0065897,0.00044669,0.0021109,13.356,0.0030491,0.005503,5.9939e-09,0.7,0.68,0
0.035521,0.034826,0.0063135,0.0010491,0.0022088,0.0014649,0,0,0.053362,-0.015076,0,0.038087,0,0,0,0.0066937,0.00066897,0.0022088,14.548,0.0031905,0.0054214,6.0126e-09,0.72,0.68,0
0.036582,0.035678,0.0063711,0.0013042,0.0023026,0.0015674,0,0,0.05289,-0.012979,0,0.040752,0,0,0,0.0068167,0.00085859,0.0023026,15.872,0.003326,0.0053834,6.1115e-09,0.74,0.68,0
0.037636,0.036566,0.0064336,0.0015352,0.0023906,0.0016799,0,0,0.052558,-0.01112,0,0.043679,0,0,0,0.0069544,0.0010145,0.0023906,17.224,0.0034532,0.0053854,6.2903e-09,0.76,0.68,0
0.038685,0.037495,0.0064986,0.0017419,0.0024722,0.0017948,0,0,0.052344,-0.0094936,0,0.046665,0,0,0,0.0070999,0.0011407,0.0024722,18.52,0.0035709,0.0054176,6.5335e-09,0.78,0.68,0
0.03973,0.038469,0.0065629,0.0019266,0.0025469,0.0019056,0,0,0.052209,-0.0080631,0,0.049545,0,0,0,0.0072456,0.0012439,0.0025469,19.71,0.0036788,0.0054679,6.8162e-09,0.8,0.68,0
0.040773,0.039485,0.006623,0.002093,0.0026148,0.0020077,0,0,0.052107,-0.0067837,0,0.0522,0,0,0,0.0073847,0.0013312,0.0026148,20.777,0.0037769,0.0055247,7.1098e-09,0.82,0.68,0
0.041814,0.040542,0.0066759,0.0022443,0.0026761,0.0020982,0,0,0.051998,-0.0056131,0,0.054553,0,0,0,0.0075117,0.0014085,0.0026761,21.719,0.0038654,0.0055785,7.3877e-09,0.84,0.68,0
0.042853,0.041637,0.0067195,0.0023831,0.0027308,0.0021754,0,0,0.051853,-0.0045196,0,0.05656,0,0,0,0.0076227,0.0014799,0.0027308,22.548,0.0039445,0.0056227,7.6284e-09,0.86,0.68,0
0.043888,0.042764,0.0067527,0.0025108,0.002779,0.0022389,0,0,0.051657,-0.003487,0,0.058211,0,0,0,0.0077157,0.0015478,0.002779,23.275,0.0040142,0.0056538,7.8185e-09,0.88,0.68,0
0.044919,0.043921,0.0067756,0.0026272,0.0028208,0.0022891,0,0,0.051412,-0.0025172,0,0.059518,0,0,0,0.0077905,0.0016123,0.0028208,23.91,0.0040745,0.0056713,7.9534e-09,0.9,0.68,0
0.045945,0.045101,0.0067893,0.0027304,0.0028559,0.0023276,0,0,0.051134,-0.0016316,0,0.060517,0,0,0,0.0078479,0.0016718,0.0028559,24.457,0.0041252,0.0056775,8.0381e-09,0.92,0.68,0
0.046965,0.046302,0.0067961,0.002817,0.0028839,0.0023563,0,0,0.050858,-0.00087038,0,0.061263,0,0,0,0.0078904,0.0017226,0.0028839,24.912,0.0041656,0.0056769,8.087e-09,0.94,0.68,0
0.047979,0.04752,0.0067991,0.0028818,0.0029043,0.002378,0,0,0.050633,-0.00029222,0,0.061827,0,0,0,0.0079212,0.0017597,0.0029043,25.261,0.0041951,0.0056764,8.1216e-09,0.96,0.68,0
0.04899,0.048753,0.0068025,0.0029184,0.0029163,0.0023956,0,0,0.050521,2.7841e-05,0,0.062285,0,0,0,0.0079444,0.0017766,0.0029163,25.484,0.0042124,0.0056843,8.1693e-09,0.98,0.68,0
0.05,0.05,0.0067984,0.0029136,0.0029136,0.0023984,0,0,0.050502,3.1269e-17,0,0.062357,0,0,0,0.0079422,0.0017697,0.0029136,25.498,0.0042085,0.0056875,8.1757e-09,1,0.68,0
0,0,0.0048489,0.0020781,0.0020781,0.00061117,0,0,0.03602,4.3368e-19,0,0.01589,0,0,0,0.0049777,0.0019493,0.0020781,11.902,0.0030017,0.0029661,1.3317e-09,0,0.7,0
0.00072041,0.00031781,0.0048331,0.001903,0.0020208,0.00062571,0,0,0.036559,-0.0015313,0,0.016268,0,0,0,0.0049611,0.001775,0.0020208,11.564,0.002919,0.0030706,1.4548e-09,0.02,0.7,0
0.0014624,0.00069896,0.0048895,0.0017634,0.0019959,0.00070401,0,0,0.037617,-0.0030223,0,0.018304,0,0,0,0.0050407,0.0016122,0.0019959,12.124,0.0028829,0.0032537,1.6865e-09,0.04,0.7,0
0.0022251,0.0011448,0.0049433,0.0016292,0.0019717,0.00078557,0,0,0.03863,-0.0044535,0,0.020425,0,0,0,0.0051201,0.0014524,0.0019717,12.682,0.0028481,0.0034376,1.9268e-09,0.06,0.7,0
0.0030076,0.001656,0.0049937,0.0015015,0.0019486,0.00086906,0,0,0.039587,-0.0058114,0,0.022596,0,0,0,0.005198,0.0012972,0.0019486,13.23,0.0028146,0.0036193,2.1716e-09,0.08,0.7,0
0.0038086,0.0022328,0.00504,0.0013811,0.0019263,0.00095345,0,0,0.040478,-0.0070883,0,0.02479,0,0,0,0.0052736,0.0011475,0.0019263,13.763,0.0027825,0.003797,2.4177e-09,0.1,0.7,0
0.0046267,0.0028748,0.0050821,0.001268,0.001905,0.0010379,0,0,0.041302,-0.0082815,0,0.026986,0,0,0,0.0053463,0.0010038,0.001905,14.279,0.0027517,0.0039693,2.6623e-09,0.12,0.7,0
0.0054606,0.0035813,0.0051199,0.001162,0.0018846,0.0011219,0,0,0.042059,-0.0093934,0,0.029169,0,0,0,0.0054157,0.0008661,0.0018846,14.775,0.0027221,0.0041356,2.9034e-09,0.14,0.7,0
0.0063091,0.0043512,0.0051535,0.0010624,0.0018648,0.0012049,0,0,0.042753,-0.010431,0,0.031327,0,0,0,0.005482,0.00073388,0.0018648,15.249,0.0026935,0.0042958,3.14e-09,0.16,0.7,0
0.0071708,0.0051832,0.0051834,0.00096801,0.0018454,0.0012866,0,0,0.043394,-0.011406,0,0.033451,0,0,0,0.0055451,0.00060635,0.0018454,15.7,0.0026656,0.0044505,3.3721e-09,0.18,0.7,0
0.0080448,0.0060754,0.0052103,0.00087753,0.0018264,0.0013668,0,0,0.043992,-0.012335,0,0.035537,0,0,0,0.0056055,0.0004824,0.0018264,16.124,0.0026381,0.0046007,3.6002e-09,0.2,0.7,0
0.0089305,0.0070259,0.0052351,0.00078918,0.0018073,0.0014453,0,0,0.044562,-0.013235,0,0.037577,0,0,0,0.0056637,0.00036066,0.0018073,16.515,0.0026105,0.0047479,3.8257e-09,0.22,0.7,0
0.0098273,0.0080322,0.0052589,0.00070102,0.001788,0.0015217,0,0,0.045122,-0.01413,0,0.039565,0,0,0,0.0057202,0.00023966,0.001788,16.866,0.0025826,0.0048937,4.0504e-09,0.24,0.7,0
0.010735,0.0090918,0.0052828,0.00061092,0.0017681,0.0015957,0,0,0.045691,-0.015043,0,0.041487,0,0,0,0.0057757,0.00011795,0.0017681,17.168,0.0025539,0.0050396,4.2762e-09,0.26,0.7,0
0.011655,0.010201,0.0053082,0.00051678,0.0017475,0.0016663,0,0,0.046289,-0.015999,0,0.043324,0,0,0,0.0058307,-5.7343e-06,0.0017475,17.41,0.0025242,0.0051871,4.5048e-09,0.28,0.7,0
0.012587,0.011357,0.0053367,0.00041663,0.001726,0.0017326,0,0,0.046939,-0.017022,0,0.045048,0,0,0,0.0058856,-0.00013228,0.001726,17.579,0.0024931,0.0053371,4.7372e-09,0.3,0.7,0
0.013532,0.012554,0.0053694,0.00030889,0.0017035,0.001793,0,0,0.047657,-0.01813,0,0.046618,0,0,0,0.0059403,-0.00026199,0.0017035,17.661,0.0024606,0.0054901,4.9733e-09,0.32,0.7,0
0.014493,0.013787,0.0054077,0.00019265,0.0016801,0.0018455,0,0,0.048459,-0.019337,0,0.047983,0,0,0,0.0059947,-0.00039436,0.0016801,17.645,0.0024268,0.0056454,5.2115e-09,0.34,0.7,0
0.015471,0.01505,0.0054524,6.7926e-05,0.0016561,0.0018877,0,0,0.049352,-0.020646,0,0.049081,0,0,0,0.0060483,-0.00052795,0.0016561,17.519,0.0023921,0.0058012,5.4485e-09,0.36,0.7,0
0.016467,0.016334,0.0055038,-6.3982e-05,0.001632,0.0019171,0,0,0.050334,-0.022047,0,0.049844,0,0,0,0.0061001,-0.00066022,0.001632,17.276,0.0023573,0.0059548,5.6797e-09,0.38,0.7,0
0.017484,0.017631,0.0055618,-0.00020026,0.0016085,0.0019309,0,0,0.051393,-0.023513,0,0.050204,0,0,0,0.006149,-0.00078749,0.0016085,16.915,0.0023233,0.0061021,5.8989e-09,0.4,0.7,0
0.018523,0.018932,0.0056254,-0.0003364,0.0015867,0.001927,0,0,0.052503,-0.025,0,0.050101,0,0,0,0.006194,-0.000905,0.0015867,16.44,0.0022919,0.0062382,6.0995e-09,0.42,0.7,0
0.019584,0.020226,0.005693,-0.00046615,0.0015681,0.0019037,0,0,0.053624,-0.026445,0,0.049495,0,0,0,0.0062339,-0.001007,0.0015681,15.861,0.002265,0.0063573,6.2751e-09,0.44,0.7,0
0.020668,0.021501,0.0057624,-0.00058177,0.0015542,0.0018608,0,0,0.054707,-0.027768,0,0.04838,0,0,0,0.0062679,-0.0010873,0.0015542,15.198,0.0022449,0.0064535,6.4204e-09,0.46,0.7,0
0.021773,0.022748,0.0058313,-0.0006747,0.001547,0.0017998,0,0,0.055696,-0.028882,0,0.046795,0,0,0,0.006296,-0.0011394,0.001547,14.477,0.0022345,0.0065213,6.5326e-09,0.48,0.7,0
0.022896,0.023957,0.0058975,-0.00073664,0.0015482,0.0017242,0,0,0.05654,-0.029704,0,0.044829,0,0,0,0.0063188,-0.001158,0.0015482,13.732,0.0022364,0.0065569,6.6115e-09,0.5,0.7,0
0.024034,0.02512,0.0059593,-0.00076082,0.0015596,0.001639,0,0,0.057197,-0.030165,0,0.042613,0,0,0,0.0063377,-0.0011392,0.0015596,13.001,0.0022527,0.0065582,6.6592e-09,0.52,0.7,0
0.025184,0.026233,0.0060161,-0.00074306,0.0015819,0.0015503,0,0,0.057644,-0.030225,0,0.040307,0,0,0,0.0063547,-0.0010817,0.0015819,12.321,0.002285,0.0065258,6.6791e-09,0.54,0.7,0
0.02634,0.027294,0.0060678,-0.00068193,0.0016158,0.0014643,0,0,0.057876,-0.02987,0,0.038072,0,0,0,0.0063718,-0.00098591,0.0016158,11.728,0.0023339,0.0064623,6.6745e-09,0.56,0.7,0
0.027499,0.028303,0.006115,-0.0005783,0.001661,0.0013867,0,0,0.057902,-0.029111,0,0.036055,0,0,0,0.0063909,-0.00085424,0.001661,11.254,0.0023992,0.0063714,6.6473e-09,0.58,0.7,0
0.028656,0.029264,0.0061583,-0.00043457,0.0017171,0.0013226,0,0,0.057735,-0.027972,0,0.034387,0,0,0,0.0064137,-0.00068999,0.0017171,10.931,0.0024803,0.0062576,6.5985e-09,0.6,0.7,0
0.029808,0.030184,0.0061985,-0.00025426,0.0017833,0.0012763,0,0,0.057398,-0.026488,0,0.033183,0,0,0,0.0064418,-0.00049753,0.0017833,10.791,0.0025759,0.0061261,6.5293e-09,0.62,0.7,0
0.030952,0.03107,0.0062366,-4.2393e-05,0.0018583,0.0012519,0,0,0.056918,-0.024708,0,0.03255,0,0,0,0.006477,-0.0002828,0.0018583,10.87,0.0026841,0.0059838,6.4439e-09,0.64,0.7,0
0.032085,0.031934,0.0062736,0.00019404,0.0019403,0.0012528,0,0,0.056333,-0.022701,0,0.032573,0,0,0,0.0065216,-5.4009e-05,0.0019403,11.199,0.0028026,0.0058397,6.3522e-09,0.66,0.7,0
0.033205,0.032788,0.0063112,0.00044594,0.0020271,0.0012809,0,0,0.055693,-0.020556,0,0.033303,0,0,0,0.0065787,0.00017842,0.0020271,11.797,0.0029281,0.0057052,6.2706e-09,0.68,0.7,0
0.034313,0.033643,0.0063512,0.000703,0.0021163,0.0013356,0,0,0.055054,-0.018372,0,0.034726,0,0,0,0.0066511,0.00040309,0.0021163,12.656,0.0030568,0.0055918,6.2202e-09,0.7,0.7,0
0.035407,0.034512,0.0063949,0.00095548,0.0022051,0.001414,0,0,0.054467,-0.016245,0,0.036764,0,0,0,0.0067405,0.00060986,0.0022051,13.735,0.0031851,0.005509,6.2218e-09,0.72,0.7,0
0.036491,0.035405,0.0064429,0.0011959,0.0022916,0.0015108,0,0,0.053966,-0.014244,0,0.03928,0,0,0,0.0068468,0.00079202,0.0022916,14.968,0.0033101,0.0054616,6.2891e-09,0.74,0.7,0
0.037566,0.036331,0.0064944,0.0014201,0.0023744,0.0016194,0,0,0.053561,-0.012405,0,0.042105,0,0,0,0.0069672,0.00094732,0.0023744,16.275,0.0034296,0.0054484,6.4252e-09,0.76,0.7,0
0.038634,0.037294,0.0065478,0.0016268,0.0024524,0.0017334,0,0,0.05324,-0.010733,0,0.045069,0,0,0,0.0070971,0.0010775,0.0024524,17.582,0.0035423,0.0054635,6.6216e-09,0.78,0.7,0
0.039696,0.038296,0.0066003,0.0018169,0.0025252,0.0018468,0,0,0.052977,-0.009207,0,0.048018,0,0,0,0.0072304,0.0011869,0.0025252,18.838,0.0036475,0.0054979,6.8603e-09,0.8,0.7,0
0.040753,0.03934,0.0066491,0.0019925,0.0025925,0.0019548,0,0,0.052736,-0.0077995,0,0.050826,0,0,0,0.007361,0.0012807,0.0025925,20.008,0.0037447,0.005542,7.1186e-09,0.82,0.7,0
0.041805,0.040422,0.0066917,0.0021557,0.0026542,0.0020537,0,0,0.052487,-0.0064808,0,0.053397,0,0,0,0.0074833,0.001364,0.0026542,21.081,0.0038339,0.0055871,7.3725e-09,0.84,0.7,0
0.042852,0.04154,0.006726,0.0023079,0.0027102,0.0021409,0,0,0.052206,-0.0052299,0,0.055664,0,0,0,0.0075932,0.0014406,0.0027102,22.051,0.0039147,0.0056263,7.6008e-09,0.86,0.7,0
0.043893,0.04269,0.0067511,0.0024494,0.0027602,0.0022149,0,0,0.051883,-0.0040399,0,0.057588,0,0,0,0.0076877,0.0015128,0.0027602,22.92,0.0039869,0.0056553,7.7878e-09,0.88,0.7,0
0.044928,0.043867,0.0067671,0.0025792,0.0028039,0.0022751,0,0,0.051522,-0.002921,0,0.059152,0,0,0,0.0077652,0.0015811,0.0028039,23.687,0.0040501,0.0056724,7.9254e-09,0.9,0.7,0
0.045954,0.045067,0.0067751,0.0026946,0.0028409,0.0023216,0,0,0.051145,-0.0019023,0,0.060362,0,0,0,0.0078256,0.0016441,0.0028409,24.345,0.0041036,0.0056785,8.014e-09,0.92,0.7,0
0.046973,0.046284,0.0067775,0.0027914,0.0028707,0.0023556,0,0,0.050789,-0.001031,0,0.061246,0,0,0,0.0078701,0.0016987,0.0028707,24.883,0.0041465,0.0056768,8.0628e-09,0.94,0.7,0
0.047986,0.047514,0.0067774,0.0028638,0.0028924,0.0023789,0,0,0.050505,-0.00037076,0,0.061851,0,0,0,0.0079009,0.0017403,0.0028924,25.28,0.0041779,0.0056729,8.0885e-09,0.96,0.7,0
0.048994,0.048753,0.0067787,0.0029053,0.0029052,0.0023936,0,0,0.050355,1.6192e-06,0,0.062233,0,0,0,0.007921,0.001763,0.0029052,25.512,0.0041964,0.0056737,8.114e-09,0.98,0.7,0
0.05,0.05,0.0067742,0.0029032,0.0029032,0.0023972,0,0,0.050322,-1.5442e-16,0,0.062328,0,0,0,0.0079197,0.0017576,0.0029032,25.542,0.0041935,0.0056767,8.1204e-09,1,0.7,0
0,0,0.0046865,0.0020085,0.0020085,0.00055108,0,0,0.034814,0,0,0.014328,0,0,0,0.0047955,0.0018996,0.0020085,11.185,0.0029012,0.002843,1.1744e-09,0,0.72,0
0.00069629,0.00028656,0.0046698,0.0018255,0.0019486,0.00056634,0,0,0.035376,-0.0016002,0,0.014725,0,0,0,0.0047784,0.0017169,0.0019486,10.857,0.0028146,0.0029525,1.2945e-09,0.02,0.72,0
0.001415,0.00063745,0.004729,0.0016815,0.0019231,0.00064699,0,0,0.036476,-0.0031413,0,0.016822,0,0,0,0.0048607,0.0015498,0.0019231,11.503,0.0027779,0.0031409,1.5158e-09,0.04,0.72,0
0.0021553,0.0010543,0.0047855,0.0015445,0.001899,0.00073173,0,0,0.037524,-0.0046082,0,0.019025,0,0,0,0.004943,0.001387,0.001899,12.151,0.002743,0.0033297,1.7458e-09,0.06,0.72,0
0.002916,0.0015382,0.0048386,0.0014154,0.0018762,0.000819,0,0,0.038511,-0.0059906,0,0.021294,0,0,0,0.0050245,0.0012295,0.0018762,12.785,0.0027101,0.0035165,1.9811e-09,0.08,0.72,0
0.0036958,0.0020893,0.0048881,0.0012945,0.0018548,0.00090748,0,0,0.039433,-0.0072838,0,0.023594,0,0,0,0.0051043,0.0010783,0.0018548,13.398,0.0026791,0.0036993,2.2189e-09,0.1,0.72,0
0.0044933,0.0027073,0.0049338,0.0011818,0.0018347,0.00099611,0,0,0.040289,-0.0084878,0,0.025899,0,0,0,0.0051819,0.00093371,0.0018347,13.983,0.0026501,0.003877,2.4568e-09,0.12,0.72,0
0.0053073,0.0033915,0.0049759,0.0010768,0.0018158,0.0010841,0,0,0.041081,-0.0096075,0,0.028185,0,0,0,0.005257,0.00079562,0.0018158,14.538,0.0026228,0.0040489,2.6932e-09,0.14,0.72,0
0.0061366,0.0041406,0.0050146,0.00097857,0.001798,0.0011706,0,0,0.041817,-0.010652,0,0.030436,0,0,0,0.0053296,0.00066362,0.001798,15.059,0.0025971,0.0042149,2.9272e-09,0.16,0.72,0
0.00698,0.0049529,0.0050507,0.00088603,0.001781,0.0012553,0,0,0.042506,-0.011635,0,0.032638,0,0,0,0.0053998,0.00053692,0.001781,15.542,0.0025726,0.0043756,3.1588e-09,0.18,0.72,0
0.0078368,0.0058264,0.0050848,0.00079764,0.0017648,0.0013377,0,0,0.043161,-0.012572,0,0.03478,0,0,0,0.005468,0.0004145,0.0017648,15.983,0.0025491,0.0045318,3.3884e-09,0.2,0.72,0
0.0087065,0.0067587,0.0051179,0.00071169,0.0017489,0.0014173,0,0,0.043798,-0.013484,0,0.03685,0,0,0,0.0055345,0.00029517,0.0017489,16.377,0.0025262,0.0046848,3.6171e-09,0.22,0.72,0
0.0095887,0.007747,0.0051511,0.00062632,0.0017332,0.0014937,0,0,0.044432,-0.01439,0,0.038837,0,0,0,0.0055997,0.00017768,0.0017332,16.717,0.0025035,0.0048357,3.8463e-09,0.24,0.72,0
0.010484,0.0087881,0.0051855,0.00053962,0.0017175,0.0015664,0,0,0.045084,-0.015313,0,0.040726,0,0,0,0.0056643,6.0856e-05,0.0017175,16.996,0.0024809,0.004986,4.0775e-09,0.26,0.72,0
0.011392,0.0098784,0.0052224,0.00044978,0.0017017,0.0016344,0,0,0.04577,-0.016274,0,0.042494,0,0,0,0.0057284,-5.6266e-05,0.0017017,17.204,0.0024579,0.0051365,4.3118e-09,0.28,0.72,0
0.012315,0.011013,0.005263,0.00035518,0.0016854,0.0016967,0,0,0.046508,-0.017293,0,0.044114,0,0,0,0.0057924,-0.00017427,0.0016854,17.331,0.0024345,0.0052881,4.5499e-09,0.3,0.72,0
0.013252,0.012188,0.0053083,0.00025466,0.0016689,0.0017519,0,0,0.047313,-0.018385,0,0.045549,0,0,0,0.0058562,-0.00029324,0.0016689,17.367,0.0024106,0.0054405,4.7913e-09,0.32,0.72,0
0.014207,0.013398,0.0053594,0.00014767,0.0016521,0.0017982,0,0,0.048194,-0.019558,0,0.046753,0,0,0,0.0059196,-0.00041255,0.0016521,17.304,0.0023864,0.0055933,5.0347e-09,0.34,0.72,0
0.01518,0.014634,0.0054167,3.4533e-05,0.0016354,0.0018337,0,0,0.049157,-0.020811,0,0.047676,0,0,0,0.005982,-0.00053082,0.0016354,17.135,0.0023622,0.0057447,5.2775e-09,0.36,0.72,0
0.016173,0.015892,0.0054803,-8.3343e-05,0.0016191,0.0018563,0,0,0.050196,-0.022132,0,0.048263,0,0,0,0.0060428,-0.00064581,0.0016191,16.857,0.0023387,0.0058922,5.5157e-09,0.38,0.72,0
0.017188,0.017161,0.0055499,-0.0002033,0.001604,0.001864,0,0,0.051297,-0.023495,0,0.048463,0,0,0,0.006101,-0.0007544,0.001604,16.471,0.0023169,0.0060325,5.7446e-09,0.4,0.72,0
0.018225,0.018433,0.0056244,-0.00032133,0.0015909,0.0018551,0,0,0.052436,-0.024859,0,0.048233,0,0,0,0.0061558,-0.00085266,0.0015909,15.982,0.002298,0.0061614,5.9589e-09,0.42,0.72,0
0.019285,0.019699,0.0057023,-0.00043216,0.0015811,0.0018289,0,0,0.053577,-0.026172,0,0.047551,0,0,0,0.0062062,-0.00093603,0.0015811,15.403,0.0022837,0.0062745,6.1533e-09,0.44,0.72,0
0.020368,0.020949,0.0057816,-0.00052947,0.0015756,0.0017855,0,0,0.054677,-0.027366,0,0.046423,0,0,0,0.0062517,-0.0009996,0.0015756,14.751,0.0022759,0.0063671,6.3232e-09,0.46,0.72,0
0.021472,0.022175,0.00586,-0.00060649,0.0015761,0.0017265,0,0,0.055692,-0.028373,0,0.044889,0,0,0,0.0062921,-0.0010386,0.0015761,14.051,0.0022765,0.0064349,6.4655e-09,0.48,0.72,0
0.022596,0.023368,0.0059356,-0.0006567,0.0015837,0.0016549,0,0,0.056576,-0.029125,0,0.043028,0,0,0,0.0063278,-0.0010488,0.0015837,13.33,0.0022875,0.006475,6.5785e-09,0.5,0.72,0
0.023735,0.024523,0.0060068,-0.00067471,0.0015996,0.0015751,0,0,0.057293,-0.029566,0,0.040953,0,0,0,0.0063595,-0.0010274,0.0015996,12.621,0.0023106,0.0064855,6.6622e-09,0.52,0.72,0
0.024888,0.025634,0.0060724,-0.00065683,0.0016247,0.0014922,0,0,0.05782,-0.02966,0,0.038796,0,0,0,0.0063884,-0.00097287,0.0016247,11.958,0.0023467,0.0064664,6.7173e-09,0.54,0.72,0
0.026048,0.026701,0.0061321,-0.00060141,0.0016592,0.0014116,0,0,0.058148,-0.029388,0,0.036702,0,0,0,0.0064161,-0.00088537,0.0016592,11.374,0.0023966,0.0064192,6.745e-09,0.56,0.72,0
0.027214,0.027724,0.006186,-0.00050864,0.0017032,0.0013388,0,0,0.058276,-0.028754,0,0.034808,0,0,0,0.0064438,-0.00076644,0.0017032,10.9,0.0024602,0.0063466,6.7464e-09,0.58,0.72,0
0.028379,0.028706,0.0062346,-0.00038028,0.0017563,0.0012787,0,0,0.058218,-0.027775,0,0.033246,0,0,0,0.0064732,-0.00061885,0.0017563,10.569,0.0025369,0.0062525,6.7229e-09,0.6,0.72,0
0.029542,0.029654,0.0062787,-0.0002195,0.0018177,0.0012357,0,0,0.057992,-0.026484,0,0.032129,0,0,0,0.0065057,-0.00044656,0.0018177,10.412,0.0026256,0.0061416,6.6773e-09,0.62,0.72,0
0.030699,0.030574,0.0063194,-3.0873e-05,0.0018866,0.0012138,0,0,0.057627,-0.024927,0,0.031558,0,0,0,0.0065435,-0.00025496,0.0018866,10.46,0.002725,0.0060204,6.6152e-09,0.64,0.72,0
0.031847,0.031475,0.0063581,0.00017956,0.0019613,0.0012156,0,0,0.057158,-0.023162,0,0.031606,0,0,0,0.0065886,-5.101e-05,0.0019613,10.74,0.002833,0.0058969,6.5463e-09,0.66,0.72,0
0.032985,0.032369,0.0063963,0.00040453,0.0020403,0.0012427,0,0,0.056629,-0.021264,0,0.032311,0,0,0,0.0066438,0.000157,0.0020403,11.265,0.002947,0.0057801,6.4848e-09,0.68,0.72,0
0.034112,0.033266,0.0064357,0.00063621,0.0021216,0.0012947,0,0,0.056084,-0.01931,0,0.033662,0,0,0,0.0067116,0.00036031,0.0021216,12.03,0.0030645,0.0056793,6.4479e-09,0.7,0.72,0
0.035229,0.034176,0.0064773,0.00086733,0.0022034,0.0013691,0,0,0.055561,-0.017369,0,0.035597,0,0,0,0.0067936,0.00055103,0.0022034,13.008,0.0031827,0.0056022,6.4523e-09,0.72,0.72,0
0.036335,0.035108,0.0065215,0.0010921,0.0022841,0.0014619,0,0,0.055087,-0.015496,0,0.03801,0,0,0,0.0068902,0.0007235,0.0022841,14.152,0.0032993,0.0055533,6.5103e-09,0.74,0.72,0
0.037432,0.03607,0.0065678,0.001307,0.0023624,0.001568,0,0,0.05467,-0.013721,0,0.040768,0,0,0,0.0069997,0.00087509,0.0023624,15.4,0.0034124,0.005533,6.6265e-09,0.76,0.72,0
0.038522,0.037066,0.0066147,0.0015104,0.0024376,0.0016818,0,0,0.054303,-0.012052,0,0.043726,0,0,0,0.007119,0.0010062,0.0024376,16.692,0.0035209,0.0055377,6.7967e-09,0.78,0.72,0
0.039604,0.0381,0.00666,0.0017027,0.0025088,0.0017978,0,0,0.053966,-0.01048,0,0.046742,0,0,0,0.0072433,0.0011193,0.0025088,17.977,0.0036238,0.005561,7.0083e-09,0.8,0.72,0
0.04068,0.039173,0.0067013,0.0018847,0.0025758,0.0019112,0,0,0.053632,-0.0089848,0,0.049691,0,0,0,0.0073675,0.0012185,0.0025758,19.217,0.0037206,0.0055953,7.2431e-09,0.82,0.72,0
0.04175,0.040283,0.0067363,0.0020576,0.0026382,0.0020179,0,0,0.053276,-0.0075476,0,0.052464,0,0,0,0.0074863,0.0013075,0.0026382,20.39,0.0038107,0.0056326,7.4799e-09,0.84,0.72,0
0.042811,0.041428,0.0067632,0.002222,0.0026956,0.0021144,0,0,0.052879,-0.0061562,0,0.054974,0,0,0,0.0075952,0.00139,0.0026956,21.48,0.0038936,0.0056664,7.6982e-09,0.86,0.72,0
0.043865,0.042603,0.0067812,0.0023775,0.0027476,0.0021982,0,0,0.052437,-0.0048118,0,0.057152,0,0,0,0.0076907,0.0014681,0.0027476,22.476,0.0039688,0.0056917,7.8806e-09,0.88,0.72,0
0.044909,0.043804,0.0067905,0.002522,0.0027938,0.0022674,0,0,0.051958,-0.0035329,0,0.058952,0,0,0,0.0077701,0.0015424,0.0027938,23.366,0.0040354,0.0057059,8.0158e-09,0.9,0.72,0
0.045943,0.045025,0.0067924,0.002652,0.0028333,0.0023211,0,0,0.051468,-0.0023572,0,0.060349,0,0,0,0.0078324,0.001612,0.0028333,24.135,0.0040926,0.0057086,8.0999e-09,0.92,0.72,0
0.046968,0.046261,0.0067893,0.0027624,0.0028655,0.0023594,0,0,0.051009,-0.0013404,0,0.061345,0,0,0,0.0078776,0.0016741,0.0028655,24.762,0.0041391,0.0057019,8.1375e-09,0.94,0.72,0
0.047983,0.047505,0.0067845,0.0028468,0.0028894,0.0023832,0,0,0.050636,-0.00055384,0,0.061963,0,0,0,0.0079069,0.0017243,0.0028894,25.219,0.0041735,0.0056902,8.1414e-09,0.96,0.72,0
0.048993,0.048753,0.0067819,0.0028979,0.0029039,0.002394,0,0,0.050413,-7.8621e-05,0,0.062244,0,0,0,0.0079225,0.0017572,0.0029039,25.476,0.0041946,0.0056794,8.131e-09,0.98,0.72,0
0.05,0.05,0.0067776,0.0029047,0.0029047,0.0023982,0,0,0.050348,-1.2458e-16,0,0.062354,0,0,0,0.0079236,0.0017587,0.0029047,25.54,0.0041957,0.0056793,8.1318e-09,1,0.72,0
0,0,0.0045227,0.0019383,0.0019383,0.00048808,0,0,0.033597,-2.1684e-19,0,0.01269,0,0,0,0.0046118,0.0018492,0.0019383,10.346,0.0027998,0.0027192,1.0289e-09,0,0.74,0
0.00067194,0.0002538,0.0045049,0.0017459,0.0018753,0.00050402,0,0,0.034186,-0.0016813,0,0.013104,0,0,0,0.0045941,0.0016567,0.0018753,10.035,0.0027087,0.0028345,1.1462e-09,0.02,0.74,0
0.0013674,0.00057331,0.0045673,0.0015967,0.0018492,0.00058721,0,0,0.035335,-0.0032823,0,0.015268,0,0,0,0.0046791,0.0014848,0.0018492,10.786,0.0026711,0.0030286,1.3574e-09,0.04,0.74,0
0.0020854,0.00096048,0.0046268,0.0014563,0.0018249,0.00067514,0,0,0.036424,-0.0047918,0,0.017553,0,0,0,0.0047646,0.0013185,0.0018249,11.534,0.002636,0.0032228,1.577e-09,0.06,0.74,0
0.0028244,0.0014164,0.004683,0.0013254,0.0018025,0.00076596,0,0,0.037447,-0.0062031,0,0.019915,0,0,0,0.0048495,0.0011589,0.0018025,12.262,0.0026036,0.0034146,1.8023e-09,0.08,0.74,0
0.0035832,0.0019415,0.0047359,0.0012039,0.0017819,0.00085813,0,0,0.038401,-0.0075145,0,0.022311,0,0,0,0.0049333,0.0010065,0.0017819,12.958,0.0025739,0.0036023,2.0308e-09,0.1,0.74,0
0.0043605,0.0025353,0.0047854,0.0010917,0.0017631,0.00095035,0,0,0.03929,-0.0087288,0,0.024709,0,0,0,0.0050156,0.00086152,0.0017631,13.615,0.0025467,0.0037847,2.2606e-09,0.12,0.74,0
0.0051548,0.003197,0.0048319,0.00098803,0.001746,0.0010415,0,0,0.040117,-0.0098535,0,0.02708,0,0,0,0.005096,0.00072395,0.001746,14.227,0.002522,0.0039612,2.4902e-09,0.14,0.74,0
0.0059651,0.0039251,0.0048759,0.00089188,0.0017303,0.0011308,0,0,0.040892,-0.0109,0,0.029402,0,0,0,0.0051745,0.00059328,0.0017303,14.791,0.0024994,0.0041317,2.7189e-09,0.16,0.74,0
0.0067905,0.0047178,0.004918,0.00080191,0.001716,0.0012175,0,0,0.041626,-0.011883,0,0.031655,0,0,0,0.0052512,0.00046875,0.001716,15.304,0.0024786,0.0042968,2.9467e-09,0.18,0.74,0
0.0076302,0.0055725,0.0049591,0.00071654,0.0017027,0.001301,0,0,0.042334,-0.01282,0,0.033825,0,0,0,0.0053263,0.00034938,0.0017027,15.76,0.0024595,0.0044571,3.1741e-09,0.2,0.74,0
0.0084838,0.0064865,0.0050002,0.00063405,0.0016903,0.0013807,0,0,0.043029,-0.013731,0,0.035897,0,0,0,0.0054002,0.00023409,0.0016903,16.155,0.0024415,0.0046137,3.4018e-09,0.22,0.74,0
0.0093514,0.0074567,0.0050423,0.00055267,0.0016785,0.0014561,0,0,0.043729,-0.014636,0,0.037857,0,0,0,0.0054731,0.0001218,0.0016785,16.484,0.0024245,0.0047676,3.6311e-09,0.24,0.74,0
0.010233,0.0084793,0.0050864,0.00047064,0.0016671,0.0015265,0,0,0.044451,-0.015554,0,0.039688,0,0,0,0.0055456,1.1501e-05,0.0016671,16.741,0.0024081,0.0049198,3.8629e-09,0.26,0.74,0
0.011129,0.0095503,0.0051337,0.00038636,0.001656,0.0015911,0,0,0.04521,-0.016506,0,0.041368,0,0,0,0.0056177,-9.7563e-05,0.001656,16.917,0.002392,0.0050712,4.0982e-09,0.28,0.74,0
0.012041,0.010665,0.0051852,0.0002985,0.0016451,0.0016489,0,0,0.046021,-0.017506,0,0.042871,0,0,0,0.0056895,-0.00020582,0.0016451,17.007,0.0023763,0.005222,4.3371e-09,0.3,0.74,0
0.01297,0.011818,0.0052417,0.00020619,0.0016344,0.0016986,0,0,0.046896,-0.018566,0,0.044164,0,0,0,0.0057611,-0.00031323,0.0016344,17.003,0.0023608,0.0053722,4.5795e-09,0.32,0.74,0
0.013917,0.013005,0.0053039,0.00010913,0.0016239,0.0017388,0,0,0.04784,-0.019692,0,0.04521,0,0,0,0.0058322,-0.00041919,0.0016239,16.9,0.0023456,0.0055211,4.824e-09,0.34,0.74,0
0.014884,0.014217,0.005372,7.8118e-06,0.001614,0.001768,0,0,0.048855,-0.02088,0,0.045967,0,0,0,0.0059023,-0.00052246,0.001614,16.696,0.0023313,0.0056671,5.0684e-09,0.36,0.74,0
0.015871,0.015449,0.005446,-9.6361e-05,0.0016049,0.0017844,0,0,0.049934,-0.022116,0,0.046393,0,0,0,0.0059708,-0.00062114,0.0016049,16.389,0.0023182,0.0058082,5.3097e-09,0.38,0.74,0
0.016881,0.016692,0.0055253,-0.00020096,0.0015973,0.0017866,0,0,0.051064,-0.023377,0,0.046451,0,0,0,0.006037,-0.00071265,0.0015973,15.982,0.0023072,0.0059416,5.5441e-09,0.4,0.74,0
0.017914,0.017938,0.0056088,-0.00030251,0.0015919,0.0017736,0,0,0.05222,-0.024627,0,0.046115,0,0,0,0.0061001,-0.00079383,0.0015919,15.484,0.0022994,0.0060639,5.7672e-09,0.42,0.74,0
0.01897,0.019179,0.0056951,-0.00039657,0.0015895,0.0017451,0,0,0.053372,-0.025819,0,0.045373,0,0,0,0.0061596,-0.00086109,0.0015895,14.905,0.002296,0.0061717,5.9748e-09,0.44,0.74,0
0.020049,0.020407,0.0057822,-0.00047803,0.0015913,0.0017016,0,0,0.054483,-0.026901,0,0.04424,0,0,0,0.0062148,-0.00091062,0.0015913,14.264,0.0022985,0.0062613,6.1629e-09,0.46,0.74,0
0.021149,0.021613,0.0058684,-0.00054146,0.0015981,0.0016446,0,0,0.055514,-0.027814,0,0.042759,0,0,0,0.0062657,-0.00093879,0.0015981,13.582,0.0023083,0.0063296,6.3283e-09,0.48,0.74,0
0.022269,0.022792,0.0059517,-0.0005817,0.001611,0.001577,0,0,0.056429,-0.028505,0,0.041002,0,0,0,0.0063125,-0.00094242,0.001611,12.884,0.002327,0.0063741,6.4688e-09,0.5,0.74,0
0.023407,0.023938,0.0060306,-0.00059437,0.0016309,0.0015025,0,0,0.057197,-0.028928,0,0.039065,0,0,0,0.0063555,-0.0009192,0.0016309,12.199,0.0023557,0.0063932,6.5831e-09,0.52,0.74,0
0.024557,0.025047,0.006104,-0.0005764,0.0016583,0.0014256,0,0,0.057795,-0.029051,0,0.037067,0,0,0,0.0063956,-0.00086791,0.0016583,11.557,0.0023953,0.0063868,6.6707e-09,0.54,0.74,0
0.025718,0.026118,0.0061714,-0.00052615,0.0016936,0.0013513,0,0,0.058211,-0.028856,0,0.035133,0,0,0,0.0064337,-0.0007885,0.0016936,10.987,0.0024463,0.0063557,6.7316e-09,0.56,0.74,0
0.026886,0.027153,0.0062325,-0.00044355,0.0017367,0.0012843,0,0,0.058446,-0.028343,0,0.033392,0,0,0,0.0064711,-0.00068209,0.0017367,10.522,0.0025086,0.0063021,6.7663e-09,0.58,0.74,0
0.028056,0.028153,0.006288,-0.00032992,0.0017874,0.0012294,0,0,0.058507,-0.027525,0,0.031965,0,0,0,0.006509,-0.00055093,0.0017874,10.191,0.0025818,0.0062291,6.7766e-09,0.6,0.74,0
0.029226,0.029124,0.0063384,-0.00018792,0.0018452,0.0011908,0,0,0.058413,-0.02643,0,0.03096,0,0,0,0.0065489,-0.00039839,0.0018452,10.024,0.0026652,0.006141,6.7654e-09,0.62,0.74,0
0.030393,0.030073,0.006385,-2.1395e-05,0.0019091,0.0011719,0,0,0.058187,-0.025096,0,0.030469,0,0,0,0.0065927,-0.00022903,0.0019091,10.047,0.0027576,0.0060433,6.7385e-09,0.64,0.74,0
0.031553,0.031008,0.0064291,0.0001647,0.0019781,0.0011753,0,0,0.057862,-0.023575,0,0.030559,0,0,0,0.0066423,-4.8561e-05,0.0019781,10.284,0.0028573,0.0059426,6.7047e-09,0.66,0.74,0
0.032707,0.031937,0.006472,0.00036466,0.002051,0.0012024,0,0,0.057473,-0.021922,0,0.031262,0,0,0,0.0067002,0.00013646,0.002051,10.746,0.0029625,0.0058465,6.676e-09,0.68,0.74,0
0.033853,0.032871,0.006515,0.00057253,0.0021263,0.0012528,0,0,0.057054,-0.020199,0,0.032573,0,0,0,0.0067683,0.00031921,0.0021263,11.431,0.0030713,0.0057622,6.6667e-09,0.7,0.74,0
0.034989,0.033817,0.0065591,0.00078286,0.0022026,0.0013249,0,0,0.056634,-0.018456,0,0.034446,0,0,0,0.0068484,0.00049348,0.0022026,12.321,0.0031815,0.0056961,6.6903e-09,0.72,0.74,0
0.036118,0.034785,0.0066044,0.00099127,0.0022787,0.0014154,0,0,0.056234,-0.016736,0,0.036801,0,0,0,0.0069411,0.00065456,0.0022787,13.382,0.0032914,0.0056522,6.7577e-09,0.74,0.74,0
0.037239,0.035782,0.0066503,0.0011949,0.0023536,0.0015203,0,0,0.055857,-0.015062,0,0.039528,0,0,0,0.0070454,0.00079986,0.0023536,14.567,0.0033996,0.0056318,6.8742e-09,0.76,0.74,0
0.038352,0.036811,0.0066956,0.0013925,0.0024264,0.0016348,0,0,0.055499,-0.013441,0,0.042505,0,0,0,0.007159,0.000929,0.0024264,15.828,0.0035048,0.0056326,7.038e-09,0.78,0.74,0
0.039459,0.037877,0.0067382,0.0015838,0.0024966,0.0017541,0,0,0.055141,-0.011866,0,0.045606,0,0,0,0.0072785,0.0010435,0.0024966,17.12,0.0036062,0.0056503,7.2403e-09,0.8,0.74,0
0.040558,0.038981,0.006776,0.0017695,0.0025637,0.0018733,0,0,0.05476,-0.010323,0,0.048706,0,0,0,0.0073993,0.0011462,0.0025637,18.405,0.003703,0.0056787,7.4663e-09,0.82,0.74,0
0.041649,0.04012,0.0068067,0.0019502,0.0026271,0.001988,0,0,0.054335,-0.0087992,0,0.051688,0,0,0,0.0075167,0.0012402,0.0026271,19.653,0.0037947,0.0057108,7.6971e-09,0.84,0.74,0
0.042731,0.041294,0.0068288,0.0021259,0.0026864,0.002094,0,0,0.053851,-0.0072869,0,0.054443,0,0,0,0.007626,0.0013287,0.0026864,20.842,0.0038804,0.0057402,7.9124e-09,0.86,0.74,0
0.043803,0.042498,0.0068415,0.0022954,0.0027411,0.0021876,0,0,0.053306,-0.0057939,0,0.056878,0,0,0,0.0077232,0.0014137,0.0027411,21.951,0.0039593,0.0057617,8.0933e-09,0.88,0.74,0
0.044863,0.043726,0.006845,0.002456,0.0027903,0.0022659,0,0,0.052711,-0.004346,0,0.058914,0,0,0,0.0078049,0.0014961,0.0027903,22.959,0.0040304,0.0057716,8.2251e-09,0.9,0.74,0
0.045912,0.044973,0.0068407,0.0026032,0.0028332,0.0023267,0,0,0.052098,-0.0029897,0,0.060495,0,0,0,0.0078688,0.0015751,0.0028332,23.839,0.0040924,0.0057685,8.2998e-09,0.92,0.74,0
0.046947,0.04623,0.0068315,0.0027309,0.0028687,0.0023689,0,0,0.051516,-0.0017918,0,0.061591,0,0,0,0.0079141,0.0016482,0.0028687,24.562,0.0041437,0.0057536,8.3178e-09,0.94,0.74,0
0.047972,0.047492,0.0068207,0.0028315,0.0028957,0.0023925,0,0,0.051026,-0.0008344,0,0.062205,0,0,0,0.007941,0.0017112,0.0028957,25.091,0.0041826,0.0057301,8.2885e-09,0.96,0.74,0
0.048988,0.04875,0.0068127,0.0028969,0.0029129,0.0023987,0,0,0.050697,-0.00020756,0,0.062367,0,0,0,0.0079511,0.0017585,0.0029129,25.389,0.0042075,0.0057038,8.2298e-09,0.98,0.74,0
0.05,0.05,0.0068092,0.0029182,0.0029182,0.0024033,0,0,0.050583,1.7087e-16,0,0.062485,0,0,0,0.0079557,0.0017717,0.0029182,25.505,0.0042152,0.005698,8.2196e-09,1,0.74,0
0,0,0.0043558,0.0018668,0.0018668,0.00042175,0,0,0.032358,1.0842e-19,0,0.010965,0,0,0,0.0044254,0.0017973,0.0018668,9.3603,0.0026965,0.002594,8.9433e-10,0,0.76,0
0.00064715,0.00021931,0.0043369,0.001664,0.0018003,0.00043835,0,0,0.032976,-0.0017719,0,0.011397,0,0,0,0.004407,0.0015939,0.0018003,9.0794,0.0026004,0.0027158,1.0087e-09,0.02,0.76,0
0.0013191,0.00050616,0.0044027,0.0015089,0.0017735,0.00052434,0,0,0.03418,-0.0034399,0,0.013633,0,0,0,0.0044948,0.0014168,0.0017735,9.9598,0.0025617,0.0029161,1.2096e-09,0.04,0.76,0
0.0020144,0.00086268,0.0044655,0.0013647,0.0017491,0.00061548,0,0,0.035314,-0.0049968,0,0.016002,0,0,0,0.0045832,0.001247,0.0017491,10.826,0.0025264,0.0031157,1.4184e-09,0.06,0.76,0
0.0027316,0.0012901,0.0045251,0.0012317,0.001727,0.00070971,0,0,0.036374,-0.0064393,0,0.018452,0,0,0,0.0046715,0.0010853,0.001727,11.658,0.0024946,0.0033123,1.6328e-09,0.08,0.76,0
0.0034693,0.0017887,0.0045814,0.0011098,0.0017074,0.00080524,0,0,0.037363,-0.0077687,0,0.020936,0,0,0,0.0047591,0.0009321,0.0017074,12.443,0.0024662,0.0035043,1.8508e-09,0.1,0.76,0
0.0042261,0.0023582,0.0046349,0.00099838,0.00169,0.00090055,0,0,0.038284,-0.0089907,0,0.023414,0,0,0,0.0048457,0.00078759,0.00169,13.174,0.0024411,0.0036906,2.0706e-09,0.12,0.76,0
0.0050007,0.0029974,0.0046858,0.0008966,0.0016747,0.00099433,0,0,0.039144,-0.010115,0,0.025853,0,0,0,0.0049309,0.00065153,0.0016747,13.846,0.002419,0.0038705,2.2913e-09,0.14,0.76,0
0.0057919,0.0037046,0.0047349,0.00080319,0.0016614,0.0010855,0,0,0.039955,-0.011157,0,0.028224,0,0,0,0.0050147,0.00052338,0.0016614,14.454,0.0023998,0.0040442,2.5121e-09,0.16,0.76,0
0.0065989,0.0044776,0.0047829,0.00071663,0.0016499,0.0011733,0,0,0.04073,-0.012132,0,0.030506,0,0,0,0.0050972,0.00040236,0.0016499,14.994,0.0023831,0.004212,2.7332e-09,0.18,0.76,0
0.0074211,0.0053136,0.0048307,0.00063524,0.0016398,0.0012569,0,0,0.041482,-0.013059,0,0.03268,0,0,0,0.0051785,0.00028751,0.0016398,15.464,0.0023686,0.0043745,2.9549e-09,0.2,0.76,0
0.0082582,0.0062095,0.0048794,0.00055728,0.001631,0.0013358,0,0,0.042229,-0.013959,0,0.03473,0,0,0,0.0052589,0.00017778,0.001631,15.86,0.0023559,0.0045327,3.1781e-09,0.22,0.76,0
0.0091103,0.0071616,0.0049299,0.000481,0.0016233,0.0014092,0,0,0.042986,-0.014849,0,0.03664,0,0,0,0.0053387,7.2171e-05,0.0016233,16.178,0.0023447,0.0046876,3.4035e-09,0.24,0.76,0
0.0099776,0.008166,0.0049831,0.00040474,0.0016164,0.0014767,0,0,0.043768,-0.015751,0,0.038394,0,0,0,0.0054181,-3.0222e-05,0.0016164,16.413,0.0023348,0.0048399,3.6322e-09,0.26,0.76,0
0.010861,0.0092181,0.0050401,0.00032709,0.0016102,0.0015374,0,0,0.044589,-0.01668,0,0.039972,0,0,0,0.0054972,-0.00013006,0.0016102,16.56,0.0023258,0.0049902,3.8646e-09,0.28,0.76,0
0.011761,0.010313,0.0051015,0.00024691,0.0016045,0.0015904,0,0,0.045461,-0.017649,0,0.04135,0,0,0,0.0055761,-0.00022771,0.0016045,16.616,0.0023176,0.0051388,4.1009e-09,0.3,0.76,0
0.012679,0.011446,0.0051681,0.00016351,0.0015995,0.0016346,0,0,0.046392,-0.018667,0,0.042501,0,0,0,0.0056547,-0.0003231,0.0015995,16.578,0.0023104,0.0052856,4.341e-09,0.32,0.76,0
0.013617,0.01261,0.0052401,7.6782e-05,0.0015951,0.001669,0,0,0.047386,-0.019738,0,0.043394,0,0,0,0.0057326,-0.00041572,0.0015951,16.441,0.002304,0.0054298,4.5835e-09,0.34,0.76,0
0.014575,0.013799,0.0053178,-1.2736e-05,0.0015915,0.0016922,0,0,0.048441,-0.020855,0,0.043996,0,0,0,0.0058096,-0.00050454,0.0015915,16.206,0.0022988,0.0055702,4.8269e-09,0.36,0.76,0
0.015555,0.015007,0.0054007,-0.00010371,0.0015891,0.001703,0,0,0.049551,-0.022007,0,0.044278,0,0,0,0.005885,-0.00058799,0.0015891,15.874,0.0022954,0.005705,5.0685e-09,0.38,0.76,0
0.016557,0.016226,0.0054884,-0.000194,0.0015883,0.0017005,0,0,0.050701,-0.02317,0,0.044213,0,0,0,0.0059584,-0.00066402,0.0015883,15.451,0.0022942,0.0058321,5.3054e-09,0.4,0.76,0
0.017583,0.017448,0.0055796,-0.00028061,0.0015897,0.0016841,0,0,0.051869,-0.024314,0,0.043787,0,0,0,0.0060291,-0.00073012,0.0015897,14.944,0.0022962,0.0059488,5.5342e-09,0.42,0.76,0
0.018632,0.018666,0.005673,-0.00035988,0.001594,0.0016538,0,0,0.053028,-0.0254,0,0.043,0,0,0,0.0060967,-0.00078351,0.001594,14.367,0.0023024,0.0060524,5.7512e-09,0.44,0.76,0
0.019704,0.019873,0.005767,-0.00042763,0.0016018,0.0016104,0,0,0.054148,-0.026383,0,0.041871,0,0,0,0.0061607,-0.00082127,0.0016018,13.736,0.0023137,0.0061401,5.9532e-09,0.46,0.76,0
0.020798,0.021063,0.0058599,-0.00047952,0.0016141,0.0015555,0,0,0.055195,-0.027217,0,0.040444,0,0,0,0.006221,-0.00084063,0.0016141,13.07,0.0023315,0.0062095,6.137e-09,0.48,0.76,0
0.021912,0.022228,0.0059499,-0.00051141,0.0016316,0.0014917,0,0,0.056139,-0.027859,0,0.038785,0,0,0,0.0062777,-0.00083918,0.0016316,12.392,0.0023567,0.0062587,6.3004e-09,0.5,0.76,0
0.023043,0.023366,0.0060358,-0.0005198,0.0016548,0.0014224,0,0,0.056953,-0.02827,0,0.036982,0,0,0,0.0063311,-0.0008151,0.0016548,11.729,0.0023903,0.0062864,6.4416e-09,0.52,0.76,0
0.02419,0.024472,0.0061165,-0.0005021,0.0016843,0.0013514,0,0,0.057618,-0.028423,0,0.035138,0,0,0,0.0063818,-0.00076741,0.0016843,11.107,0.0024329,0.0062924,6.5594e-09,0.54,0.76,0
0.025348,0.025547,0.0061913,-0.00045689,0.0017203,0.0012833,0,0,0.058123,-0.028304,0,0.033366,0,0,0,0.0064304,-0.000696,0.0017203,10.555,0.0024849,0.0062773,6.6534e-09,0.56,0.76,0
0.026514,0.02659,0.0062602,-0.00038396,0.0017629,0.0012224,0,0,0.058465,-0.027909,0,0.031782,0,0,0,0.006478,-0.00060172,0.0017629,10.101,0.0025464,0.0062428,6.7238e-09,0.58,0.76,0
0.027686,0.027605,0.0063236,-0.00028432,0.0018118,0.0011729,0,0,0.058653,-0.027249,0,0.030496,0,0,0,0.0065256,-0.00048635,0.0018118,9.7727,0.002617,0.0061915,6.7722e-09,0.6,0.76,0
0.028861,0.028597,0.006382,-0.00016009,0.0018666,0.0011388,0,0,0.058701,-0.026347,0,0.02961,0,0,0,0.0065746,-0.00035266,0.0018666,9.5979,0.0026962,0.0061269,6.8016e-09,0.62,0.76,0
0.030034,0.02957,0.0064366,-1.4358e-05,0.0019267,0.0011233,0,0,0.058629,-0.025233,0,0.029206,0,0,0,0.0066266,-0.00020436,0.0019267,9.6005,0.002783,0.0060536,6.8171e-09,0.64,0.76,0
0.031206,0.030532,0.0064884,0.00014896,0.0019912,0.0011287,0,0,0.058464,-0.023949,0,0.029346,0,0,0,0.0066834,-4.5996e-05,0.0019912,9.7998,0.0028762,0.0059771,6.8267e-09,0.66,0.76,0
0.032373,0.031492,0.0065388,0.00032546,0.0020593,0.0011563,0,0,0.058234,-0.02254,0,0.030063,0,0,0,0.006747,0.00011726,0.0020593,10.207,0.0029745,0.0059034,6.8402e-09,0.68,0.76,0
0.033535,0.032458,0.0065888,0.00051068,0.0021298,0.0012061,0,0,0.057966,-0.021049,0,0.031358,0,0,0,0.0068193,0.0002801,0.0021298,10.823,0.0030764,0.0058384,6.8694e-09,0.7,0.76,0
0.034692,0.033438,0.0066389,0.00070058,0.0022018,0.001277,0,0,0.057682,-0.019516,0,0.033201,0,0,0,0.0069018,0.00043763,0.0022018,11.636,0.0031804,0.0057874,6.9257e-09,0.72,0.76,0
0.035842,0.034438,0.0066893,0.00089197,0.0022744,0.0013665,0,0,0.057394,-0.017971,0,0.03553,0,0,0,0.0069952,0.00058601,0.0022744,12.62,0.0032852,0.0057539,7.0186e-09,0.74,0.76,0
0.036987,0.035467,0.0067392,0.0010828,0.0023466,0.0014715,0,0,0.057104,-0.01643,0,0.038259,0,0,0,0.0070991,0.00072288,0.0023466,13.744,0.0033895,0.0057393,7.1533e-09,0.76,0.76,0
0.038127,0.036528,0.0067874,0.0012721,0.0024178,0.0015879,0,0,0.056804,-0.014895,0,0.041285,0,0,0,0.0072119,0.00084759,0.0024178,14.967,0.0034924,0.0057425,7.3296e-09,0.78,0.76,0
0.03926,0.037626,0.0068318,0.0014599,0.0024875,0.0017114,0,0,0.056476,-0.013359,0,0.044495,0,0,0,0.0073307,0.00096103,0.0024875,16.252,0.0035931,0.0057602,7.5411e-09,0.8,0.76,0
0.040386,0.03876,0.0068704,0.0016468,0.0025551,0.0018372,0,0,0.056098,-0.011809,0,0.047768,0,0,0,0.0074518,0.0010653,0.0025551,17.562,0.0036908,0.0057873,7.7751e-09,0.82,0.76,0
0.041503,0.039931,0.0069007,0.0018332,0.0026202,0.0019608,0,0,0.055647,-0.010231,0,0.05098,0,0,0,0.0075708,0.0011631,0.0026202,18.867,0.0037847,0.0058177,8.0143e-09,0.84,0.76,0
0.042611,0.041136,0.0069212,0.0020189,0.002682,0.0020771,0,0,0.055109,-0.0086208,0,0.054006,0,0,0,0.007683,0.0012572,0.002682,20.139,0.003874,0.0058451,8.2381e-09,0.86,0.76,0
0.043708,0.042371,0.0069309,0.0022025,0.00274,0.0021817,0,0,0.054481,-0.0069877,0,0.056723,0,0,0,0.0077837,0.0013497,0.00274,21.35,0.0039578,0.0058638,8.4253e-09,0.88,0.76,0
0.044791,0.04363,0.00693,0.0023807,0.0027932,0.00227,0,0,0.053778,-0.005363,0,0.05902,0,0,0,0.0078689,0.0014418,0.0027932,22.471,0.0040346,0.0058693,8.5574e-09,0.9,0.76,0
0.045859,0.044906,0.0069202,0.002548,0.0028405,0.0023386,0,0,0.053037,-0.0038022,0,0.060803,0,0,0,0.0079354,0.0015328,0.0028405,23.465,0.0041029,0.0058592,8.6215e-09,0.92,0.76,0
0.046912,0.046189,0.0069045,0.0026969,0.0028804,0.002385,0,0,0.052313,-0.0023853,0,0.062009,0,0,0,0.0079809,0.0016205,0.0028804,24.292,0.0041606,0.0058334,8.6137e-09,0.94,0.76,0
0.047952,0.047472,0.0068869,0.0028185,0.0029116,0.0024083,0,0,0.051678,-0.0012101,0,0.062616,0,0,0,0.0080051,0.0017003,0.0029116,24.907,0.0042057,0.0057949,8.541e-09,0.96,0.76,0
0.048979,0.048745,0.006872,0.0029032,0.0029325,0.0024095,0,0,0.051213,-0.00038207,0,0.062646,0,0,0,0.008009,0.0017661,0.0029325,25.263,0.0042359,0.0057491,8.4213e-09,0.98,0.76,0
0.05,0.05,0.0068698,0.0029442,0.0029442,0.0024142,0,0,0.051033,7.9797e-17,0,0.062769,0,0,0,0.0080184,0.0017956,0.0029442,25.444,0.0042527,0.0057354,8.3949e-09,1,0.76,0
0,0,0.0041843,0.0017933,0.0017933,0.00035178,0,0,0.031083,-1.0842e-19,0,0.0091463,0,0,0,0.004235,0.0017426,0.0017933,8.1982,0.0025903,0.0024674,7.7045e-10,0,0.78,0
0.00062167,0.00018292,0.0041641,0.0015792,0.001723,0.00036902,0,0,0.031734,-0.0018691,0,0.0095945,0,0,0,0.0042157,0.0015276,0.001723,7.9676,0.0024888,0.002596,8.8138e-10,0.02,0.78,0
0.0012694,0.00043571,0.0042336,0.0014178,0.0016954,0.00045812,0,0,0.032996,-0.0036088,0,0.011911,0,0,0,0.0043063,0.0013452,0.0016954,9.0123,0.002449,0.0028024,1.0711e-09,0.04,0.78,0
0.0019415,0.00076061,0.0042998,0.0012696,0.0016708,0.00055258,0,0,0.034177,-0.0052157,0,0.014367,0,0,0,0.0043974,0.001172,0.0016708,10.019,0.0024134,0.0030072,1.2682e-09,0.06,0.78,0
0.0026364,0.0011588,0.0043628,0.0011347,0.0016492,0.00065014,0,0,0.035276,-0.0066896,0,0.016904,0,0,0,0.0044888,0.0010086,0.0016492,10.97,0.0023822,0.0032082,1.4706e-09,0.08,0.78,0
0.0033526,0.0016307,0.0044227,0.0010125,0.0016306,0.00074877,0,0,0.036298,-0.0080347,0,0.019468,0,0,0,0.0045799,0.00085534,0.0016306,11.854,0.0023553,0.0034038,1.6766e-09,0.1,0.78,0
0.0040884,0.0021757,0.00448,0.00090242,0.0016147,0.00084673,0,0,0.037248,-0.0092599,0,0.022015,0,0,0,0.0046703,0.00071214,0.0016147,12.665,0.0023324,0.0035929,1.8849e-09,0.12,0.78,0
0.0048425,0.0027924,0.0045352,0.00080319,0.0016015,0.0009425,0,0,0.038138,-0.010378,0,0.024505,0,0,0,0.0047598,0.00057868,0.0016015,13.399,0.0023133,0.0037751,2.0944e-09,0.14,0.78,0
0.0056139,0.0034789,0.0045893,0.00071333,0.0015908,0.0010349,0,0,0.038981,-0.011407,0,0.026907,0,0,0,0.0048483,0.00045432,0.0015908,14.051,0.0022978,0.0039503,2.3049e-09,0.16,0.78,0
0.0064017,0.0042325,0.004643,0.00063111,0.0015822,0.0011229,0,0,0.03979,-0.012365,0,0.029196,0,0,0,0.0049359,0.0003382,0.0015822,14.62,0.0022855,0.0041191,2.5165e-09,0.18,0.78,0
0.0072055,0.0050501,0.0046974,0.0005547,0.0015756,0.0012058,0,0,0.040583,-0.013272,0,0.031351,0,0,0,0.0050228,0.00022928,0.0015756,15.103,0.0022759,0.0042821,2.7296e-09,0.2,0.78,0
0.008025,0.0059282,0.0047533,0.00048227,0.0015707,0.001283,0,0,0.041374,-0.014149,0,0.033357,0,0,0,0.0051091,0.00012652,0.0015707,15.498,0.0022688,0.0044402,2.9451e-09,0.22,0.78,0
0.0088605,0.0068627,0.0048118,0.00041207,0.0015672,0.0013538,0,0,0.04218,-0.015016,0,0.035199,0,0,0,0.005195,2.889e-05,0.0015672,15.804,0.0022637,0.0045943,3.1637e-09,0.24,0.78,0
0.0097123,0.0078492,0.0048737,0.00034254,0.0015649,0.0014177,0,0,0.043014,-0.01589,0,0.03686,0,0,0,0.0052807,-6.4466e-05,0.0015649,16.018,0.0022604,0.0047451,3.3861e-09,0.26,0.78,0
0.010581,0.0088831,0.0049397,0.00027235,0.0015636,0.001474,0,0,0.043889,-0.016786,0,0.038325,0,0,0,0.0053662,-0.0001542,0.0015636,16.139,0.0022585,0.0048931,3.6128e-09,0.28,0.78,0
0.011468,0.0099591,0.0050104,0.00020053,0.0015633,0.0015221,0,0,0.044812,-0.017716,0,0.039573,0,0,0,0.0054516,-0.00024065,0.0015633,16.165,0.0022581,0.0050386,3.8441e-09,0.3,0.78,0
0.012374,0.011072,0.0050862,0.00012651,0.0015638,0.0015609,0,0,0.045791,-0.018685,0,0.040584,0,0,0,0.0055366,-0.00032384,0.0015638,16.094,0.0022589,0.0051812,4.0795e-09,0.32,0.78,0
0.013299,0.012215,0.0051674,5.026e-05,0.0015653,0.0015897,0,0,0.046827,-0.019695,0,0.041331,0,0,0,0.005621,-0.00040336,0.0015653,15.927,0.002261,0.0053206,4.3182e-09,0.34,0.78,0
0.014247,0.013383,0.0052537,-2.7672e-05,0.0015678,0.0016074,0,0,0.047917,-0.020741,0,0.041792,0,0,0,0.0057044,-0.00047842,0.0015678,15.665,0.0022646,0.0054556,4.5586e-09,0.36,0.78,0
0.015216,0.014568,0.0053448,-0.00010609,0.0015716,0.0016133,0,0,0.049052,-0.02181,0,0.041946,0,0,0,0.0057865,-0.00054778,0.0015716,15.311,0.0022701,0.0055848,4.799e-09,0.38,0.78,0
0.016209,0.015765,0.00544,-0.00018312,0.0015771,0.0016068,0,0,0.050218,-0.022882,0,0.041776,0,0,0,0.0058667,-0.00060985,0.0015771,14.874,0.002278,0.0057066,5.0367e-09,0.4,0.78,0
0.017225,0.016965,0.0055382,-0.00025626,0.0015846,0.0015876,0,0,0.051397,-0.023931,0,0.041276,0,0,0,0.0059447,-0.00066271,0.0015846,14.36,0.0022888,0.0058189,5.269e-09,0.42,0.78,0
0.018265,0.018163,0.0056382,-0.00032249,0.0015947,0.001556,0,0,0.052565,-0.024924,0,0.040455,0,0,0,0.0060199,-0.00070421,0.0015947,13.784,0.0023035,0.0059195,5.4931e-09,0.44,0.78,0
0.019327,0.019351,0.0057384,-0.00037841,0.001608,0.0015129,0,0,0.053695,-0.025823,0,0.039336,0,0,0,0.0060922,-0.00073216,0.001608,13.16,0.0023227,0.0060065,5.706e-09,0.46,0.78,0
0.020412,0.020524,0.0058374,-0.00042054,0.0016251,0.0014601,0,0,0.05476,-0.026593,0,0.037963,0,0,0,0.0061613,-0.00074445,0.0016251,12.508,0.0023473,0.0060779,5.9052e-09,0.48,0.78,0
0.021518,0.021677,0.0059337,-0.00044558,0.0016464,0.0013999,0,0,0.055734,-0.027196,0,0.036397,0,0,0,0.0062274,-0.00073925,0.0016464,11.848,0.0023782,0.0061323,6.0882e-09,0.5,0.78,0
0.022642,0.022807,0.0060261,-0.00045069,0.0016726,0.0013353,0,0,0.056595,-0.027603,0,0.034718,0,0,0,0.0062906,-0.00071518,0.0016726,11.204,0.002416,0.0061688,6.2534e-09,0.52,0.78,0
0.023782,0.02391,0.0061138,-0.00043378,0.001704,0.0012699,0,0,0.057327,-0.027791,0,0.033018,0,0,0,0.0063514,-0.00067145,0.001704,10.601,0.0024613,0.0061872,6.3994e-09,0.54,0.78,0
0.024935,0.024986,0.0061961,-0.00039362,0.0017407,0.0012076,0,0,0.05792,-0.027747,0,0.031398,0,0,0,0.0064104,-0.00060796,0.0017407,10.064,0.0025144,0.0061879,6.5256e-09,0.56,0.78,0
0.026099,0.026036,0.006273,-0.00032998,0.0017829,0.0011524,0,0,0.058371,-0.027468,0,0.029963,0,0,0,0.0064684,-0.00052533,0.0017829,9.621,0.0025753,0.0061723,6.6321e-09,0.58,0.78,0
0.02727,0.027063,0.0063449,-0.00024358,0.0018304,0.0011082,0,0,0.058688,-0.026962,0,0.028812,0,0,0,0.0065263,-0.00042498,0.0018304,9.2963,0.0026439,0.0061424,6.7204e-09,0.6,0.78,0
0.028446,0.028071,0.0064122,-0.00013607,0.0018828,0.0010784,0,0,0.058882,-0.026246,0,0.028038,0,0,0,0.0065852,-0.00030908,0.0018828,9.1149,0.0027197,0.0061012,6.7931e-09,0.62,0.78,0
0.029625,0.029064,0.0064761,-9.853e-06,0.0019399,0.001066,0,0,0.058971,-0.025346,0,0.027717,0,0,0,0.0066468,-0.00018057,0.0019399,9.0984,0.002802,0.0060524,6.8551e-09,0.64,0.78,0
0.030805,0.03005,0.0065374,0.00013207,0.0020008,0.0010734,0,0,0.058975,-0.024294,0,0.027908,0,0,0,0.0067125,-4.3019e-05,0.0020008,9.2643,0.0028901,0.0060006,6.9128e-09,0.66,0.78,0
0.031984,0.031036,0.0065973,0.00028638,0.0020651,0.0011018,0,0,0.058918,-0.023123,0,0.028646,0,0,0,0.0067841,9.957e-05,0.0020651,9.6236,0.0029829,0.0059504,6.9748e-09,0.68,0.78,0
0.033161,0.032029,0.0066565,0.00044981,0.0021319,0.0011515,0,0,0.05882,-0.021867,0,0.029939,0,0,0,0.0068633,0.00024307,0.0021319,10.179,0.0030794,0.0059068,7.0508e-09,0.7,0.78,0
0.034337,0.033037,0.0067156,0.00061947,0.0022005,0.0012219,0,0,0.058696,-0.020554,0,0.031769,0,0,0,0.0069514,0.00038367,0.0022005,10.922,0.0031785,0.005874,7.1505e-09,0.72,0.78,0
0.035509,0.034067,0.0067744,0.00079315,0.0022703,0.0013113,0,0,0.058554,-0.019203,0,0.034094,0,0,0,0.0070493,0.00051829,0.0022703,11.838,0.0032793,0.005855,7.2823e-09,0.74,0.78,0
0.036679,0.035125,0.0068322,0.00096959,0.0023405,0.0014172,0,0,0.058392,-0.017823,0,0.036848,0,0,0,0.0071569,0.00064496,0.0023405,12.901,0.0033808,0.0058514,7.4512e-09,0.76,0.78,0
0.037845,0.036216,0.0068876,0.0011484,0.0024108,0.0015364,0,0,0.058198,-0.016411,0,0.039946,0,0,0,0.007273,0.000763,0.0024108,14.083,0.0034823,0.0058624,7.6579e-09,0.78,0.78,0
0.039007,0.037343,0.0069383,0.0013301,0.0024805,0.001665,0,0,0.057952,-0.014956,0,0.04329,0,0,0,0.0073954,0.00087303,0.0024805,15.35,0.003583,0.0058856,7.8974e-09,0.8,0.78,0
0.040163,0.038508,0.0069822,0.0015154,0.0025493,0.0017986,0,0,0.057627,-0.01344,0,0.046763,0,0,0,0.0075208,0.00097678,0.0025493,16.673,0.0036823,0.0059166,8.1584e-09,0.82,0.78,0
0.041312,0.039711,0.0070165,0.0017053,0.0026165,0.0019323,0,0,0.057199,-0.011846,0,0.050239,0,0,0,0.0076451,0.0010767,0.0026165,18.02,0.0037794,0.0059498,8.4241e-09,0.84,0.78,0
0.042451,0.040949,0.0070392,0.0018997,0.0026817,0.0020606,0,0,0.056648,-0.010165,0,0.053576,0,0,0,0.0077634,0.0011756,0.0026817,19.363,0.0038735,0.0059787,8.6726e-09,0.86,0.78,0
0.043578,0.042218,0.007049,0.0020973,0.0027439,0.0021779,0,0,0.055967,-0.0084056,0,0.056626,0,0,0,0.0078706,0.0012757,0.0027439,20.668,0.0039634,0.0059971,8.8795e-09,0.88,0.78,0
0.04469,0.043512,0.0070459,0.0022945,0.0028021,0.0022783,0,0,0.05517,-0.006599,0,0.059235,0,0,0,0.0079618,0.0013786,0.0028021,21.9,0.0040475,0.0059994,9.0209e-09,0.9,0.78,0
0.045785,0.04482,0.0070317,0.0024851,0.002855,0.0023564,0,0,0.054296,-0.004809,0,0.061267,0,0,0,0.0080326,0.0014842,0.002855,23.015,0.0041239,0.005982,9.0779e-09,0.92,0.78,0
0.046862,0.046135,0.0070095,0.00266,0.0029008,0.0024083,0,0,0.053412,-0.003131,0,0.062616,0,0,0,0.0080797,0.0015898,0.0029008,23.959,0.0041901,0.0059438,9.0412e-09,0.94,0.78,0
0.047921,0.047443,0.0069842,0.002808,0.0029377,0.0024319,0,0,0.052605,-0.0016853,0,0.06323,0,0,0,0.0081015,0.0016908,0.0029377,24.675,0.0042433,0.0058872,8.9154e-09,0.96,0.78,0
0.048966,0.048735,0.0069613,0.0029172,0.0029636,0.0024277,0,0,0.051971,-0.00060212,0,0.063122,0,0,0,0.0080988,0.0017798,0.0029636,25.105,0.0042807,0.0058182,8.7205e-09,0.98,0.78,0
0.05,0.05,0.0069607,0.0029832,0.0029832,0.0024327,0,0,0.051708,-1.0023e-16,0,0.063249,0,0,0,0.0081141,0.0018298,0.0029832,25.366,0.004309,0.0057944,8.6723e-09,1,0.78,0
0,0,0.0040063,0.001717,0.001717,0.00027797,0,0,0.029761,-5.421e-19,0,0.0072273,0,0,0,0.0040396,0.0016837,0.001717,6.8249,0.0024801,0.0023394,6.5711e-10,0,0.8,0
0.00059522,0.00014455,0.0039848,0.0014913,0.0016428,0.00029585,0,0,0.030446,-0.00197,0,0.0076921,0,0,0,0.0040194,0.0014567,0.0016428,6.6746,0.002373,0.0024749,7.6375e-10,0.02,0.8,0
0.0012178,0.0003618,0.0040581,0.0013234,0.0016144,0.00038841,0,0,0.031767,-0.0037839,0,0.010099,0,0,0,0.0041122,0.0012693,0.0016144,7.9289,0.002332,0.002687,9.4118e-10,0.04,0.8,0
0.0018659,0.00065406,0.0041278,0.0011711,0.0015897,0.00048636,0,0,0.032996,-0.0054413,0,0.012645,0,0,0,0.0042058,0.0010932,0.0015897,9.1054,0.0022962,0.0028964,1.1254e-09,0.06,0.8,0
0.0025376,0.0010225,0.0041941,0.0010343,0.0015685,0.00058724,0,0,0.034133,-0.0069449,0,0.015268,0,0,0,0.0042998,0.00092871,0.0015685,10.195,0.0022657,0.003101,1.3145e-09,0.08,0.8,0
0.0032312,0.0014673,0.0042575,0.00091241,0.001551,0.00068879,0,0,0.035185,-0.0083014,0,0.017909,0,0,0,0.0043938,0.00077613,0.001551,11.191,0.0022403,0.0032992,1.507e-09,0.1,0.8,0
0.0039451,0.0019878,0.0043185,0.0008043,0.0015368,0.00078901,0,0,0.036162,-0.0095231,0,0.020514,0,0,0,0.0044875,0.00063528,0.0015368,12.091,0.0022199,0.0034899,1.7018e-09,0.12,0.8,0
0.0046777,0.0025822,0.0043779,0.00070849,0.0015259,0.0008862,0,0,0.037076,-0.010627,0,0.023041,0,0,0,0.0045808,0.00050567,0.0015259,12.891,0.0022041,0.0036728,1.8981e-09,0.14,0.8,0
0.0054281,0.0032483,0.0044368,0.00062314,0.001518,0.00097904,0,0,0.037944,-0.011633,0,0.025455,0,0,0,0.0046734,0.00038648,0.001518,13.589,0.0021926,0.0038481,2.096e-09,0.16,0.8,0
0.0061955,0.003983,0.004496,0.00054624,0.0015127,0.0010665,0,0,0.038783,-0.012564,0,0.027729,0,0,0,0.0047656,0.00027667,0.0015127,14.185,0.002185,0.0040162,2.2956e-09,0.18,0.8,0
0.0069794,0.0047827,0.0045567,0.00047579,0.0015098,0.0011478,0,0,0.039611,-0.013442,0,0.029844,0,0,0,0.0048574,0.00017509,0.0015098,14.68,0.0021808,0.0041781,2.4977e-09,0.2,0.8,0
0.0077799,0.0056435,0.0046198,0.00040982,0.0015089,0.0012225,0,0,0.040442,-0.014288,0,0.031785,0,0,0,0.0049491,8.0574e-05,0.0015089,15.073,0.0021795,0.0043346,2.703e-09,0.22,0.8,0
0.0085971,0.006561,0.0046861,0.00034658,0.0015098,0.00129,0,0,0.041292,-0.015122,0,0.03354,0,0,0,0.0050406,-7.9331e-06,0.0015098,15.366,0.0021808,0.0044866,2.9123e-09,0.24,0.8,0
0.0094316,0.0075304,0.0047564,0.00028452,0.0015123,0.0013498,0,0,0.042174,-0.015961,0,0.035096,0,0,0,0.0051322,-9.1336e-05,0.0015123,15.56,0.0021844,0.0046347,3.1263e-09,0.26,0.8,0
0.010284,0.0085467,0.0048312,0.00022242,0.0015161,0.0014015,0,0,0.043096,-0.016817,0,0.036439,0,0,0,0.0052239,-0.00017031,0.0015161,15.654,0.0021899,0.0047796,3.3455e-09,0.28,0.8,0
0.011155,0.0096046,0.0049108,0.0001594,0.0015211,0.0014445,0,0,0.044067,-0.017702,0,0.037556,0,0,0,0.0053155,-0.00024526,0.0015211,15.65,0.0021971,0.0049213,3.57e-09,0.3,0.8,0
0.012047,0.010698,0.0049956,9.4978e-05,0.0015272,0.001478,0,0,0.045089,-0.018618,0,0.038428,0,0,0,0.0054068,-0.00031628,0.0015272,15.549,0.0022059,0.0050598,3.7994e-09,0.32,0.8,0
0.012959,0.011822,0.0050854,2.9153e-05,0.0015344,0.0015015,0,0,0.046163,-0.019568,0,0.039039,0,0,0,0.0054977,-0.00038313,0.0015344,15.354,0.0022163,0.0051946,4.0331e-09,0.34,0.8,0
0.013893,0.01297,0.00518,-3.7569e-05,0.0015427,0.0015143,0,0,0.047285,-0.020544,0,0.039372,0,0,0,0.0055877,-0.00044522,0.0015427,15.067,0.0022284,0.0053249,4.2698e-09,0.36,0.8,0
0.01485,0.014135,0.0052789,-0.00010414,0.0015524,0.0015159,0,0,0.048444,-0.021535,0,0.039413,0,0,0,0.0056764,-0.00050166,0.0015524,14.694,0.0022424,0.0054495,4.508e-09,0.38,0.8,0
0.015831,0.01531,0.0053813,-0.00016898,0.0015637,0.0015059,0,0,0.049629,-0.022525,0,0.039153,0,0,0,0.0057636,-0.00055124,0.0015637,14.243,0.0022587,0.0055672,4.7456e-09,0.4,0.8,0
0.016835,0.016491,0.0054862,-0.00023001,0.0015769,0.0014844,0,0,0.050821,-0.023489,0,0.038595,0,0,0,0.0058487,-0.00059251,0.0015769,13.723,0.0022777,0.0056764,4.9805e-09,0.42,0.8,0
0.017864,0.017669,0.0055924,-0.00028475,0.0015923,0.001452,0,0,0.052001,-0.024402,0,0.037751,0,0,0,0.0059315,-0.00062389,0.0015923,13.147,0.0023,0.0057755,5.2101e-09,0.44,0.8,0
0.018916,0.01884,0.0056986,-0.00033048,0.0016104,0.0014095,0,0,0.053146,-0.025232,0,0.036647,0,0,0,0.0060119,-0.00064372,0.0016104,12.53,0.0023262,0.005863,5.4323e-09,0.46,0.8,0
0.01999,0.019999,0.0058035,-0.0003644,0.0016317,0.0013587,0,0,0.054233,-0.02595,0,0.035326,0,0,0,0.0060895,-0.00065044,0.0016317,11.889,0.002357,0.0059375,5.6445e-09,0.48,0.8,0
0.021085,0.02114,0.0059059,-0.00038387,0.0016566,0.0013018,0,0,0.05524,-0.026526,0,0.033847,0,0,0,0.0061647,-0.00064266,0.0016566,11.243,0.0023929,0.0059979,5.8449e-09,0.5,0.8,0
0.022199,0.022262,0.0060047,-0.00038664,0.0016854,0.0012416,0,0,0.05615,-0.026937,0,0.032281,0,0,0,0.0062374,-0.00061936,0.0016854,10.616,0.0024345,0.0060435,6.0317e-09,0.52,0.8,0
0.023331,0.02336,0.0060991,-0.00037101,0.0017184,0.0011812,0,0,0.056949,-0.027163,0,0.030712,0,0,0,0.006308,-0.00057991,0.0017184,10.029,0.0024822,0.0060742,6.2038e-09,0.54,0.8,0
0.024477,0.024437,0.0061889,-0.00033595,0.0017559,0.0011242,0,0,0.057629,-0.027194,0,0.02923,0,0,0,0.0063772,-0.00052422,0.0017559,9.5069,0.0025363,0.0060903,6.3606e-09,0.56,0.8,0
0.025636,0.025492,0.0062739,-0.00028123,0.0017978,0.0010742,0,0,0.058189,-0.027027,0,0.027928,0,0,0,0.0064454,-0.00045275,0.0017978,9.0727,0.0025968,0.006093,6.5022e-09,0.58,0.8,0
0.026805,0.026527,0.0063544,-0.00020735,0.0018441,0.0010345,0,0,0.058634,-0.026669,0,0.026898,0,0,0,0.0065137,-0.00036659,0.0018441,8.7505,0.0026637,0.006084,6.63e-09,0.6,0.8,0
0.027981,0.027547,0.0064312,-0.00011556,0.0018947,0.0010085,0,0,0.058974,-0.026133,0,0.026222,0,0,0,0.006583,-0.00026741,0.0018947,8.5622,0.0027368,0.0060656,6.7464e-09,0.62,0.8,0
0.029164,0.028556,0.0065049,-7.6738e-06,0.0019492,0.00099899,0,0,0.059224,-0.025439,0,0.025974,0,0,0,0.0066547,-0.00015747,0.0019492,8.5277,0.0028155,0.0060409,6.8558e-09,0.64,0.8,0
0.03035,0.029561,0.0065766,0.00011407,0.0020072,0.001008,0,0,0.059402,-0.024611,0,0.026208,0,0,0,0.0067302,-3.9506e-05,0.0020072,8.6628,0.0028993,0.0060135,6.9637e-09,0.66,0.8,0
0.03154,0.030567,0.0066473,0.00024726,0.0020684,0.0010371,0,0,0.059526,-0.023674,0,0.026964,0,0,0,0.0068111,8.3406e-05,0.0020684,8.9783,0.0029876,0.0059873,7.0777e-09,0.68,0.8,0
0.032731,0.031583,0.0067176,0.00038955,0.0021321,0.0010868,0,0,0.05961,-0.022654,0,0.028256,0,0,0,0.006899,0.00020812,0.0021321,9.4782,0.0030797,0.0059663,7.206e-09,0.7,0.8,0
0.033924,0.032615,0.0067878,0.000539,0.002198,0.0011569,0,0,0.059667,-0.021568,0,0.030079,0,0,0,0.0069951,0.00033169,0.002198,10.159,0.003175,0.0059538,7.3572e-09,0.72,0.8,0
0.035118,0.03367,0.0068579,0.00069426,0.0022657,0.0012464,0,0,0.059699,-0.020428,0,0.032407,0,0,0,0.0071004,0.00045174,0.0022657,11.01,0.0032726,0.0059527,7.5388e-09,0.74,0.8,0
0.036312,0.034754,0.0069269,0.00085481,0.0023345,0.0013536,0,0,0.059701,-0.019236,0,0.035195,0,0,0,0.007215,0.00056672,0.0023345,12.015,0.0033721,0.0059642,7.7558e-09,0.76,0.8,0
0.037506,0.035872,0.0069934,0.0010209,0.0024043,0.001476,0,0,0.059658,-0.017984,0,0.038375,0,0,0,0.0073382,0.00067608,0.0024043,13.151,0.0034729,0.0059881,8.0096e-09,0.78,0.8,0
0.038699,0.037027,0.0070549,0.0011937,0.0024746,0.0016103,0,0,0.059545,-0.016652,0,0.041867,0,0,0,0.0074682,0.00078044,0.0024746,14.393,0.0035744,0.0060221,8.2961e-09,0.8,0.8,0
0.039888,0.038222,0.0071089,0.0013746,0.002545,0.0017525,0,0,0.05933,-0.015216,0,0.045564,0,0,0,0.007602,0.00088142,0.002545,15.717,0.0036762,0.0060625,8.605e-09,0.82,0.8,0
0.041072,0.039457,0.0071522,0.0015651,0.0026152,0.0018977,0,0,0.05898,-0.01365,0,0.049341,0,0,0,0.0077358,0.00098151,0.0026152,17.095,0.0037775,0.0061037,8.9191e-09,0.84,0.8,0
0.042247,0.04073,0.0071819,0.0017663,0.0026844,0.0020402,0,0,0.058466,-0.011936,0,0.053045,0,0,0,0.0078644,0.0010837,0.0026844,18.498,0.0038775,0.0061389,9.2143e-09,0.86,0.8,0
0.04341,0.042035,0.0071959,0.0019772,0.002752,0.002173,0,0,0.057772,-0.010071,0,0.056497,0,0,0,0.0079823,0.0011909,0.002752,19.893,0.003975,0.006161,9.4613e-09,0.88,0.8,0
0.044558,0.043366,0.0071938,0.0021948,0.0028166,0.0022886,0,0,0.056904,-0.0080832,0,0.059502,0,0,0,0.0080833,0.0013054,0.0028166,21.239,0.0040684,0.0061629,9.6285e-09,0.9,0.8,0
0.045687,0.044713,0.0071769,0.0024121,0.0028767,0.0023794,0,0,0.055902,-0.0060395,0,0.061866,0,0,0,0.0081616,0.0014274,0.0028767,22.482,0.0041552,0.0061392,9.6882e-09,0.92,0.8,0
0.046794,0.046064,0.0071488,0.0026184,0.0029302,0.0024394,0,0,0.054842,-0.0040527,0,0.063423,0,0,0,0.0082125,0.0015547,0.0029302,23.56,0.0042325,0.0060878,9.6234e-09,0.94,0.8,0
0.04788,0.047404,0.0071153,0.0027995,0.0029745,0.0024646,0,0,0.053831,-0.0022741,0,0.06408,0,0,0,0.0082332,0.0016816,0.0029745,24.398,0.0042964,0.0060104,9.4355e-09,0.96,0.8,0
0.048947,0.04872,0.0070831,0.0029398,0.0030069,0.0024552,0,0,0.052991,-0.00087197,0,0.063836,0,0,0,0.0082239,0.001799,0.0030069,24.922,0.0043432,0.0059142,9.1487e-09,0.98,0.8,0
0.05,0.05,0.0070847,0.0030363,0.0030363,0.0024605,0,0,0.052629,1.3509e-16,0,0.063973,0,0,0,0.0082466,0.0018743,0.0030363,25.278,0.0043857,0.0058781,9.0724e-09,1,0.8,0
0,0,0.00382,0.0016371,0.0016371,0.00020024,0,0,0.028377,3.2526e-19,0,0.0052063,0,0,0,0.0038382,0.0016189,0.0016371,5.1981,0.0023648,0.0022102,5.5443e-10,0,0.82,0
0.00056755,0.00010412,0.0037972,0.0013997,0.001559,0.00021875,0,0,0.029095,-0.0020719,0,0.0056876,0,0,0,0.0038169,0.0013799,0.001559,5.1709,0.002252,0.0023526,6.557e-10,0.02,0.82,0
0.0011638,0.00028436,0.0038742,0.0012252,0.0015298,0.00031518,0,0,0.030477,-0.0039603,0,0.0081946,0,0,0,0.0039112,0.0011882,0.0015298,6.6925,0.0022097,0.0025693,8.1941e-10,0.04,0.82,0
0.0017866,0.00054296,0.0039474,0.001069,0.0015049,0.00041686,0,0,0.031752,-0.0056672,0,0.010838,0,0,0,0.0040066,0.0010098,0.0015049,8.0767,0.0021738,0.0027824,9.8931e-10,0.06,0.82,0
0.0024339,0.00088105,0.004017,0.00093075,0.0014843,0.00052115,0,0,0.032925,-0.0071965,0,0.01355,0,0,0,0.0041026,0.00084512,0.0014843,9.3305,0.002144,0.0029896,1.1637e-09,0.08,0.82,0
0.0031036,0.0012987,0.0040836,0.00080974,0.001468,0.00062549,0,0,0.034003,-0.0085575,0,0.016263,0,0,0,0.0041991,0.00069431,0.001468,10.456,0.0021204,0.0031891,1.341e-09,0.1,0.82,0
0.003794,0.0017948,0.0041481,0.00070453,0.0014558,0.00072761,0,0,0.035,-0.0097663,0,0.018918,0,0,0,0.0042955,0.00055711,0.0014558,11.454,0.0021028,0.0033799,1.5205e-09,0.12,0.82,0
0.0045036,0.0023673,0.0042115,0.00061319,0.0014474,0.00082563,0,0,0.035933,-0.010845,0,0.021466,0,0,0,0.0043919,0.0004328,0.0014474,12.325,0.0020907,0.0035619,1.7017e-09,0.14,0.82,0
0.0052313,0.0030136,0.0042749,0.00053345,0.0014425,0.00091815,0,0,0.036821,-0.011818,0,0.023872,0,0,0,0.0044881,0.00032029,0.0014425,13.071,0.0020836,0.0037354,1.8848e-09,0.16,0.82,0
0.0059765,0.0037299,0.0043396,0.00046294,0.0014408,0.0010042,0,0,0.037685,-0.012712,0,0.026109,0,0,0,0.0045843,0.00021827,0.0014408,13.693,0.0020811,0.0039012,2.0703e-09,0.18,0.82,0
0.0067388,0.0045125,0.0044067,0.00039938,0.0014418,0.0010831,0,0,0.038543,-0.013552,0,0.02816,0,0,0,0.0046807,0.00012538,0.0014418,14.197,0.0020826,0.0040604,2.2593e-09,0.2,0.82,0
0.0075182,0.0053567,0.0044769,0.00034071,0.0014453,0.0011544,0,0,0.039411,-0.01436,0,0.030015,0,0,0,0.0047773,4.032e-05,0.0014453,14.585,0.0020876,0.004214,2.4526e-09,0.22,0.82,0
0.0083152,0.0062578,0.0045512,0.00028512,0.0014509,0.0012179,0,0,0.040303,-0.015155,0,0.031666,0,0,0,0.0048744,-3.8092e-05,0.0014509,14.863,0.0020957,0.0043629,2.6509e-09,0.24,0.82,0
0.0091304,0.0072108,0.0046299,0.0002311,0.0014583,0.0012732,0,0,0.041231,-0.015953,0,0.033103,0,0,0,0.0049718,-0.00011083,0.0014583,15.033,0.0021064,0.0045078,2.8551e-09,0.26,0.82,0
0.0099644,0.0082104,0.0047135,0.0001775,0.0014673,0.0013199,0,0,0.042201,-0.016767,0,0.034318,0,0,0,0.0050696,-0.00017864,0.0014673,15.099,0.0021194,0.0046492,3.0655e-09,0.28,0.82,0
0.010818,0.0092511,0.0048021,0.00012349,0.0014777,0.0013578,0,0,0.043218,-0.017605,0,0.035302,0,0,0,0.0051676,-0.00024199,0.0014777,15.066,0.0021344,0.0047873,3.2823e-09,0.3,0.82,0
0.011693,0.010327,0.0048958,6.8665e-05,0.0014893,0.0013862,0,0,0.044284,-0.018469,0,0.036041,0,0,0,0.0052655,-0.00030108,0.0014893,14.935,0.0021513,0.004922,3.5052e-09,0.32,0.82,0
0.01259,0.011432,0.0049943,1.3025e-05,0.0015022,0.0014048,0,0,0.045397,-0.019359,0,0.036524,0,0,0,0.0053631,-0.00035583,0.0015022,14.712,0.0021698,0.005053,3.7335e-09,0.34,0.82,0
0.013509,0.012561,0.0050972,-4.2993e-05,0.0015163,0.0014131,0,0,0.046552,-0.02027,0,0.036741,0,0,0,0.0054601,-0.00040587,0.0015163,14.402,0.0021901,0.0051796,3.9663e-09,0.36,0.82,0
0.014452,0.013707,0.0052038,-9.8504e-05,0.0015316,0.0014109,0,0,0.047739,-0.021191,0,0.036684,0,0,0,0.0055559,-0.00045056,0.0015316,14.011,0.0022123,0.005301,4.2023e-09,0.38,0.82,0
0.015419,0.014864,0.0053134,-0.00015219,0.0015484,0.0013981,0,0,0.048946,-0.022107,0,0.03635,0,0,0,0.0056503,-0.00048906,0.0015484,13.547,0.0022365,0.0054161,4.4397e-09,0.4,0.82,0
0.01641,0.016026,0.0054251,-0.00020236,0.0015668,0.0013749,0,0,0.050157,-0.022999,0,0.035747,0,0,0,0.005743,-0.0005203,0.0015668,13.021,0.0022632,0.0055238,4.6767e-09,0.42,0.82,0
0.017425,0.017187,0.0055375,-0.00024701,0.0015872,0.0013419,0,0,0.051355,-0.023844,0,0.034889,0,0,0,0.0058337,-0.00054313,0.0015872,12.445,0.0022926,0.0056229,4.9113e-09,0.44,0.82,0
0.018464,0.018342,0.0056498,-0.00028395,0.0016097,0.0013002,0,0,0.05252,-0.024618,0,0.033806,0,0,0,0.0059222,-0.00055635,0.0016097,11.833,0.0023252,0.0057123,5.1416e-09,0.46,0.82,0
0.019526,0.019486,0.0057606,-0.00031097,0.0016349,0.0012515,0,0,0.053634,-0.025296,0,0.032538,0,0,0,0.0060084,-0.0005588,0.0016349,11.202,0.0023615,0.0057909,5.3655e-09,0.48,0.82,0
0.020609,0.020616,0.0058689,-0.00032599,0.0016629,0.0011977,0,0,0.054678,-0.025855,0,0.03114,0,0,0,0.0060924,-0.00054947,0.0016629,10.57,0.0024019,0.0058579,5.5814e-09,0.5,0.82,0
0.021713,0.021729,0.005974,-0.0003272,0.001694,0.0011414,0,0,0.055639,-0.026276,0,0.029677,0,0,0,0.0061743,-0.00052758,0.001694,9.9573,0.0024469,0.0059129,5.7879e-09,0.52,0.82,0
0.022835,0.022824,0.0060751,-0.00031325,0.0017286,0.0010855,0,0,0.056505,-0.026544,0,0.028224,0,0,0,0.0062546,-0.00049266,0.0017286,9.3851,0.0024968,0.0059558,5.9839e-09,0.54,0.82,0
0.023973,0.023898,0.0061721,-0.0002833,0.0017667,0.0010332,0,0,0.057271,-0.026649,0,0.026863,0,0,0,0.0063335,-0.00044463,0.0017667,8.875,0.0025518,0.005987,6.169e-09,0.56,0.82,0
0.025126,0.024955,0.006265,-0.00023712,0.0018084,0.0009876,0,0,0.057936,-0.026591,0,0.025678,0,0,0,0.0064117,-0.00038382,0.0018084,8.4488,0.0026121,0.0060073,6.3436e-09,0.58,0.82,0
0.026291,0.025996,0.0063542,-0.00017507,0.0018537,0.00095192,0,0,0.058506,-0.026374,0,0.02475,0,0,0,0.0064901,-0.00031102,0.0018537,8.128,0.0026776,0.0060182,6.5088e-09,0.6,0.82,0
0.027466,0.027025,0.0064402,-9.8037e-05,0.0019026,0.00092909,0,0,0.058988,-0.026009,0,0.024156,0,0,0,0.0065696,-0.0002275,0.0019026,7.9327,0.0027483,0.0060216,6.6673e-09,0.62,0.82,0
0.02865,0.028046,0.0065239,-7.3674e-06,0.001955,0.0009217,0,0,0.059396,-0.02551,0,0.023964,0,0,0,0.0066515,-0.00013495,0.001955,7.8807,0.0028238,0.00602,6.8228e-09,0.64,0.82,0
0.029842,0.029065,0.0066064,9.5318e-05,0.0020105,0.00093187,0,0,0.059746,-0.024897,0,0.024229,0,0,0,0.0067371,-3.5427e-05,0.0020105,7.9867,0.0029041,0.0060164,6.9806e-09,0.66,0.82,0
0.03104,0.030089,0.0066884,0.00020831,0.002069,0.00096111,0,0,0.060052,-0.024189,0,0.024989,0,0,0,0.0068279,6.876e-05,0.002069,8.2612,0.0029885,0.0060139,7.1474e-09,0.68,0.82,0
0.032244,0.031123,0.0067707,0.00033002,0.0021302,0.0010103,0,0,0.060326,-0.023402,0,0.026269,0,0,0,0.0069254,0.00017524,0.0021302,8.7094,0.003077,0.0060159,7.3306e-09,0.7,0.82,0
0.033453,0.032174,0.0068536,0.00045925,0.0021939,0.0010798,0,0,0.060577,-0.02255,0,0.028075,0,0,0,0.007031,0.00028182,0.0021939,9.331,0.0031689,0.0060252,7.5383e-09,0.72,0.82,0
0.034667,0.03325,0.0069371,0.00059537,0.0022597,0.0011691,0,0,0.060805,-0.021637,0,0.030398,0,0,0,0.0071457,0.0003867,0.0022597,10.12,0.0032641,0.0060443,7.7776e-09,0.74,0.82,0
0.035885,0.034355,0.0070202,0.00073851,0.0023276,0.0012772,0,0,0.061004,-0.020658,0,0.033208,0,0,0,0.00727,0.00048874,0.0023276,11.065,0.0033621,0.0060743,8.0541e-09,0.76,0.82,0
0.037107,0.035496,0.0071014,0.00088963,0.0023973,0.0014025,0,0,0.061153,-0.0196,0,0.036464,0,0,0,0.0074034,0.00058766,0.0023973,12.151,0.0034628,0.0061151,8.3699e-09,0.78,0.82,0
0.038331,0.036677,0.0071783,0.0010505,0.0024686,0.0015424,0,0,0.061225,-0.018436,0,0.040101,0,0,0,0.0075446,0.00068416,0.0024686,13.36,0.0035658,0.006165,8.7221e-09,0.8,0.82,0
0.039556,0.0379,0.0072476,0.0012235,0.0025413,0.0016936,0,0,0.061181,-0.017132,0,0.044033,0,0,0,0.007691,0.00077997,0.0025413,14.674,0.0036708,0.0062203,9.1013e-09,0.82,0.82,0
0.040779,0.039165,0.0073055,0.0014112,0.002615,0.0018516,0,0,0.060976,-0.015649,0,0.048142,0,0,0,0.0078389,0.00087783,0.002615,16.07,0.0037772,0.0062755,9.4899e-09,0.84,0.82,0
0.041995,0.040472,0.0073481,0.001616,0.0026892,0.0020104,0,0,0.060565,-0.013952,0,0.05227,0,0,0,0.0079829,0.00098125,0.0026892,17.524,0.0038845,0.0063231,9.8606e-09,0.86,0.82,0
0.043201,0.041816,0.007372,0.0018387,0.0027632,0.0021621,0,0,0.059914,-0.012018,0,0.056215,0,0,0,0.0081167,0.0010941,0.0027632,19.004,0.0039913,0.0063546,1.0177e-08,0.88,0.82,0
0.044392,0.043188,0.0073754,0.0020772,0.0028358,0.0022974,0,0,0.059015,-0.0098614,0,0.059732,0,0,0,0.0082328,0.0012198,0.0028358,20.466,0.0040961,0.0063609,1.0398e-08,0.9,0.82,0
0.045562,0.044579,0.0073588,0.0023248,0.0029051,0.0024059,0,0,0.057899,-0.0075438,0,0.062553,0,0,0,0.0083237,0.0013599,0.0029051,21.853,0.0041962,0.0063342,1.048e-08,0.92,0.82,0
0.046708,0.045973,0.0073262,0.002569,0.0029685,0.0024781,0,0,0.056649,-0.0051942,0,0.06443,0,0,0,0.0083825,0.0015127,0.0029685,23.087,0.0042879,0.00627,1.0395e-08,0.94,0.82,0
0.047828,0.047352,0.0072842,0.0027917,0.0030227,0.0025077,0,0,0.055399,-0.0030043,0,0.0652,0,0,0,0.0084046,0.0016713,0.0030227,24.074,0.0043662,0.0061696,1.0137e-08,0.96,0.82,0
0.048924,0.0487,0.0072414,0.0029714,0.0030638,0.0024937,0,0,0.054309,-0.0012021,0,0.064836,0,0,0,0.0083892,0.0018236,0.0030638,24.715,0.0044256,0.0060417,9.7373e-09,0.98,0.82,0
0.05,0.05,0.0072457,0.0031053,0.0031053,0.0024997,0,0,0.053825,1.4718e-16,0,0.064993,0,0,0,0.0084211,0.0019298,0.0031053,25.185,0.0044854,0.0059907,9.625e-09,1,0.82,0
0,0,0.0036236,0.001553,0.001553,0.0001186,0,0,0.026918,-3.2526e-19,0,0.0030836,0,0,0,0.0036304,0.0015462,0.001553,3.2675,0.0022432,0.0020808,4.627e-10,0,0.84,0
0.00053836,6.1671e-05,0.0035994,0.0013039,0.001471,0.00013775,0,0,0.027669,-0.0021719,0,0.0035816,0,0,0,0.0036077,0.0012957,0.001471,3.422,0.0021248,0.0022295,5.5731e-10,0.02,0.84,0
0.0011068,0.00020339,0.0036802,0.0011229,0.0014409,0.00023848,0,0,0.02911,-0.0041338,0,0.0062006,0,0,0,0.0037022,0.0011009,0.0014409,5.2827,0.0020813,0.0024491,7.0566e-10,0.04,0.84,0
0.0017028,0.00042737,0.0037565,0.00096297,0.0014158,0.00034425,0,0,0.030429,-0.0058875,0,0.0089505,0,0,0,0.0037983,0.00092117,0.0014158,6.9225,0.0020451,0.0026645,8.5976e-10,0.06,0.84,0
0.0023239,0.00073464,0.0038291,0.00082388,0.0013959,0.00045214,0,0,0.031632,-0.0074362,0,0.011756,0,0,0,0.0038957,0.00075733,0.0013959,8.3733,0.0020163,0.0028728,1.0178e-09,0.08,0.84,0
0.002968,0.001125,0.0038986,0.00070474,0.001381,0.00055921,0,0,0.032729,-0.0087914,0,0.01454,0,0,0,0.0039937,0.00060966,0.001381,9.6496,0.0019948,0.0030719,1.1783e-09,0.1,0.84,0
0.0036331,0.0015971,0.0039662,0.00060368,0.001371,0.00066285,0,0,0.033738,-0.0099747,0,0.017234,0,0,0,0.0040922,0.00047773,0.001371,10.759,0.0019803,0.0032609,1.3406e-09,0.12,0.84,0
0.0043175,0.0021485,0.0040333,0.00051814,0.0013654,0.00076101,0,0,0.034682,-0.011015,0,0.019786,0,0,0,0.0041909,0.00036046,0.0013654,11.706,0.0019723,0.0034399,1.5047e-09,0.14,0.84,0
0.0050204,0.0027756,0.0041012,0.00044524,0.0013639,0.00085228,0,0,0.035584,-0.011943,0,0.022159,0,0,0,0.0042901,0.00025632,0.0013639,12.498,0.0019701,0.0036098,1.6712e-09,0.16,0.84,0
0.0057409,0.0034745,0.0041714,0.00038219,0.0013661,0.00093586,0,0,0.036469,-0.01279,0,0.024332,0,0,0,0.0043899,0.00016366,0.0013661,13.144,0.0019732,0.0037717,1.841e-09,0.18,0.84,0
0.0064791,0.0042407,0.004245,0.00032643,0.0013714,0.0010113,0,0,0.037356,-0.013585,0,0.026295,0,0,0,0.0044906,8.0814e-05,0.0013714,13.651,0.0019809,0.0039269,2.0153e-09,0.2,0.84,0
0.0072352,0.0050691,0.0043227,0.00027575,0.0013796,0.0010785,0,0,0.038261,-0.014349,0,0.028041,0,0,0,0.0045922,6.2824e-06,0.0013796,14.028,0.0019927,0.0040766,2.1952e-09,0.22,0.84,0
0.0080096,0.0059548,0.0044053,0.00022832,0.0013901,0.0011373,0,0,0.039198,-0.015103,0,0.029569,0,0,0,0.0046949,-6.1242e-05,0.0013901,14.285,0.0020079,0.0042219,2.3816e-09,0.24,0.84,0
0.0088031,0.0068922,0.0044929,0.00018268,0.0014027,0.0011875,0,0,0.040173,-0.01586,0,0.030875,0,0,0,0.0047985,-0.00012283,0.0014027,14.428,0.0020261,0.0043633,2.5752e-09,0.26,0.84,0
0.0096165,0.007876,0.0045858,0.00013772,0.0014171,0.001229,0,0,0.041194,-0.016632,0,0.031955,0,0,0,0.0049029,-0.00017929,0.0014171,14.463,0.0020469,0.0045015,2.7764e-09,0.28,0.84,0
0.010451,0.0089004,0.0046839,9.2716e-05,0.001433,0.0012617,0,0,0.042262,-0.017424,0,0.032805,0,0,0,0.0050078,-0.00023117,0.001433,14.397,0.0020699,0.0046366,2.9853e-09,0.3,0.84,0
0.011307,0.0099596,0.0047869,4.7287e-05,0.0014503,0.0012852,0,0,0.043376,-0.018239,0,0.033416,0,0,0,0.005113,-0.00027879,0.0014503,14.236,0.0020948,0.0047685,3.2017e-09,0.32,0.84,0
0.012186,0.011048,0.0048944,1.4253e-06,0.0014688,0.0012993,0,0,0.044534,-0.019075,0,0.033781,0,0,0,0.0052181,-0.00032218,0.0014688,13.986,0.0021215,0.0048969,3.425e-09,0.34,0.84,0
0.013088,0.012159,0.005006,-4.4507e-05,0.0014884,0.0013037,0,0,0.045728,-0.019928,0,0.033895,0,0,0,0.0053226,-0.00036117,0.0014884,13.653,0.00215,0.0050213,3.6543e-09,0.36,0.84,0
0.014015,0.013287,0.0051207,-8.9784e-05,0.0015093,0.0012983,0,0,0.046949,-0.020788,0,0.033755,0,0,0,0.0054263,-0.00039535,0.0015093,13.244,0.0021801,0.0051411,3.8884e-09,0.38,0.84,0
0.014966,0.014426,0.0052379,-0.00013334,0.0015314,0.0012832,0,0,0.048185,-0.021641,0,0.033362,0,0,0,0.0055287,-0.00042414,0.0015314,12.769,0.002212,0.0052554,4.126e-09,0.4,0.84,0
0.015942,0.015571,0.0053565,-0.0001738,0.0015548,0.0012587,0,0,0.049422,-0.022472,0,0.032727,0,0,0,0.0056295,-0.00044681,0.0015548,12.238,0.0022459,0.0053634,4.3655e-09,0.42,0.84,0
0.016943,0.016716,0.0054756,-0.00020959,0.0015798,0.0012256,0,0,0.050645,-0.023262,0,0.031867,0,0,0,0.0057285,-0.00046256,0.0015798,11.662,0.0022819,0.0054641,4.605e-09,0.44,0.84,0
0.017968,0.017856,0.005594,-0.00023897,0.0016065,0.001185,0,0,0.051837,-0.023991,0,0.03081,0,0,0,0.0058255,-0.00047052,0.0016065,11.056,0.0023205,0.0055567,4.843e-09,0.46,0.84,0
0.019017,0.018987,0.0057108,-0.00026021,0.0016352,0.0011383,0,0,0.052983,-0.02464,0,0.029597,0,0,0,0.0059204,-0.00046986,0.0016352,10.436,0.0023619,0.0056405,5.0778e-09,0.48,0.84,0
0.020088,0.020106,0.0058251,-0.00027167,0.001666,0.0010875,0,0,0.054068,-0.02519,0,0.028276,0,0,0,0.0060133,-0.00045986,0.001666,9.8171,0.0024065,0.0057149,5.3078e-09,0.5,0.84,0
0.021179,0.02121,0.0059363,-0.00027195,0.0016993,0.0010349,0,0,0.055081,-0.025626,0,0.026908,0,0,0,0.0061043,-0.00043993,0.0016993,9.2193,0.0024546,0.0057796,5.5321e-09,0.52,0.84,0
0.022291,0.022299,0.006044,-0.00025997,0.0017352,0.00098311,0,0,0.056014,-0.025937,0,0.025561,0,0,0,0.0061937,-0.00040973,0.0017352,8.6614,0.0025064,0.0058346,5.7497e-09,0.54,0.84,0
0.02342,0.023371,0.0061479,-0.00023507,0.0017738,0.00093487,0,0,0.056862,-0.026116,0,0.024307,0,0,0,0.006282,-0.00036917,0.0017738,8.1634,0.0025622,0.0058802,5.9605e-09,0.56,0.84,0
0.024565,0.024428,0.0062482,-0.00019702,0.0018154,0.00089311,0,0,0.057627,-0.026161,0,0.023221,0,0,0,0.0063697,-0.00031849,0.0018154,7.745,0.0026222,0.0059172,6.1649e-09,0.58,0.84,0
0.025725,0.025472,0.0063454,-0.00014606,0.0018598,0.00086068,0,0,0.058313,-0.026076,0,0.022378,0,0,0,0.0064576,-0.00025824,0.0018598,7.4257,0.0026864,0.0059468,6.3644e-09,0.6,0.84,0
0.026898,0.026506,0.0064403,-8.2836e-05,0.0019072,0.00084028,0,0,0.05893,-0.025871,0,0.021847,0,0,0,0.0065468,-0.00018934,0.0019072,7.2235,0.0027549,0.0059706,6.5615e-09,0.62,0.84,0
0.028082,0.027536,0.0065336,-8.2979e-06,0.0019576,0.00083433,0,0,0.059488,-0.025556,0,0.021692,0,0,0,0.0066383,-0.00011303,0.0019576,7.1547,0.0028276,0.0059907,6.7599e-09,0.64,0.84,0
0.029277,0.028565,0.0066264,7.6409e-05,0.0020108,0.00084487,0,0,0.060002,-0.025147,0,0.021967,0,0,0,0.0067336,-3.0815e-05,0.0020108,7.2328,0.0029045,0.0060096,6.9648e-09,0.66,0.84,0
0.030482,0.0296,0.0067196,0.00017012,0.0020669,0.00087354,0,0,0.060485,-0.024658,0,0.022712,0,0,0,0.0068341,5.5612e-05,0.0020669,7.468,0.0029856,0.0060299,7.1823e-09,0.68,0.84,0
0.031697,0.030647,0.0068142,0.00027183,0.0021258,0.00092149,0,0,0.060949,-0.024102,0,0.023959,0,0,0,0.0069415,0.00014452,0.0021258,7.8662,0.0030706,0.0060546,7.42e-09,0.7,0.84,0
0.03292,0.031713,0.0069106,0.0003809,0.0021874,0.00098937,0,0,0.061401,-0.023485,0,0.025724,0,0,0,0.0070572,0.00023429,0.0021874,8.4294,0.0031596,0.0060861,7.6857e-09,0.72,0.84,0
0.034153,0.032805,0.0070088,0.00049726,0.0022518,0.0010774,0,0,0.06184,-0.022809,0,0.028012,0,0,0,0.0071824,0.00032363,0.0022518,9.155,0.0032526,0.0061266,7.9871e-09,0.74,0.84,0
0.035394,0.033928,0.0071081,0.00062157,0.0023189,0.0011852,0,0,0.06226,-0.022065,0,0.030815,0,0,0,0.0073179,0.0004118,0.0023189,10.037,0.0033495,0.0061774,8.3308e-09,0.76,0.84,0
0.036643,0.035088,0.0072073,0.00075536,0.0023888,0.001312,0,0,0.06264,-0.021235,0,0.034113,0,0,0,0.0074639,0.00049875,0.0023888,11.066,0.0034505,0.0062387,8.7205e-09,0.78,0.84,0
0.0379,0.03629,0.0073037,0.00090109,0.0024614,0.0014564,0,0,0.062949,-0.020284,0,0.037868,0,0,0,0.0076194,0.00058535,0.0024614,12.232,0.0035554,0.0063088,9.1555e-09,0.8,0.84,0
0.039161,0.037537,0.0073938,0.0010621,0.0025368,0.001616,0,0,0.063141,-0.019171,0,0.042017,0,0,0,0.0077824,0.0006735,0.0025368,13.521,0.0036642,0.0063846,9.6281e-09,0.82,0.84,0
0.040425,0.038831,0.0074731,0.0012425,0.0026147,0.0017871,0,0,0.063159,-0.017838,0,0.046466,0,0,0,0.0079493,0.0007663,0.0026147,14.921,0.0037768,0.0064602,1.0121e-08,0.84,0.84,0
0.041688,0.040171,0.0075361,0.0014465,0.0026948,0.0019641,0,0,0.062937,-0.016227,0,0.051065,0,0,0,0.0081146,0.00086801,0.0026948,16.412,0.0038924,0.0065278,1.0604e-08,0.86,0.84,0
0.042943,0.041554,0.0075774,0.0016774,0.0027765,0.0021385,0,0,0.062413,-0.014287,0,0.055602,0,0,0,0.008271,0.00098384,0.0027765,17.97,0.0040104,0.0065767,1.1033e-08,0.88,0.84,0
0.044184,0.042972,0.0075931,0.0019358,0.0028587,0.0022992,0,0,0.061548,-0.011997,0,0.05978,0,0,0,0.0084097,0.0011192,0.0028587,19.553,0.0041292,0.0065951,1.135e-08,0.9,0.84,0
0.045405,0.044411,0.007582,0.0022165,0.0029395,0.0024324,0,0,0.060351,-0.0093991,0,0.063242,0,0,0,0.0085205,0.001278,0.0029395,21.099,0.004246,0.0065712,1.1492e-08,0.92,0.84,0
0.046598,0.045856,0.0075473,0.0025062,0.0030161,0.0025238,0,0,0.058906,-0.0066279,0,0.065618,0,0,0,0.0085936,0.0014599,0.0030161,22.518,0.0043565,0.006497,1.1407e-08,0.94,0.84,0
0.047761,0.047284,0.0074972,0.0027816,0.0030836,0.0025624,0,0,0.057376,-0.0039263,0,0.066624,0,0,0,0.0086215,0.0016573,0.0030836,23.691,0.0044541,0.006372,1.1076e-08,0.96,0.84,0
0.048893,0.048673,0.0074427,0.0030125,0.0031366,0.0025453,0,0,0.05598,-0.0016128,0,0.066177,0,0,0,0.0086018,0.0018534,0.0031366,24.484,0.0045306,0.0062071,1.0535e-08,0.98,0.84,0
0.05,0.05,0.0074503,0.003193,0.003193,0.002553,0,0,0.055345,2.5154e-17,0,0.066377,0,0,0,0.0086456,0.0019977,0.003193,25.089,0.0046121,0.0061382,1.0376e-08,1,0.84,0
0,0,0.0034153,0.0014637,0.0014637,3.3171e-05,0,0,0.025371,-5.421e-19,0,0.00086246,0,0,0,0.0034159,0.0014631,0.0014637,0.97349,0.0021142,0.0019524,3.8226e-10,0,0.86,0
0.00050741,1.7249e-05,0.0033898,0.0012036,0.001378,5.2995e-05,0,0,0.026153,-0.0022675,0,0.0013779,0,0,0,0.0033911,0.0012023,0.001378,1.3878,0.0019905,0.0021065,4.688e-10,0.02,0.86,0
0.0010461,0.00011901,0.0034739,0.0010161,0.001347,0.00015854,0,0,0.02765,-0.0043016,0,0.004122,0,0,0,0.0034841,0.0010059,0.001347,3.6755,0.0019457,0.0023265,6.0012e-10,0.04,0.86,0
0.0016134,0.00030745,0.0035531,0.00085262,0.0013217,0.00026891,0,0,0.029008,-0.0060983,0,0.0069917,0,0,0,0.0035796,0.00082611,0.0013217,5.6317,0.0019092,0.0025422,7.369e-10,0.06,0.86,0
0.0022065,0.0005836,0.0036281,0.00071351,0.0013025,0.00038078,0,0,0.030233,-0.0076565,0,0.0099002,0,0,0,0.003677,0.00066459,0.0013025,7.3218,0.0018814,0.0027495,8.7695e-10,0.08,0.86,0
0.0028227,0.000947,0.0036998,0.00059768,0.0012893,0.00049057,0,0,0.031338,-0.0089905,0,0.012755,0,0,0,0.0037756,0.00052195,0.0012893,8.7755,0.0018623,0.0029459,1.0188e-09,0.1,0.86,0
0.00346,0.0013958,0.00377,0.00050248,0.0012817,0.00059521,0,0,0.032347,-0.01013,0,0.015475,0,0,0,0.003875,0.00039743,0.0012817,10.009,0.0018514,0.0031306,1.1621e-09,0.12,0.86,0
0.0041166,0.0019268,0.0038403,0.00042438,0.0012794,0.00069255,0,0,0.033292,-0.011116,0,0.018006,0,0,0,0.0039754,0.00028931,0.0012794,11.036,0.001848,0.0033042,1.3074e-09,0.14,0.86,0
0.0047916,0.0025358,0.0039128,0.00035973,0.0012817,0.00078138,0,0,0.034203,-0.011986,0,0.020316,0,0,0,0.004077,0.00019548,0.0012817,11.871,0.0018514,0.0034684,1.4557e-09,0.16,0.86,0
0.0054847,0.0032183,0.0039887,0.00030521,0.0012882,0.00086124,0,0,0.035107,-0.012779,0,0.022392,0,0,0,0.0041801,0.00011379,0.0012882,12.531,0.0018607,0.0036248,1.6085e-09,0.18,0.86,0
0.0061959,0.0039691,0.0040694,0.000258,0.0012982,0.00093208,0,0,0.036025,-0.013523,0,0.024234,0,0,0,0.0042851,4.2265e-05,0.0012982,13.032,0.0018752,0.003775,1.7672e-09,0.2,0.86,0
0.0069257,0.0047827,0.0041554,0.00021579,0.0013114,0.00099406,0,0,0.036972,-0.014242,0,0.025846,0,0,0,0.004392,-2.082e-05,0.0013114,13.389,0.0018942,0.0039203,1.933e-09,0.22,0.86,0
0.0076748,0.0056537,0.0042471,0.00017679,0.0013272,0.0010473,0,0,0.037959,-0.014955,0,0.027231,0,0,0,0.0045008,-7.6892e-05,0.0013272,13.616,0.001917,0.0040619,2.107e-09,0.24,0.86,0
0.0084441,0.0065764,0.0043446,0.0001396,0.0013453,0.001092,0,0,0.038991,-0.015673,0,0.028393,0,0,0,0.0046113,-0.00012709,0.0013453,13.724,0.0019431,0.0042004,2.2898e-09,0.26,0.86,0
0.0092345,0.0075451,0.0044476,0.00010321,0.0013652,0.0011282,0,0,0.040071,-0.016407,0,0.029333,0,0,0,0.0047231,-0.0001723,0.0013652,13.723,0.001972,0.0043362,2.4819e-09,0.28,0.86,0
0.010047,0.0085541,0.004556,6.6962e-05,0.0013869,0.0011557,0,0,0.041198,-0.017159,0,0.030049,0,0,0,0.004836,-0.00021311,0.0013869,13.622,0.0020033,0.0044694,2.6833e-09,0.3,0.86,0
0.010882,0.0095975,0.0046691,3.0523e-05,0.0014099,0.0011745,0,0,0.04237,-0.017932,0,0.030538,0,0,0,0.0049496,-0.00024992,0.0014099,13.429,0.0020365,0.0046,2.8938e-09,0.32,0.86,0
0.011742,0.010669,0.0047865,-6.1255e-06,0.0014341,0.0011845,0,0,0.043581,-0.018723,0,0.030796,0,0,0,0.0050632,-0.00028287,0.0014341,13.151,0.0020715,0.0047276,3.1129e-09,0.34,0.86,0
0.012626,0.011764,0.0049074,-4.2697e-05,0.0014594,0.0011854,0,0,0.044824,-0.019527,0,0.030821,0,0,0,0.0051766,-0.00031193,0.0014594,12.796,0.002108,0.0048518,3.3396e-09,0.36,0.86,0
0.013535,0.012875,0.0050309,-7.8613e-05,0.0014857,0.0011774,0,0,0.046088,-0.020336,0,0.030613,0,0,0,0.0052892,-0.00033688,0.0014857,12.372,0.002146,0.004972,3.573e-09,0.38,0.86,0
0.014469,0.013998,0.0051563,-0.00011303,0.001513,0.0011607,0,0,0.047363,-0.021138,0,0.030178,0,0,0,0.0054006,-0.00035736,0.001513,11.888,0.0021854,0.0050875,3.8117e-09,0.4,0.86,0
0.015429,0.015127,0.0052824,-0.00014487,0.0015413,0.0011356,0,0,0.048635,-0.02192,0,0.029525,0,0,0,0.0055105,-0.00037289,0.0015413,11.354,0.0022263,0.0051977,4.0543e-09,0.42,0.86,0
0.016415,0.016256,0.0054085,-0.0001729,0.0015707,0.0011029,0,0,0.049891,-0.022666,0,0.028675,0,0,0,0.0056185,-0.00038292,0.0015707,10.782,0.0022687,0.0053018,4.2993e-09,0.44,0.86,0
0.017425,0.017382,0.0055334,-0.00019578,0.0016013,0.0010636,0,0,0.051118,-0.023362,0,0.027654,0,0,0,0.0057245,-0.00038687,0.0016013,10.185,0.002313,0.0053992,4.5451e-09,0.46,0.86,0
0.018459,0.018501,0.0056565,-0.00021217,0.0016333,0.0010192,0,0,0.052301,-0.023991,0,0.0265,0,0,0,0.0058284,-0.00038415,0.0016333,9.5774,0.0023592,0.0054893,4.7902e-09,0.48,0.86,0
0.019517,0.019609,0.0057768,-0.00022081,0.0016668,0.00097147,0,0,0.05343,-0.024539,0,0.025258,0,0,0,0.0059303,-0.00037424,0.0016668,8.9748,0.0024076,0.0055718,5.0335e-09,0.5,0.86,0
0.020597,0.020704,0.005894,-0.00022063,0.001702,0.00092238,0,0,0.054496,-0.024994,0,0.023982,0,0,0,0.0060301,-0.00035674,0.001702,8.3941,0.0024585,0.0056464,5.2738e-09,0.52,0.86,0
0.021697,0.021786,0.0060078,-0.00021078,0.0017391,0.00087431,0,0,0.055493,-0.025348,0,0.022732,0,0,0,0.0061284,-0.00033136,0.0017391,7.8529,0.002512,0.0057132,5.5107e-09,0.54,0.86,0
0.022816,0.022854,0.006118,-0.00019074,0.0017782,0.00082976,0,0,0.056418,-0.025596,0,0.021574,0,0,0,0.0062254,-0.00029805,0.0017782,7.3689,0.0025685,0.0057725,5.7441e-09,0.56,0.86,0
0.023953,0.023909,0.0062251,-0.00016033,0.0018194,0.00079132,0,0,0.057274,-0.025737,0,0.020574,0,0,0,0.0063217,-0.00025693,0.0018194,6.9601,0.0026281,0.005825,5.9748e-09,0.58,0.86,0
0.025107,0.024953,0.0063296,-0.00011969,0.001863,0.00076154,0,0,0.058066,-0.025775,0,0.0198,0,0,0,0.0064183,-0.00020839,0.001863,6.6439,0.002691,0.0058717,6.2042e-09,0.6,0.86,0
0.026276,0.02599,0.0064322,-6.9268e-05,0.0019089,0.00074289,0,0,0.058804,-0.025716,0,0.019315,0,0,0,0.006516,-0.00015307,0.0019089,6.4363,0.0027573,0.0059142,6.435e-09,0.62,0.86,0
0.027459,0.027024,0.0065341,-9.7298e-06,0.0019573,0.00073761,0,0,0.059498,-0.025571,0,0.019178,0,0,0,0.0066162,-9.1841e-05,0.0019573,6.3521,0.0028272,0.0059541,6.6711e-09,0.64,0.86,0
0.028656,0.028059,0.0066362,5.8144e-05,0.0020083,0.00074768,0,0,0.060163,-0.025352,0,0.01944,0,0,0,0.0067202,-2.5768e-05,0.0020083,6.4035,0.0029009,0.0059936,6.9177e-09,0.66,0.86,0
0.029866,0.029102,0.0067399,0.00013359,0.0020621,0.00077478,0,0,0.060812,-0.02507,0,0.020144,0,0,0,0.0068296,4.3943e-05,0.0020621,6.6003,0.0029785,0.0060352,7.1812e-09,0.68,0.86,0
0.031089,0.030158,0.0068461,0.00021603,0.0021186,0.00082025,0,0,0.061457,-0.024734,0,0.021327,0,0,0,0.0069461,0.00011605,0.0021186,6.9489,0.0030603,0.0060813,7.4694e-09,0.7,0.86,0
0.032324,0.031235,0.0069556,0.00030521,0.0021783,0.0008851,0,0,0.062106,-0.02435,0,0.023013,0,0,0,0.0070714,0.00018943,0.0021783,7.4526,0.0031464,0.0061344,7.7907e-09,0.72,0.86,0
0.033573,0.032337,0.0070689,0.00040146,0.0022411,0.00097004,0,0,0.062762,-0.023916,0,0.025221,0,0,0,0.0072072,0.0002632,0.0022411,8.1119,0.0032372,0.0061965,8.154e-09,0.74,0.86,0
0.034835,0.033473,0.0071858,0.00050579,0.0023075,0.0010755,0,0,0.063418,-0.023422,0,0.027963,0,0,0,0.0073547,0.0003369,0.0023075,8.9244,0.003333,0.0062692,8.5679e-09,0.76,0.86,0
0.03611,0.034647,0.0073051,0.00062012,0.0023776,0.0012016,0,0,0.064058,-0.022847,0,0.031241,0,0,0,0.0075145,0.00041071,0.0023776,9.8864,0.0034343,0.006353,9.0388e-09,0.78,0.86,0
0.037397,0.035866,0.0074247,0.00074748,0.0024517,0.001348,0,0,0.06465,-0.022154,0,0.035047,0,0,0,0.0076866,0.00048563,0.0024517,10.993,0.0035413,0.0064469,9.5698e-09,0.8,0.86,0
0.038696,0.037133,0.0075412,0.00089209,0.00253,0.0015137,0,0,0.065146,-0.021293,0,0.039356,0,0,0,0.0078696,0.00056371,0.00253,12.24,0.0036544,0.006548,1.0157e-08,0.82,0.86,0
0.040003,0.038451,0.0076492,0.0010594,0.0026126,0.0016965,0,0,0.065476,-0.020191,0,0.044108,0,0,0,0.0080603,0.00064834,0.0026126,13.621,0.0037737,0.0066511,1.0786e-08,0.84,0.86,0
0.041314,0.039823,0.0077419,0.0012561,0.0026994,0.001892,0,0,0.065553,-0.018763,0,0.049191,0,0,0,0.0082534,0.00074452,0.0026994,15.13,0.0038991,0.0067473,1.1426e-08,0.86,0.86,0
0.042625,0.041244,0.0078112,0.0014888,0.00279,0.0020924,0,0,0.065276,-0.016915,0,0.054402,0,0,0,0.008441,0.0008591,0.00279,16.75,0.00403,0.0068245,1.2026e-08,0.88,0.86,0
0.043926,0.042708,0.0078496,0.0017629,0.0028837,0.0022852,0,0,0.064556,-0.014571,0,0.059416,0,0,0,0.008612,0.0010004,0.0028837,18.451,0.0041654,0.0068665,1.2507e-08,0.9,0.86,0
0.045207,0.044203,0.0078523,0.0020776,0.002979,0.0024528,0,0,0.063353,-0.011718,0,0.063773,0,0,0,0.0087534,0.0011764,0.002979,20.174,0.0043029,0.0068559,1.2774e-08,0.92,0.86,0
0.04646,0.045707,0.0078208,0.0024208,0.0030725,0.002574,0,0,0.061728,-0.0084718,0,0.066923,0,0,0,0.0088511,0.0013905,0.0030725,21.816,0.004438,0.006778,1.2734e-08,0.94,0.86,0
0.047676,0.047195,0.0077641,0.002764,0.0031584,0.00263,0,0,0.059874,-0.0051277,0,0.068381,0,0,0,0.0088927,0.0016353,0.0031584,23.226,0.0045622,0.0066284,1.2336e-08,0.96,0.86,0
0.048855,0.048636,0.007697,0.0030634,0.0032281,0.0026127,0,0,0.058095,-0.0021416,0,0.067931,0,0,0,0.0088722,0.0018882,0.0032281,24.218,0.0046628,0.0064198,1.1618e-08,0.98,0.86,0
0.05,0.05,0.0077092,0.003304,0.003304,0.0026238,0,0,0.057269,-5.5511e-17,0,0.068219,0,0,0,0.0089324,0.0020808,0.003304,24.994,0.0047724,0.0063293,1.14e-08,1,0.86,0
0,0,0.0031936,0.0013687,0.0013687,-5.5826e-05,0,0,0.023724,1.0842e-19,0,-0.0014515,0,0,0,0.0031953,0.001367,0.0013687,-1.7506,0.001977,0.0018275,3.1345e-10,0,0.88,0
0.00047447,-2.903e-05,0.003167,0.0010983,0.0012796,-3.5248e-05,0,0,0.024536,-0.002357,0,-0.00091646,0,0,0,0.0031676,0.0010977,0.0012796,-0.97588,0.0018483,0.0019852,3.9048e-10,0.02,0.88,0
0.00098145,3.1329e-05,0.0032538,0.00090393,0.0012473,7.5777e-05,0,0,0.026084,-0.004464,0,0.0019702,0,0,0,0.0032562,0.00090149,0.0012473,1.8451,0.0018017,0.0022023,5.0328e-10,0.04,0.88,0
0.0015178,0.00018344,0.003335,0.00073709,0.0012216,0.00019163,0,0,0.027474,-0.0062989,0,0.0049825,0,0,0,0.003349,0.00072303,0.0012216,4.1962,0.0017646,0.0024156,6.2125e-10,0.06,0.88,0
0.0020804,0.00042838,0.0034113,0.00059934,0.0012032,0.00030812,0,0,0.028705,-0.0078501,0,0.0080111,0,0,0,0.0034447,0.00056597,0.0012032,6.1804,0.0017379,0.0026189,7.4164e-10,0.08,0.88,0
0.0026661,0.00076541,0.0034842,0.00048905,0.001192,0.00042055,0,0,0.029799,-0.0091381,0,0.010934,0,0,0,0.0035422,0.00043113,0.001192,7.8429,0.0017218,0.002809,8.6302e-10,0.1,0.88,0
0.0032724,0.0011919,0.003556,0.00040208,0.0011874,0.00052532,0,0,0.030792,-0.01021,0,0.013658,0,0,0,0.0036412,0.00031689,0.0011874,9.2118,0.0017152,0.0029858,9.855e-10,0.12,0.88,0
0.0038977,0.0017038,0.0036293,0.00033343,0.0011888,0.00062037,0,0,0.031726,-0.01112,0,0.01613,0,0,0,0.0037422,0.00022053,0.0011888,10.315,0.0017172,0.0031512,1.1103e-09,0.14,0.88,0
0.0045414,0.0022961,0.0037064,0.00027849,0.0011955,0.00070507,0,0,0.032642,-0.011921,0,0.018332,0,0,0,0.0038457,0.00013913,0.0011955,11.181,0.0017268,0.0033075,1.2393e-09,0.16,0.88,0
0.0052034,0.0029634,0.0037888,0.00023343,0.0012067,0.00077957,0,0,0.033568,-0.012652,0,0.020269,0,0,0,0.0039522,7.0012e-05,0.0012067,11.839,0.001743,0.003457,1.3743e-09,0.18,0.88,0
0.0058841,0.0036997,0.0038776,0.00019528,0.0012219,0.00084436,0,0,0.034524,-0.013345,0,0.021953,0,0,0,0.0040619,1.09e-05,0.0012219,12.318,0.0017649,0.0036016,1.517e-09,0.2,0.88,0
0.0065844,0.0044994,0.0039731,0.00016176,0.0012404,0.00090002,0,0,0.035524,-0.014023,0,0.023401,0,0,0,0.0041749,-4.0086e-05,0.0012404,12.64,0.0017918,0.0037428,1.6688e-09,0.22,0.88,0
0.0073051,0.0053566,0.0040753,0.00013115,0.0012619,0.00094702,0,0,0.036574,-0.0147,0,0.024622,0,0,0,0.0042909,-8.4452e-05,0.0012619,12.826,0.0018228,0.0038814,1.8306e-09,0.24,0.88,0
0.0080473,0.0062653,0.0041839,0.0001022,0.0012858,0.0009857,0,0,0.037675,-0.015387,0,0.025628,0,0,0,0.0044095,-0.00012337,0.0012858,12.89,0.0018573,0.0040181,2.0031e-09,0.26,0.88,0
0.0088121,0.0072197,0.0042985,7.4024e-05,0.0013118,0.0010162,0,0,0.038828,-0.016091,0,0.026422,0,0,0,0.0045303,-0.00015773,0.0013118,12.847,0.0018948,0.004153,2.1866e-09,0.28,0.88,0
0.0096004,0.008214,0.0044184,4.6053e-05,0.0013393,0.0010387,0,0,0.040028,-0.016813,0,0.027007,0,0,0,0.0046526,-0.00018816,0.0013393,12.707,0.0019346,0.0042863,2.3814e-09,0.3,0.88,0
0.010413,0.0092423,0.0045429,1.8001e-05,0.0013683,0.0010531,0,0,0.041271,-0.017554,0,0.027381,0,0,0,0.004776,-0.00021509,0.0013683,12.48,0.0019764,0.0044176,2.587e-09,0.32,0.88,0
0.011251,0.010299,0.0046713,-1.0155e-05,0.0013983,0.0010594,0,0,0.042548,-0.01831,0,0.027544,0,0,0,0.0048998,-0.00023872,0.0013983,12.175,0.0020198,0.0045467,2.8029e-09,0.34,0.88,0
0.012115,0.011378,0.0048026,-3.8195e-05,0.0014293,0.0010575,0,0,0.043852,-0.019078,0,0.027495,0,0,0,0.0050235,-0.00025913,0.0014293,11.801,0.0020646,0.0046731,3.0284e-09,0.36,0.88,0
0.013005,0.012474,0.0049359,-6.5672e-05,0.0014611,0.0010476,0,0,0.045173,-0.019848,0,0.027238,0,0,0,0.0051465,-0.00027623,0.0014611,11.365,0.0021104,0.0047961,3.2625e-09,0.38,0.88,0
0.013922,0.013581,0.0050703,-9.194e-05,0.0014935,0.0010299,0,0,0.046498,-0.020611,0,0.026777,0,0,0,0.0052682,-0.00028982,0.0014935,10.876,0.0021573,0.0049153,3.5037e-09,0.4,0.88,0
0.014865,0.014694,0.0052048,-0.00011618,0.0015266,0.0010048,0,0,0.047817,-0.021356,0,0.026126,0,0,0,0.0053882,-0.00029961,0.0015266,10.345,0.0022051,0.0050299,3.7507e-09,0.42,0.88,0
0.015835,0.015809,0.0053385,-0.00013746,0.0015603,0.00097313,0,0,0.049116,-0.022071,0,0.025301,0,0,0,0.0055063,-0.00030525,0.0015603,9.7831,0.0022538,0.0051393,4.002e-09,0.44,0.88,0
0.01683,0.016921,0.0054705,-0.00015476,0.0015947,0.00093576,0,0,0.050385,-0.022743,0,0.02433,0,0,0,0.005622,-0.00030634,0.0015947,9.2012,0.0023035,0.005243,4.2562e-09,0.46,0.88,0
0.01785,0.018027,0.0056,-0.00016708,0.0016299,0.00089403,0,0,0.051611,-0.02336,0,0.023245,0,0,0,0.0057354,-0.0003025,0.0016299,8.613,0.0023543,0.0053407,4.5117e-09,0.48,0.88,0
0.018894,0.019124,0.0057264,-0.00017348,0.0016659,0.00084951,0,0,0.052787,-0.023912,0,0.022087,0,0,0,0.0058463,-0.00029336,0.0016659,8.0325,0.0024063,0.0054319,4.7675e-09,0.5,0.88,0
0.019962,0.020211,0.0058494,-0.00017315,0.0017029,0.00080404,0,0,0.053905,-0.024388,0,0.020905,0,0,0,0.0059549,-0.00027864,0.0017029,7.4749,0.0024597,0.0055165,5.0225e-09,0.52,0.88,0
0.021051,0.021285,0.0059688,-0.00016545,0.001741,0.00075968,0,0,0.054961,-0.024784,0,0.019752,0,0,0,0.0060615,-0.00025813,0.001741,6.9557,0.0025148,0.0055946,5.2763e-09,0.54,0.88,0
0.02216,0.022347,0.0060846,-0.00014999,0.0017804,0.00071864,0,0,0.055955,-0.025095,0,0.018685,0,0,0,0.0061664,-0.00023175,0.0017804,6.4909,0.0025717,0.0056667,5.5291e-09,0.56,0.88,0
0.023289,0.023398,0.0061975,-0.00012662,0.0018212,0.00068322,0,0,0.056891,-0.025322,0,0.017764,0,0,0,0.0062704,-0.00019959,0.0018212,6.0962,0.0026307,0.0057332,5.7816e-09,0.58,0.88,0
0.024436,0.024441,0.0063079,-9.5429e-05,0.0018637,0.00065567,0,0,0.057774,-0.025469,0,0.017048,0,0,0,0.0063743,-0.00016188,0.0018637,5.7869,0.0026921,0.0057953,6.0356e-09,0.6,0.88,0
0.0256,0.025478,0.0064169,-5.6713e-05,0.001908,0.00063823,0,0,0.058615,-0.025542,0,0.016594,0,0,0,0.0064792,-0.00011904,0.001908,5.5772,0.0027561,0.0058541,6.294e-09,0.62,0.88,0
0.02678,0.026513,0.0065256,-1.0927e-05,0.0019544,0.00063294,0,0,0.059426,-0.025549,0,0.016456,0,0,0,0.0065863,-7.1651e-05,0.0019544,5.4802,0.002823,0.0059114,6.5609e-09,0.64,0.88,0
0.027977,0.027551,0.0066354,4.141e-05,0.0020031,0.00064168,0,0,0.060221,-0.025501,0,0.016684,0,0,0,0.0066973,-2.0453e-05,0.0020031,5.5068,0.0028933,0.005969,6.8417e-09,0.66,0.88,0
0.029189,0.028597,0.0067478,9.982e-05,0.0020543,0.00066612,0,0,0.061015,-0.025408,0,0.017319,0,0,0,0.0068138,3.3732e-05,0.0020543,5.6659,0.0029673,0.0060294,7.1434e-09,0.68,0.88,0
0.030417,0.029658,0.006864,0.000164,0.0021084,0.0007077,0,0,0.061823,-0.025277,0,0.0184,0,0,0,0.0069379,9.006e-05,0.0021084,5.9643,0.0030455,0.0060947,7.4743e-09,0.7,0.88,0
0.031662,0.030739,0.0069854,0.00023395,0.0021658,0.00076769,0,0,0.062654,-0.025114,0,0.01996,0,0,0,0.0070715,0.00014776,0.0021658,6.406,0.0031284,0.0061676,7.8441e-09,0.72,0.88,0
0.032924,0.031848,0.0071128,0.00031019,0.0022269,0.00084722,0,0,0.063517,-0.024917,0,0.022028,0,0,0,0.0072168,0.00020627,0.0022269,6.9934,0.0032166,0.0062501,8.2636e-09,0.74,0.88,0
0.034203,0.032991,0.0072469,0.00039391,0.0022922,0.00094733,0,0,0.064411,-0.024678,0,0.024631,0,0,0,0.0073755,0.00026536,0.0022922,7.7273,0.003311,0.0063443,8.7442e-09,0.76,0.88,0
0.0355,0.034174,0.0073873,0.00048719,0.0023624,0.001069,0,0,0.065325,-0.024377,0,0.027795,0,0,0,0.0075492,0.00032536,0.0023624,8.6081,0.0034123,0.0064512,9.2965e-09,0.78,0.88,0
0.036816,0.035404,0.0075327,0.00059329,0.0024378,0.0012132,0,0,0.066234,-0.023979,0,0.031544,0,0,0,0.0077387,0.00038729,0.0024378,9.6365,0.0035213,0.0065707,9.9294e-09,0.8,0.88,0
0.038149,0.036685,0.0076802,0.00071696,0.0025191,0.0013806,0,0,0.067094,-0.023428,0,0.035895,0,0,0,0.0079439,0.00045323,0.0025191,10.815,0.0036388,0.006701,1.0646e-08,0.82,0.88,0
0.039499,0.038023,0.0078246,0.00086479,0.0026068,0.001571,0,0,0.067831,-0.022646,0,0.040845,0,0,0,0.0081628,0.00052663,0.0026068,12.148,0.0037654,0.0068376,1.1441e-08,0.84,0.88,0
0.040863,0.039421,0.007958,0.0010455,0.0027011,0.0017825,0,0,0.068341,-0.021522,0,0.046345,0,0,0,0.0083906,0.00061294,0.0027011,13.641,0.0039015,0.0069722,1.2288e-08,0.86,0.88,0
0.042233,0.040878,0.0080695,0.0012699,0.0028018,0.0020098,0,0,0.068479,-0.019914,0,0.052254,0,0,0,0.0086191,0.00072034,0.0028018,15.295,0.0040471,0.007091,1.3132e-08,0.88,0.88,0
0.043602,0.042389,0.0081462,0.00155,0.0029089,0.002241,0,0,0.068085,-0.017665,0,0.058267,0,0,0,0.0088355,0.00086065,0.0029089,17.098,0.0042017,0.0071735,1.3878e-08,0.9,0.88,0
0.044956,0.043943,0.008177,0.001894,0.0030213,0.0024554,0,0,0.067025,-0.014655,0,0.06384,0,0,0,0.0090228,0.0010483,0.0030213,19.005,0.0043641,0.0071939,1.4382e-08,0.92,0.88,0
0.046283,0.045517,0.0081588,0.0022971,0.0031368,0.0026228,0,0,0.065286,-0.010915,0,0.068192,0,0,0,0.0091609,0.001295,0.0031368,20.913,0.0045309,0.0071259,1.4483e-08,0.94,0.88,0
0.047568,0.047079,0.0080999,0.0027281,0.0032484,0.0027107,0,0,0.06307,-0.0067642,0,0.070478,0,0,0,0.00923,0.001598,0.0032484,22.631,0.0046921,0.0069553,1.4055e-08,0.96,0.88,0
0.048806,0.048587,0.0080201,0.0031231,0.0033429,0.0026999,0,0,0.060803,-0.0028586,0,0.070198,0,0,0,0.0092164,0.0019268,0.0033429,23.898,0.0048287,0.0066949,1.3117e-08,0.98,0.88,0
0.05,0.05,0.0080397,0.0034456,0.0034456,0.0027177,0,0,0.059723,-1.7347e-18,0,0.070661,0,0,0,0.009301,0.0021842,0.0034456,24.898,0.0049769,0.0065775,1.2822e-08,1,0.88,0
0,0,0.0029577,0.0012676,0.0012676,-0.00014814,0,0,0.021971,-1.0842e-19,0,-0.0038516,0,0,0,0.0029706,0.0012547,0.0012676,-4.9715,0.001831,0.0017095,2.5653e-10,0,0.9,0
0.00043943,-7.7032e-05,0.00293,0.00098742,0.0011752,-0.00012649,0,0,0.022812,-0.0024415,0,-0.0032888,0,0,0,0.0029382,0.00097921,0.0011752,-3.71,0.0016975,0.0018687,3.2276e-10,0.02,0.9,0
0.00091248,-5.9554e-05,0.0030183,0.00078479,0.0011409,-8.9179e-06,0,0,0.024406,-0.0046298,0,-0.00023186,0,0,0,0.0030183,0.00078475,0.0011409,-0.22876,0.001648,0.0020785,4.159e-10,0.04,0.9,0
0.0014157,5.55e-05,0.0030999,0.00061482,0.0011144,0.00011411,0,0,0.025811,-0.0064947,0,0.0029668,0,0,0,0.0031051,0.00060959,0.0011144,2.6235,0.0016097,0.0022853,5.1362e-10,0.06,0.9,0
0.0019449,0.0002696,0.0031757,0.00048111,0.0010971,0.00023616,0,0,0.027023,-0.0080071,0,0.0061401,0,0,0,0.0031962,0.00046057,0.0010971,4.971,0.0015846,0.0024795,6.1242e-10,0.08,0.9,0
0.0024966,0.00058148,0.0032479,0.00038002,0.0010884,0.00035077,0,0,0.028074,-0.0092085,0,0.0091199,0,0,0,0.0032902,0.00033775,0.0010884,6.8729,0.0015721,0.0026578,7.1126e-10,0.1,0.9,0
0.0030679,0.00098738,0.0033201,0.00030453,0.0010874,0.00045388,0,0,0.029025,-0.010177,0,0.011801,0,0,0,0.0033869,0.00023769,0.0010874,8.3766,0.0015707,0.002822,8.1125e-10,0.12,0.9,0
0.0036576,0.0014819,0.003396,0.00024754,0.001093,0.0005443,0,0,0.029938,-0.010992,0,0.014152,0,0,0,0.0034874,0.0001561,0.001093,9.5367,0.0015788,0.0029756,9.1463e-10,0.14,0.9,0
0.0042654,0.002059,0.0034783,0.00020358,0.0011045,0.00062247,0,0,0.030858,-0.011713,0,0.016184,0,0,0,0.0035926,8.925e-05,0.0011045,10.408,0.0015955,0.0031221,1.0239e-09,0.16,0.9,0
0.0048919,0.0027122,0.0035685,0.00016859,0.0011211,0.0006895,0,0,0.031816,-0.012383,0,0.017927,0,0,0,0.003703,3.4078e-05,0.0011211,11.039,0.0016194,0.0032641,1.1412e-09,0.18,0.9,0
0.005538,0.0034352,0.0036671,0.00013963,0.001142,0.00074658,0,0,0.032826,-0.013031,0,0.019411,0,0,0,0.0038186,-1.1872e-05,0.001142,11.471,0.0016496,0.0034035,1.2683e-09,0.2,0.9,0
0.0062049,0.0042218,0.003774,0.00011461,0.0011666,0.0007947,0,0,0.033897,-0.013676,0,0.020662,0,0,0,0.0039391,-5.0526e-05,0.0011666,11.738,0.0016851,0.0035416,1.4064e-09,0.22,0.9,0
0.0068939,0.0050657,0.0038887,9.2004e-05,0.0011942,0.00083462,0,0,0.035028,-0.014329,0,0.0217,0,0,0,0.0040641,-8.337e-05,0.0011942,11.867,0.001725,0.003679,1.5566e-09,0.24,0.9,0
0.0076061,0.0059609,0.0040104,7.0766e-05,0.0012244,0.00086684,0,0,0.036219,-0.014997,0,0.022538,0,0,0,0.0041927,-0.00011153,0.0012244,11.876,0.0017685,0.0038159,1.7196e-09,0.26,0.9,0
0.0083426,0.0069015,0.0041384,5.0164e-05,0.0012566,0.00089167,0,0,0.037463,-0.015683,0,0.023183,0,0,0,0.0043244,-0.00013585,0.0012566,11.784,0.001815,0.0039525,1.8956e-09,0.28,0.9,0
0.0091046,0.0078816,0.0042716,2.9741e-05,0.0012904,0.00090923,0,0,0.038755,-0.016389,0,0.02364,0,0,0,0.0044582,-0.00015693,0.0012904,11.602,0.0018639,0.0040884,2.0848e-09,0.3,0.9,0
0.0098928,0.0088954,0.0044091,9.2721e-06,0.0013255,0.00091958,0,0,0.040087,-0.017111,0,0.023909,0,0,0,0.0045936,-0.00017519,0.0013255,11.343,0.0019146,0.0042233,2.2868e-09,0.32,0.9,0
0.010708,0.009937,0.0045499,-1.1266e-05,0.0013616,0.00092274,0,0,0.041448,-0.017847,0,0.023991,0,0,0,0.0047295,-0.00019086,0.0013616,11.014,0.0019668,0.0043568,2.5012e-09,0.34,0.9,0
0.011551,0.011001,0.0046931,-3.1712e-05,0.0013984,0.00091874,0,0,0.042831,-0.018592,0,0.023887,0,0,0,0.0048654,-0.00020407,0.0013984,10.626,0.0020199,0.0044882,2.7271e-09,0.36,0.9,0
0.012421,0.012082,0.0048375,-5.1736e-05,0.0014357,0.00090769,0,0,0.044223,-0.019337,0,0.0236,0,0,0,0.0050005,-0.00021481,0.0014357,10.185,0.0020738,0.0046169,2.9635e-09,0.38,0.9,0
0.01332,0.013174,0.0049821,-7.0862e-05,0.0014734,0.00088985,0,0,0.045613,-0.020075,0,0.023136,0,0,0,0.0051342,-0.00022299,0.0014734,9.7014,0.0021282,0.0047423,3.209e-09,0.4,0.9,0
0.014246,0.014273,0.0051259,-8.8493e-05,0.0015112,0.00086565,0,0,0.046991,-0.020796,0,0.022507,0,0,0,0.0052659,-0.00022844,0.0015112,9.1836,0.0021829,0.0048637,3.4621e-09,0.42,0.9,0
0.015199,0.015374,0.0052681,-0.00010395,0.0015492,0.00083572,0,0,0.048345,-0.021491,0,0.021729,0,0,0,0.0053951,-0.00023096,0.0015492,8.6415,0.0022378,0.0049806,3.7212e-09,0.44,0.9,0
0.01618,0.016473,0.0054076,-0.00011649,0.0015873,0.00080097,0,0,0.049664,-0.02215,0,0.020825,0,0,0,0.0055214,-0.00023028,0.0015873,8.0858,0.0022928,0.0050923,3.9847e-09,0.46,0.9,0
0.017186,0.017566,0.0055439,-0.00012541,0.0016256,0.00076252,0,0,0.050939,-0.022763,0,0.019825,0,0,0,0.0056447,-0.00022617,0.0016256,7.5279,0.002348,0.0051985,4.2511e-09,0.48,0.9,0
0.018217,0.018652,0.0056765,-0.00013001,0.0016639,0.00072176,0,0,0.052163,-0.023321,0,0.018766,0,0,0,0.0057649,-0.00021838,0.0016639,6.9805,0.0024035,0.0052991,4.519e-09,0.5,0.9,0
0.019272,0.019729,0.005805,-0.00012971,0.0017026,0.0006803,0,0,0.053331,-0.02382,0,0.017688,0,0,0,0.005882,-0.00020669,0.0017026,6.4563,0.0024593,0.0053937,4.7875e-09,0.52,0.9,0
0.02035,0.020795,0.0059294,-0.00012406,0.0017416,0.00063992,0,0,0.054441,-0.024254,0,0.016638,0,0,0,0.0059963,-0.00019097,0.0017416,5.969,0.0025156,0.0054827,5.056e-09,0.54,0.9,0
0.02145,0.02185,0.0060499,-0.00011277,0.0017811,0.00060254,0,0,0.055494,-0.024621,0,0.015666,0,0,0,0.0061082,-0.00017113,0.0017811,5.5321,0.0025727,0.0055662,5.3246e-09,0.56,0.9,0
0.02257,0.022896,0.0061671,-9.5727e-05,0.0018214,0.00057013,0,0,0.056494,-0.024923,0,0.014823,0,0,0,0.0062186,-0.00014721,0.0018214,5.1594,0.0026309,0.0056451,5.5943e-09,0.58,0.9,0
0.02371,0.023935,0.0062818,-7.2979e-05,0.0018626,0.0005447,0,0,0.057449,-0.025163,0,0.014162,0,0,0,0.0063282,-0.00011933,0.0018626,4.8638,0.0026905,0.0057201,5.8669e-09,0.6,0.9,0
0.024868,0.024969,0.0063952,-4.4726e-05,0.0019051,0.00052817,0,0,0.05837,-0.025348,0,0.013732,0,0,0,0.0064382,-8.7757e-05,0.0019051,4.6577,0.0027519,0.0057926,6.1455e-09,0.62,0.9,0
0.026045,0.026002,0.0065086,-1.1268e-05,0.0019492,0.0005224,0,0,0.059272,-0.025486,0,0.013582,0,0,0,0.0065501,-5.286e-05,0.0019492,4.5521,0.0028155,0.0058642,6.4345e-09,0.64,0.9,0
0.027239,0.027039,0.0066235,2.7058e-05,0.0019952,0.00052908,0,0,0.060169,-0.025586,0,0.013756,0,0,0,0.0066657,-1.5109e-05,0.0019952,4.5567,0.0028819,0.0059367,6.7397e-09,0.66,0.9,0
0.028451,0.028086,0.0067419,6.9963e-05,0.0020435,0.00054981,0,0,0.061078,-0.025657,0,0.014295,0,0,0,0.0067869,2.4958e-05,0.0020435,4.6795,0.0029518,0.0060124,7.0686e-09,0.68,0.9,0
0.029682,0.029147,0.0068654,0.00011731,0.0020948,0.00058603,0,0,0.062017,-0.025708,0,0.015237,0,0,0,0.0069159,6.6791e-05,0.0020948,4.9267,0.0030258,0.0060937,7.4307e-09,0.7,0.9,0
0.030932,0.03023,0.0069959,0.00016922,0.0021495,0.00063913,0,0,0.063003,-0.025744,0,0.016617,0,0,0,0.0070552,0.0001099,0.0021495,5.3028,0.0031049,0.0061832,7.8369e-09,0.72,0.9,0
0.032202,0.031341,0.0071351,0.00022625,0.0022084,0.00071051,0,0,0.064047,-0.025768,0,0.018473,0,0,0,0.0072074,0.00015394,0.0022084,5.8113,0.0031899,0.0062834,8.3005e-09,0.74,0.9,0
0.033494,0.032486,0.0072844,0.00028955,0.0022722,0.00080165,0,0,0.065158,-0.025774,0,0.020843,0,0,0,0.0073751,0.00019885,0.0022722,6.455,0.003282,0.0063967,8.8361e-09,0.76,0.9,0
0.034809,0.033672,0.0074447,0.0003611,0.0023417,0.00091427,0,0,0.066338,-0.025748,0,0.023771,0,0,0,0.0075608,0.000245,0.0023417,7.2371,0.0033825,0.0065252,9.4602e-09,0.78,0.9,0
0.036147,0.034906,0.0076161,0.00044402,0.0024181,0.0010504,0,0,0.067575,-0.025662,0,0.02731,0,0,0,0.0077668,0.00029336,0.0024181,8.1627,0.0034927,0.0066699,1.0189e-08,0.8,0.9,0
0.037512,0.036196,0.0077973,0.00054304,0.0025021,0.0012123,0,0,0.068837,-0.025468,0,0.031519,0,0,0,0.0079945,0.00034582,0.0025021,9.2404,0.0036142,0.0068308,1.1039e-08,0.82,0.9,0
0.038901,0.037546,0.0079845,0.0006651,0.0025949,0.0014024,0,0,0.070065,-0.025087,0,0.036463,0,0,0,0.008244,0.0004056,0.0025949,10.483,0.0037481,0.0070052,1.2017e-08,0.84,0.9,0
0.040314,0.038962,0.0081702,0.00082021,0.0026971,0.0016225,0,0,0.07115,-0.0244,0,0.042186,0,0,0,0.0085125,0.00047797,0.0026971,11.911,0.0038959,0.0071867,1.3115e-08,0.86,0.9,0
0.041747,0.040447,0.0083419,0.0010225,0.0028093,0.0018721,0,0,0.071923,-0.023228,0,0.048673,0,0,0,0.0087929,0.0005715,0.0028093,13.546,0.0040579,0.0073621,1.4291e-08,0.88,0.9,0
0.043191,0.042002,0.0084801,0.0012908,0.0029313,0.0021439,0,0,0.072135,-0.021326,0,0.055742,0,0,0,0.0090709,0.00070005,0.0029313,15.406,0.0042341,0.0075082,1.5441e-08,0.9,0.9,0
0.044632,0.043617,0.0085638,0.0016485,0.0030637,0.0024184,0,0,0.071501,-0.018398,0,0.062878,0,0,0,0.0093256,0.00088664,0.0030637,17.485,0.0044253,0.0075884,1.6371e-08,0.92,0.9,0
0.046051,0.045271,0.008578,0.0021095,0.0032062,0.0026557,0,0,0.069833,-0.014258,0,0.069048,0,0,0,0.0095286,0.0011588,0.0032062,19.695,0.0046312,0.007557,1.6802e-08,0.94,0.9,0
0.047426,0.046925,0.0085277,0.0026522,0.003354,0.0028018,0,0,0.067258,-0.0091229,0,0.072847,0,0,0,0.0096496,0.0015303,0.003354,21.822,0.0048446,0.0073784,1.6459e-08,0.96,0.9,0
0.048742,0.048521,0.0084384,0.0031875,0.0034878,0.0028118,0,0,0.064358,-0.0039033,0,0.073106,0,0,0,0.0096599,0.001966,0.0034878,23.481,0.0050379,0.0070571,1.526e-08,0.98,0.9,0
0.05,0.05,0.0084708,0.0036303,0.0036303,0.0028437,0,0,0.062926,8.4134e-17,0,0.073936,0,0,0,0.0097847,0.0023164,0.0036303,24.8,0.0052438,0.0069058,1.4872e-08,1,0.9,0
0,0,0.002709,0.001161,0.001161,-0.00024363,0,0,0.020124,-3.2526e-19,0,-0.0063345,0,0,0,0.0027464,0.0011236,0.001161,-8.7364,0.001677,0.0016045,2.1175e-10,0,0.92,0
0.00040248,-0.00012669,0.0026796,0.00086998,0.0010649,-0.00022001,0,0,0.020991,-0.0025335,0,-0.0057202,0,0,0,0.0027059,0.00084361,0.0010649,-6.8333,0.0015381,0.0017621,2.6615e-10,0.02,0.92,0
0.00083964,-0.00015386,0.0027667,0.00065505,0.0010265,-9.323e-05,0,0,0.022622,-0.0048291,0,-0.002424,0,0,0,0.0027708,0.00065094,0.0010265,-2.5231,0.0014827,0.0019592,3.3892e-10,0.04,0.92,0
0.0013074,-7.6353e-05,0.0028456,0.00048344,0.00099871,3.9998e-05,0,0,0.024009,-0.0066985,0,0.0010399,0,0,0,0.0028463,0.00048276,0.00099871,0.96981,0.0014426,0.0021524,4.1465e-10,0.06,0.92,0
0.0018,0.0001081,0.002917,0.00035948,0.00098294,0.00016873,0,0,0.025143,-0.008105,0,0.0043869,0,0,0,0.0029281,0.0003484,0.00098294,3.7583,0.0014198,0.0023282,4.8948e-10,0.08,0.92,0
0.0023131,0.00039707,0.0029852,0.00027368,0.00097766,0.00028343,0,0,0.026098,-0.0091517,0,0.0073693,0,0,0,0.0030145,0.00024437,0.00097766,5.9041,0.0014122,0.002486,5.6375e-10,0.1,0.92,0
0.0028439,0.00078483,0.003056,0.00021327,0.00098077,0.00038131,0,0,0.026978,-0.0099775,0,0.009914,0,0,0,0.0031062,0.00016301,0.00098077,7.5086,0.0014167,0.0026314,6.4018e-10,0.12,0.92,0
0.0033922,0.0012642,0.0031348,0.00016983,0.00099138,0.00046331,0,0,0.027864,-0.01068,0,0.012046,0,0,0,0.0032055,9.9119e-05,0.00099138,8.6776,0.001432,0.0027702,7.2216e-10,0.14,0.92,0
0.0039585,0.0018277,0.0032241,0.00013756,0.0010085,0.00053172,0,0,0.028802,-0.011322,0,0.013825,0,0,0,0.0033131,4.8527e-05,0.0010085,9.5057,0.0014567,0.002906,8.124e-10,0.16,0.92,0
0.0045443,0.002468,0.0033245,0.00011262,0.0010311,0.0005888,0,0,0.029814,-0.011941,0,0.015309,0,0,0,0.003429,8.0849e-06,0.0010311,10.068,0.0014894,0.0030413,9.1298e-10,0.18,0.92,0
0.005151,0.0031785,0.0034357,9.2434e-05,0.0010584,0.00063637,0,0,0.030904,-0.012558,0,0.016546,0,0,0,0.0035527,-2.46e-05,0.0010584,10.421,0.0015289,0.0031774,1.0255e-09,0.2,0.92,0
0.0057804,0.0039524,0.0035567,7.5244e-05,0.0010896,0.00067576,0,0,0.032073,-0.013187,0,0.01757,0,0,0,0.0036833,-5.132e-05,0.0010896,10.608,0.0015738,0.0033148,1.1511e-09,0.22,0.92,0
0.0064339,0.0047834,0.0036865,5.986e-05,0.0011239,0.00070789,0,0,0.033314,-0.013832,0,0.018405,0,0,0,0.0038197,-7.3416e-05,0.0011239,10.662,0.0016234,0.0034538,1.2907e-09,0.24,0.92,0
0.007113,0.0056654,0.0038238,4.5464e-05,0.0011608,0.00073333,0,0,0.034619,-0.014499,0,0.019067,0,0,0,0.0039611,-9.1877e-05,0.0011608,10.608,0.0016767,0.0035943,1.4452e-09,0.26,0.92,0
0.0078187,0.0065924,0.0039674,3.1514e-05,0.0011997,0.00075244,0,0,0.03598,-0.015186,0,0.019563,0,0,0,0.0041063,-0.00010743,0.0011997,10.462,0.0017328,0.0037358,1.6147e-09,0.28,0.92,0
0.0085522,0.0075585,0.0041161,1.7677e-05,0.0012401,0.00076536,0,0,0.037387,-0.015892,0,0.019899,0,0,0,0.0042543,-0.00012059,0.0012401,10.24,0.0017913,0.0038779,1.7996e-09,0.3,0.92,0
0.0093142,0.0085579,0.0042686,3.7895e-06,0.0012817,0.00077217,0,0,0.03883,-0.016613,0,0.020077,0,0,0,0.0044041,-0.00013171,0.0012817,9.9529,0.0018514,0.00402,1.9995e-09,0.32,0.92,0
0.010105,0.0095849,0.0044239,-1.0164e-05,0.0013241,0.00077289,0,0,0.040297,-0.017346,0,0.020095,0,0,0,0.0045547,-0.00014102,0.0013241,9.6097,0.0019126,0.0041614,2.214e-09,0.34,0.92,0
0.010926,0.010634,0.0045806,-2.4072e-05,0.001367,0.00076757,0,0,0.041778,-0.018083,0,0.019957,0,0,0,0.0047052,-0.00014865,0.001367,9.2188,0.0019745,0.0043012,2.4422e-09,0.36,0.92,0
0.011777,0.0117,0.0047377,-3.7704e-05,0.00141,0.0007563,0,0,0.04326,-0.01882,0,0.019664,0,0,0,0.0048546,-0.00015462,0.00141,8.7877,0.0020367,0.0044388,2.6831e-09,0.38,0.92,0
0.012656,0.012778,0.004894,-5.0731e-05,0.001453,0.00073931,0,0,0.044733,-0.019548,0,0.019222,0,0,0,0.0050022,-0.0001589,0.001453,8.3241,0.0020987,0.0045734,2.935e-09,0.4,0.92,0
0.013566,0.013862,0.0050484,-6.2744e-05,0.0014957,0.00071698,0,0,0.046185,-0.02026,0,0.018641,0,0,0,0.0051471,-0.00016142,0.0014957,7.8358,0.0021605,0.0047042,3.1963e-09,0.42,0.92,0
0.014504,0.014949,0.0052,-7.3276e-05,0.001538,0.00068985,0,0,0.047606,-0.020947,0,0.017936,0,0,0,0.0052888,-0.00016203,0.001538,7.3311,0.0022216,0.0048306,3.4651e-09,0.44,0.92,0
0.01547,0.016035,0.0053479,-8.183e-05,0.0015798,0.00065869,0,0,0.048985,-0.021601,0,0.017126,0,0,0,0.0054267,-0.0001606,0.0015798,6.8189,0.002282,0.004952,3.7395e-09,0.46,0.92,0
0.016463,0.017117,0.0054915,-8.7911e-05,0.0016211,0.00062446,0,0,0.050315,-0.022217,0,0.016236,0,0,0,0.0055605,-0.00015695,0.0016211,6.3088,0.0023415,0.005068,4.0176e-09,0.48,0.92,0
0.017483,0.018192,0.0056302,-9.1058e-05,0.0016617,0.00058833,0,0,0.05159,-0.022786,0,0.015297,0,0,0,0.00569,-0.00015093,0.0016617,5.8109,0.0024003,0.0051783,4.2978e-09,0.5,0.92,0
0.018527,0.019258,0.0057638,-9.0874e-05,0.0017019,0.00055165,0,0,0.052805,-0.023306,0,0.014343,0,0,0,0.0058153,-0.0001424,0.0017019,5.336,0.0024583,0.0052828,4.5788e-09,0.52,0.92,0
0.019595,0.020315,0.0058924,-8.7053e-05,0.0017416,0.00051591,0,0,0.053961,-0.023773,0,0.013414,0,0,0,0.0059366,-0.00013124,0.0017416,4.8953,0.0025157,0.0053817,4.8598e-09,0.54,0.92,0
0.020685,0.021362,0.0060164,-7.9396e-05,0.0017811,0.00048273,0,0,0.055059,-0.024186,0,0.012551,0,0,0,0.0060544,-0.00011739,0.0017811,4.4999,0.0025727,0.0054752,5.1407e-09,0.56,0.92,0
0.021797,0.022401,0.0061363,-6.7824e-05,0.0018206,0.00045376,0,0,0.056105,-0.024549,0,0.011798,0,0,0,0.0061693,-0.00010084,0.0018206,4.161,0.0026297,0.0055641,5.4224e-09,0.58,0.92,0
0.022929,0.023434,0.0062533,-5.2367e-05,0.0018603,0.00043069,0,0,0.057109,-0.024864,0,0.011198,0,0,0,0.0062825,-8.1649e-05,0.0018603,3.8894,0.0026871,0.0056494,5.7067e-09,0.6,0.92,0
0.024082,0.024464,0.0063685,-3.3154e-05,0.0019006,0.00041516,0,0,0.058083,-0.025139,0,0.010794,0,0,0,0.0063953,-5.9966e-05,0.0019006,3.6952,0.0027453,0.0057322,5.997e-09,0.62,0.92,0
0.025253,0.025493,0.0064836,-1.0376e-05,0.001942,0.00040875,0,0,0.059041,-0.02538,0,0.010627,0,0,0,0.0065092,-3.6003e-05,0.001942,3.5875,0.0028051,0.0058143,6.2978e-09,0.64,0.92,0
0.026443,0.026527,0.0066004,1.5754e-05,0.0019849,0.00041294,0,0,0.060003,-0.025598,0,0.010736,0,0,0,0.0066262,-1.0041e-05,0.0019849,3.5745,0.002867,0.0058975,6.6153e-09,0.66,0.92,0
0.027653,0.027571,0.0067212,4.5067e-05,0.0020299,0.00042913,0,0,0.060987,-0.025802,0,0.011158,0,0,0,0.0067486,1.7596e-05,0.0020299,3.6628,0.002932,0.0059842,6.9578e-09,0.68,0.92,0
0.028883,0.028629,0.006848,7.7507e-05,0.0020777,0.00045868,0,0,0.062015,-0.026002,0,0.011926,0,0,0,0.0068789,4.6574e-05,0.0020777,3.8581,0.0030011,0.006077,7.3355e-09,0.7,0.92,0
0.030134,0.02971,0.0069835,0.00011322,0.002129,0.00050293,0,0,0.063108,-0.026205,0,0.013076,0,0,0,0.0070201,7.6603e-05,0.002129,4.1647,0.0030752,0.0061785,7.7609e-09,0.72,0.92,0
0.031407,0.030818,0.0071301,0.00015269,0.0021848,0.00056333,0,0,0.064288,-0.026418,0,0.014646,0,0,0,0.0071753,0.0001075,0.0021848,4.5862,0.0031559,0.0062918,8.2495e-09,0.74,0.92,0
0.032705,0.03196,0.0072904,0.00019686,0.0022462,0.00064154,0,0,0.065575,-0.026641,0,0.01668,0,0,0,0.0073479,0.0001393,0.0022462,5.1264,0.0032445,0.0064199,8.8198e-09,0.76,0.92,0
0.03403,0.033144,0.0074667,0.00024736,0.0023142,0.00073967,0,0,0.066982,-0.026869,0,0.019231,0,0,0,0.0075417,0.00017235,0.0023142,5.7902,0.0033428,0.0065659,9.4938e-09,0.78,0.92,0
0.035384,0.034377,0.0076611,0.00030681,0.0023904,0.00086044,0,0,0.068519,-0.027086,0,0.022371,0,0,0,0.0077604,0.00020748,0.0023904,6.585,0.0034528,0.0067324,1.0298e-08,0.8,0.92,0
0.036771,0.035667,0.0078747,0.00037932,0.0024762,0.0010074,0,0,0.070181,-0.02726,0,0.026193,0,0,0,0.0080078,0.00024627,0.0024762,7.5231,0.0035768,0.0069214,1.1261e-08,0.82,0.92,0
0.038192,0.03702,0.008107,0.00047119,0.0025735,0.0011854,0,0,0.071936,-0.027329,0,0.03082,0,0,0,0.0082868,0.00029141,0.0025735,8.6242,0.0037172,0.0071336,1.2415e-08,0.84,0.92,0
0.039648,0.038445,0.0083539,0.0005922,0.0026838,0.0014,0,0,0.073711,-0.027191,0,0.036401,0,0,0,0.0085987,0.00034738,0.0026838,9.9187,0.0038766,0.0073665,1.3783e-08,0.86,0.92,0
0.04114,0.039948,0.0086048,0.0007574,0.0028087,0.0016575,0,0,0.07535,-0.026666,0,0.043094,0,0,0,0.0089405,0.00042168,0.0028087,11.45,0.004057,0.0076114,1.5365e-08,0.88,0.92,0
0.042662,0.041536,0.008838,0.00099034,0.0029485,0.0019609,0,0,0.076564,-0.025456,0,0.050983,0,0,0,0.0093007,0.00052766,0.0029485,13.276,0.004259,0.0078478,1.7093e-08,0.9,0.92,0
0.044203,0.043207,0.0090148,0.0013254,0.0031021,0.0023012,0,0,0.076865,-0.023096,0,0.059831,0,0,0,0.0096508,0.00068938,0.0031021,15.451,0.0044808,0.0080316,1.8738e-08,0.92,0.92,0
0.045737,0.044947,0.0091003,0.0018186,0.0032757,0.0026401,0,0,0.07572,-0.018942,0,0.068644,0,0,0,0.0099568,0.00096211,0.0032757,17.974,0.0047315,0.0080899,1.9882e-08,0.94,0.92,0
0.047231,0.046714,0.0090826,0.0024903,0.0034719,0.0028898,0,0,0.072939,-0.012761,0,0.075136,0,0,0,0.01017,0.0014028,0.0034719,20.621,0.0050149,0.0079375,1.9922e-08,0.96,0.92,0
0.048654,0.048431,0.008995,0.0032407,0.0036707,0.0029552,0,0,0.069216,-0.0055904,0,0.076836,0,0,0,0.010242,0.0019934,0.0036707,22.883,0.0053022,0.0075514,1.849e-08,0.98,0.92,0
0.05,0.05,0.0090571,0.0038816,0.0038816,0.003018,0,0,0.067281,7.7629e-17,0,0.078467,0,0,0,0.010445,0.0024939,0.0038816,24.694,0.0056068,0.0073559,1.8015e-08,1,0.92,0
0,0,0.0024532,0.0010514,0.0010514,-0.00034302,0,0,0.018224,8.6736e-19,0,-0.0089186,0,0,0,0.0025327,0.00097196,0.0010514,-13.038,0.0015187,0.0015226,1.7962e-10,0,0.94,0
0.00036448,-0.00017837,0.0024204,0.00074262,0.00094891,-0.0003129,0,0,0.01913,-0.0026818,0,-0.0081355,0,0,0,0.0024769,0.00068616,0.00094891,-10.227,0.0013706,0.0016749,2.2142e-10,0.02,0.94,0
0.00076519,-0.00025272,0.0024993,0.00050606,0.00090162,-0.00017156,0,0,0.02077,-0.0051423,0,-0.0044605,0,0,0,0.002514,0.0004914,0.00090162,-4.8835,0.0013023,0.0018519,2.73e-10,0.04,0.94,0
0.0011953,-0.00021244,0.0025683,0.00034016,0.00087254,-2.1319e-05,0,0,0.022045,-0.006921,0,-0.0005543,0,0,0,0.0025685,0.00033996,0.00087254,-0.54814,0.0012603,0.0020157,3.2374e-10,0.06,0.94,0
0.001647,-5.4605e-05,0.0026287,0.00024062,0.00086078,0.00011192,0,0,0.022982,-0.0080622,0,0.0029099,0,0,0,0.0026339,0.00023539,0.00086078,2.6775,0.0012434,0.002155,3.7179e-10,0.08,0.94,0
0.0021146,0.00021541,0.0026864,0.00017615,0.00085875,0.00022052,0,0,0.023759,-0.0088739,0,0.0057335,0,0,0,0.0027056,0.00015692,0.00085875,4.9825,0.0012404,0.0022802,4.2011e-10,0.1,0.94,0
0.0025973,0.00058828,0.002755,0.00013352,0.00086656,0.00030644,0,0,0.02455,-0.0095295,0,0.0079674,0,0,0,0.0027904,9.8175e-05,0.00086656,6.5794,0.0012517,0.002402,4.7396e-10,0.12,0.94,0
0.0030966,0.0010547,0.002839,0.00010422,0.00088298,0.0003747,0,0,0.025429,-0.010124,0,0.0097421,0,0,0,0.0028895,5.3812e-05,0.00088298,7.662,0.0012754,0.0025253,5.365e-10,0.14,0.94,0
0.0036145,0.0016061,0.002939,8.3235e-05,0.00090667,0.00042953,0,0,0.02642,-0.010705,0,0.011168,0,0,0,0.0030022,2.003e-05,0.00090667,8.371,0.0013096,0.0026524,6.0986e-10,0.16,0.94,0
0.0041534,0.0022346,0.0030537,6.746e-05,0.00093633,0.00047407,0,0,0.027525,-0.011295,0,0.012326,0,0,0,0.0031271,-5.9925e-06,0.00093633,8.8075,0.0013525,0.0027842,6.9561e-10,0.18,0.94,0
0.0047155,0.0029329,0.0031813,5.494e-05,0.00097086,0.00051046,0,0,0.028735,-0.011907,0,0.013272,0,0,0,0.0032625,-2.6296e-05,0.00097086,9.0424,0.0014024,0.0029208,7.9508e-10,0.2,0.94,0
0.0053028,0.0036943,0.00332,4.4415e-05,0.0010093,0.00054013,0,0,0.030039,-0.012544,0,0.014043,0,0,0,0.0034068,-4.2352e-05,0.0010093,9.126,0.0014579,0.0030619,9.0942e-10,0.22,0.94,0
0.0059171,0.0045124,0.0034682,3.5054e-05,0.001051,0.00056398,0,0,0.031424,-0.013207,0,0.014663,0,0,0,0.0035584,-5.5221e-05,0.001051,9.094,0.0015181,0.003207,1.0396e-09,0.24,0.94,0
0.0065597,0.0053809,0.003624,2.6309e-05,0.0010951,0.00058254,0,0,0.032876,-0.013894,0,0.015146,0,0,0,0.003716,-6.5665e-05,0.0010951,8.972,0.0015818,0.0033554,1.1865e-09,0.26,0.94,0
0.0072321,0.0062941,0.0037861,1.7823e-05,0.0011412,0.00059611,0,0,0.034384,-0.014604,0,0.015499,0,0,0,0.0038781,-7.4229e-05,0.0011412,8.7783,0.0016484,0.0035064,1.3507e-09,0.28,0.94,0
0.0079351,0.007246,0.0039528,9.3841e-06,0.0011887,0.00060483,0,0,0.035934,-0.015331,0,0.015725,0,0,0,0.0040435,-8.1297e-05,0.0011887,8.5267,0.001717,0.003659,1.5325e-09,0.3,0.94,0
0.0086695,0.0082308,0.0041228,8.8765e-07,0.0012371,0.00060873,0,0,0.037514,-0.016071,0,0.015827,0,0,0,0.0042109,-8.7129e-05,0.0012371,8.2275,0.001787,0.0038125,1.7318e-09,0.32,0.94,0
0.0094357,0.0092432,0.0042948,-7.6745e-06,0.0012861,0.00060782,0,0,0.039113,-0.01682,0,0.015803,0,0,0,0.004379,-9.1894e-05,0.0012861,7.8887,0.0018578,0.0039657,1.9482e-09,0.34,0.94,0
0.010234,0.010278,0.0044673,-1.623e-05,0.0013353,0.00060212,0,0,0.040715,-0.01757,0,0.015655,0,0,0,0.0045467,-9.5685e-05,0.0013353,7.5173,0.0019288,0.0041178,2.1809e-09,0.36,0.94,0
0.011064,0.011329,0.004639,-2.4632e-05,0.0013843,0.00059171,0,0,0.042311,-0.018316,0,0.015385,0,0,0,0.0047129,-9.8536e-05,0.0013843,7.1193,0.0019996,0.0042678,2.4285e-09,0.38,0.94,0
0.011926,0.012392,0.0048087,-3.2676e-05,0.0014328,0.00057675,0,0,0.043887,-0.019051,0,0.014996,0,0,0,0.0048765,-0.00010044,0.0014328,6.7007,0.0020696,0.0044147,2.6894e-09,0.4,0.94,0
0.01282,0.013462,0.0049752,-4.0104e-05,0.0014805,0.00055754,0,0,0.045431,-0.019768,0,0.014496,0,0,0,0.0050365,-0.00010134,0.0014805,6.2675,0.0021386,0.0045576,2.9615e-09,0.42,0.94,0
0.013744,0.014536,0.0051375,-4.6627e-05,0.0015273,0.00053451,0,0,0.046933,-0.020461,0,0.013897,0,0,0,0.0051921,-0.00010116,0.0015273,5.8258,0.0022061,0.0046958,3.2425e-09,0.44,0.94,0
0.014697,0.015609,0.0052947,-5.1934e-05,0.0015728,0.00050826,0,0,0.048384,-0.021122,0,0.013215,0,0,0,0.0053426,-9.9822e-05,0.0015728,5.3824,0.0022719,0.0048285,3.5299e-09,0.46,0.94,0
0.015679,0.016678,0.005446,-5.572e-05,0.0016171,0.00047956,0,0,0.049776,-0.021746,0,0.012469,0,0,0,0.0054875,-9.7209e-05,0.0016171,4.9445,0.0023358,0.0049552,3.8212e-09,0.48,0.94,0
0.016688,0.017741,0.005591,-5.7699e-05,0.00166,0.00044934,0,0,0.051103,-0.02233,0,0.011683,0,0,0,0.0056265,-9.3219e-05,0.00166,4.5198,0.0023978,0.0050755,4.1142e-09,0.5,0.94,0
0.017723,0.018797,0.0057294,-5.7626e-05,0.0017015,0.00041866,0,0,0.052363,-0.022869,0,0.010885,0,0,0,0.0057596,-8.7756e-05,0.0017015,4.1164,0.0024578,0.0051894,4.4071e-09,0.52,0.94,0
0.018783,0.019844,0.0058614,-5.5312e-05,0.0017418,0.00038871,0,0,0.053555,-0.023363,0,0.010106,0,0,0,0.0058869,-8.0739e-05,0.0017418,3.7427,0.002516,0.0052969,4.6984e-09,0.54,0.94,0
0.019865,0.020883,0.0059874,-5.0634e-05,0.001781,0.00036077,0,0,0.054683,-0.023812,0,0.00938,0,0,0,0.0060089,-7.2114e-05,0.001781,3.4072,0.0025726,0.0053985,4.9879e-09,0.56,0.94,0
0.02097,0.021914,0.0061082,-4.3543e-05,0.0018194,0.00033616,0,0,0.055754,-0.024218,0,0.0087401,0,0,0,0.0061265,-6.1858e-05,0.0018194,3.1185,0.002628,0.0054948,5.276e-09,0.58,0.94,0
0.022096,0.02294,0.0062248,-3.4057e-05,0.0018572,0.00031621,0,0,0.056778,-0.024587,0,0.0082215,0,0,0,0.0062407,-4.9992e-05,0.0018572,2.8849,0.0026826,0.0055868,5.5646e-09,0.6,0.94,0
0.023241,0.023963,0.0063388,-2.2254e-05,0.001895,0.00030223,0,0,0.05777,-0.024924,0,0.0078581,0,0,0,0.0063531,-3.6582e-05,0.001895,2.7141,0.0027372,0.005676,5.8569e-09,0.62,0.94,0
0.024406,0.024987,0.006452,-8.2504e-06,0.0019331,0.00029549,0,0,0.058746,-0.025238,0,0.0076826,0,0,0,0.0064655,-2.1737e-05,0.0019331,2.6134,0.0027923,0.005764,6.1577e-09,0.64,0.94,0
0.025591,0.026015,0.0065667,7.8285e-06,0.0019723,0.00029717,0,0,0.059726,-0.025539,0,0.0077264,0,0,0,0.0065801,-5.6083e-06,0.0019723,2.5889,0.0028489,0.005853,6.4735e-09,0.66,0.94,0
0.026795,0.027054,0.0066851,2.5885e-05,0.0020133,0.00030843,0,0,0.060734,-0.025836,0,0.0080191,0,0,0,0.0066994,1.163e-05,0.0020133,2.6461,0.0029081,0.0059453,6.813e-09,0.68,0.94,0
0.02802,0.028107,0.0068102,4.5897e-05,0.0020568,0.00033037,0,0,0.061794,-0.026142,0,0.0085897,0,0,0,0.0068263,2.98e-05,0.0020568,2.7895,0.002971,0.0060436,7.1873e-09,0.7,0.94,0
0.029267,0.029182,0.0069451,6.7982e-05,0.0021039,0.00036416,0,0,0.062935,-0.026467,0,0.0094682,0,0,0,0.0069643,4.8753e-05,0.0021039,3.0227,0.003039,0.0061511,7.61e-09,0.72,0.94,0
0.030538,0.030284,0.0070929,9.2476e-05,0.0021556,0.00041107,0,0,0.064185,-0.026821,0,0.010688,0,0,0,0.007117,6.842e-05,0.0021556,3.3491,0.0031137,0.0062711,8.0982e-09,0.74,0.94,0
0.031835,0.03142,0.0072575,0.00012004,0.0022132,0.00047266,0,0,0.065575,-0.027212,0,0.012289,0,0,0,0.0072886,8.8872e-05,0.0022132,3.7723,0.0031969,0.0064074,8.6736e-09,0.76,0.94,0
0.033161,0.032597,0.0074426,0.00015181,0.0022783,0.00055095,0,0,0.067136,-0.027645,0,0.014325,0,0,0,0.007484,0.00011041,0.0022783,4.2972,0.0032909,0.0065639,9.3631e-09,0.78,0.94,0
0.03452,0.033823,0.0076525,0.00018968,0.0023527,0.00064877,0,0,0.068898,-0.028119,0,0.016868,0,0,0,0.0077085,0.0001337,0.0023527,4.9316,0.0033983,0.0067449,1.0202e-08,0.8,0.94,0
0.035917,0.035105,0.0078915,0.00023667,0.0024385,0.00077013,0,0,0.07089,-0.028623,0,0.020023,0,0,0,0.0079682,0.00015996,0.0024385,5.6884,0.0035222,0.0069548,1.1233e-08,0.82,0.94,0
0.037355,0.036452,0.0081637,0.00029762,0.0025384,0.0009209,0,0,0.073129,-0.02913,0,0.023943,0,0,0,0.00827,0.00019125,0.0025384,6.5891,0.0036666,0.0071982,1.2515e-08,0.84,0.94,0
0.038842,0.037874,0.0084715,0.00038043,0.0026556,0.0011096,0,0,0.075607,-0.029577,0,0.028849,0,0,0,0.0086209,0.00023103,0.0026556,7.6687,0.0038358,0.0074784,1.4116e-08,0.86,0.94,0
0.04038,0.039381,0.0088133,0.00049823,0.0027934,0.0013482,0,0,0.078258,-0.029838,0,0.035054,0,0,0,0.0090264,0.00028509,0.0027934,8.9837,0.004035,0.0077959,1.6112e-08,0.88,0.94,0
0.041972,0.040984,0.0091754,0.00067306,0.0029545,0.0016524,0,0,0.080871,-0.029659,0,0.042964,0,0,0,0.0094853,0.0003632,0.0029545,10.621,0.0042677,0.0081418,1.8548e-08,0.9,0.94,0
0.043615,0.042693,0.0095194,0.00094464,0.0031392,0.0020382,0,0,0.082942,-0.028529,0,0.052994,0,0,0,0.0099792,0.00048481,0.0031392,12.713,0.0045344,0.0084845,2.133e-08,0.92,0.94,0
0.04529,0.044513,0.0097447,0.0013742,0.0033357,0.0024943,0,0,0.083317,-0.025499,0,0.064852,0,0,0,0.010432,0.0006873,0.0033357,15.397,0.0048182,0.0087269,2.3836e-08,0.94,0.94,0
0.046947,0.046414,0.009818,0.0021443,0.0035887,0.0029342,0,0,0.080981,-0.018777,0,0.076288,0,0,0,0.010811,0.001151,0.0035887,18.703,0.0051837,0.0087015,2.5098e-08,0.96,0.94,0
0.048529,0.048298,0.0097719,0.0032328,0.0039014,0.0031273,0,0,0.076317,-0.0086925,0,0.08131,0,0,0,0.011027,0.001978,0.0039014,21.863,0.0056354,0.0082569,2.3707e-08,0.98,0.94,0
0.05,0.05,0.0099013,0.0042434,0.0042434,0.0032737,0,0,0.073552,1.3054e-16,0,0.085117,0,0,0,0.011399,0.0027457,0.0042434,24.584,0.0061294,0.0080102,2.3317e-08,1,0.94,0
0,0,0.0022196,0.00095127,0.00095127,-0.00044993,0,0,0.016489,-2.1684e-19,0,-0.011698,0,0,0,0.002363,0.00080788,0.00095127,-17.677,0.0013741,0.0014886,1.6414e-10,0,0.96,0
0.00032977,-0.00023396,0.0021589,0.00058049,0.00082182,-0.00040198,0,0,0.017382,-0.0031374,0,-0.010452,0,0,0,0.0022554,0.00048401,0.00082182,-13.496,0.0011871,0.001629,1.9022e-10,0.02,0.96,0
0.00069529,-0.00035955,0.0022154,0.00031488,0.0007591,-0.00021736,0,0,0.018933,-0.0057748,0,-0.0056513,0,0,0,0.00224,0.00029034,0.0007591,-6.4418,0.0010965,0.0017626,2.1564e-10,0.04,0.96,0
0.0010871,-0.00035319,0.0022673,0.00020517,0.00074173,-5.2743e-05,0,0,0.019832,-0.0069753,0,-0.0013713,0,0,0,0.0022686,0.00020382,0.00074173,-1.4642,0.0010714,0.0018553,2.3741e-10,0.06,0.96,0
0.0014886,-0.00021439,0.0022909,0.00013739,0.00072848,7.1889e-05,0,0,0.020311,-0.0076842,0,0.0018691,0,0,0,0.0022933,0.00013499,0.00072848,1.9098,0.0010523,0.0019312,2.5554e-10,0.08,0.96,0
0.0018995,4.2117e-05,0.0023348,9.6883e-05,0.00072949,0.00016011,0,0,0.020868,-0.0082239,0,0.0041627,0,0,0,0.0023461,8.5486e-05,0.00072949,4.0715,0.0010537,0.0020173,2.8131e-10,0.1,0.96,0
0.0023233,0.00040365,0.0024055,7.1397e-05,0.00074308,0.0002245,0,0,0.021612,-0.0087319,0,0.0058371,0,0,0,0.002427,5e-05,0.00074308,5.4443,0.0010733,0.0021173,3.172e-10,0.12,0.96,0
0.002764,0.00085921,0.0025015,5.4666e-05,0.00076686,0.00027299,0,0,0.022551,-0.0092585,0,0.0070977,0,0,0,0.0025316,2.458e-05,0.00076686,6.2892,0.0011077,0.0022305,3.6447e-10,0.14,0.96,0
0.0032253,0.0013995,0.0026188,4.3096e-05,0.00079856,0.00031065,0,0,0.023663,-0.0098211,0,0.0080769,0,0,0,0.0026557,6.1585e-06,0.00079856,6.7808,0.0011535,0.0023555,4.2414e-10,0.16,0.96,0
0.0037105,0.0020162,0.0027536,3.4624e-05,0.00083645,0.00034058,0,0,0.024922,-0.010424,0,0.0088552,0,0,0,0.0027956,-7.39e-06,0.00083645,7.0324,0.0012082,0.0024907,4.9738e-10,0.18,0.96,0
0.0042222,0.0027022,0.0029027,2.802e-05,0.00087921,0.00036469,0,0,0.026305,-0.011066,0,0.009482,0,0,0,0.0029482,-1.7525e-05,0.00087921,7.1186,0.00127,0.0026344,5.8543e-10,0.2,0.96,0
0.0047627,0.0034506,0.0030635,2.2525e-05,0.00092581,0.00038413,0,0,0.02779,-0.011743,0,0.0099874,0,0,0,0.0031113,-2.5247e-05,0.00092581,7.0891,0.0013373,0.0027856,6.8961e-10,0.22,0.96,0
0.0053338,0.0042551,0.0032338,1.7657e-05,0.00097545,0.00039958,0,0,0.029359,-0.012451,0,0.010389,0,0,0,0.0032828,-3.1244e-05,0.00097545,6.9772,0.001409,0.0029428,8.112e-10,0.24,0.96,0
0.0059371,0.0051096,0.0034117,1.3107e-05,0.0010275,0.00041143,0,0,0.030995,-0.013186,0,0.010697,0,0,0,0.0034608,-3.5991e-05,0.0010275,6.8052,0.0014841,0.0031048,9.5137e-10,0.26,0.96,0
0.0065737,0.0060083,0.0035954,8.6778e-06,0.0010812,0.00041987,0,0,0.032684,-0.013943,0,0.010917,0,0,0,0.0036439,-3.9819e-05,0.0010812,6.5886,0.0015617,0.0032706,1.1111e-09,0.28,0.96,0
0.0072444,0.0069453,0.0037831,4.2532e-06,0.0011362,0.00042497,0,0,0.03441,-0.014715,0,0.011049,0,0,0,0.0038303,-4.2949e-05,0.0011362,6.338,0.0016412,0.0034388,1.2909e-09,0.3,0.96,0
0.0079501,0.007915,0.0039734,-2.2077e-07,0.0011919,0.00042673,0,0,0.036159,-0.015498,0,0.011095,0,0,0,0.0040187,-4.5531e-05,0.0011919,6.061,0.0017217,0.0036083,1.491e-09,0.32,0.96,0
0.0086908,0.0089121,0.0041646,-4.7473e-06,0.001248,0.00042513,0,0,0.037916,-0.016285,0,0.011053,0,0,0,0.0042075,-4.7654e-05,0.001248,5.7631,0.0018026,0.0037778,1.7112e-09,0.34,0.96,0
0.0094667,0.0099313,0.0043553,-9.2852e-06,0.0013038,0.00042016,0,0,0.03967,-0.01707,0,0.010924,0,0,0,0.0043954,-4.9364e-05,0.0013038,5.4489,0.0018833,0.0039462,1.9507e-09,0.36,0.96,0
0.010278,0.010967,0.004544,-1.3755e-05,0.0013591,0.00041185,0,0,0.041404,-0.017847,0,0.010708,0,0,0,0.0045809,-5.0672e-05,0.0013591,5.1221,0.0019631,0.0041121,2.2079e-09,0.38,0.96,0
0.011123,0.012016,0.0047293,-1.8044e-05,0.0014134,0.00040032,0,0,0.043107,-0.018608,0,0.010408,0,0,0,0.0047628,-5.1564e-05,0.0014134,4.7864,0.0020415,0.0042745,2.4808e-09,0.4,0.96,0
0.012002,0.013071,0.0049098,-2.2014e-05,0.0014663,0.00038574,0,0,0.044765,-0.019349,0,0.010029,0,0,0,0.0049398,-5.2002e-05,0.0014663,4.4453,0.002118,0.0044322,2.7669e-09,0.42,0.96,0
0.012913,0.014131,0.0050843,-2.5507e-05,0.0015176,0.00036842,0,0,0.046367,-0.020061,0,0.009579,0,0,0,0.0051108,-5.1934e-05,0.0015176,4.1028,0.0021922,0.0045841,3.0632e-09,0.44,0.96,0
0.013857,0.01519,0.005252,-2.8359e-05,0.0015671,0.00034879,0,0,0.047903,-0.020741,0,0.0090685,0,0,0,0.0052749,-5.1298e-05,0.0015671,3.7629,0.0022636,0.0047294,3.3663e-09,0.46,0.96,0
0.01483,0.016247,0.0054117,-3.0403e-05,0.0016144,0.00032737,0,0,0.049365,-0.021382,0,0.0085118,0,0,0,0.0054314,-5.0025e-05,0.0016144,3.4302,0.0023319,0.0048675,3.6729e-09,0.48,0.96,0
0.015831,0.017299,0.0055632,-3.1487e-05,0.0016595,0.00030484,0,0,0.050748,-0.021983,0,0.0079257,0,0,0,0.0055798,-4.8047e-05,0.0016595,3.1096,0.0023971,0.0049978,3.9798e-09,0.5,0.96,0
0.016859,0.018343,0.0057061,-3.1479e-05,0.0017024,0.00028193,0,0,0.052048,-0.02254,0,0.0073302,0,0,0,0.0057199,-4.5299e-05,0.0017024,2.8064,0.002459,0.0051202,4.2842e-09,0.52,0.96,0
0.017913,0.01938,0.0058405,-3.0279e-05,0.0017431,0.0002595,0,0,0.053267,-0.023054,0,0.006747,0,0,0,0.005852,-4.1727e-05,0.0017431,2.526,0.0025178,0.0052347,4.584e-09,0.54,0.96,0
0.01899,0.02041,0.005967,-2.7822e-05,0.0017817,0.00023845,0,0,0.054408,-0.023524,0,0.0061998,0,0,0,0.0059764,-3.7292e-05,0.0017817,2.2743,0.0025736,0.0053418,4.8781e-09,0.56,0.96,0
0.020089,0.021433,0.0060862,-2.408e-05,0.0018186,0.00021973,0,0,0.055479,-0.023955,0,0.0057129,0,0,0,0.0060941,-3.1971e-05,0.0018186,2.0568,0.0026269,0.0054421,5.1666e-09,0.58,0.96,0
0.021209,0.022451,0.0061997,-1.9064e-05,0.0018542,0.00020427,0,0,0.056491,-0.024352,0,0.0053109,0,0,0,0.0062064,-2.5766e-05,0.0018542,1.8793,0.0026783,0.0055369,5.451e-09,0.6,0.96,0
0.022349,0.023467,0.0063089,-1.2817e-05,0.0018888,0.000193,0,0,0.057461,-0.024721,0,0.0050179,0,0,0,0.0063148,-1.8704e-05,0.0018888,1.747,0.0027283,0.0056276,5.7345e-09,0.62,0.96,0
0.023508,0.024484,0.006416,-5.4012e-06,0.0019232,0.00018681,0,0,0.058407,-0.025072,0,0.0048572,0,0,0,0.0064215,-1.0831e-05,0.0019232,1.665,0.0027779,0.0057162,6.0219e-09,0.64,0.96,0
0.024685,0.025506,0.0065235,3.1163e-06,0.001958,0.00018656,0,0,0.059352,-0.025413,0,0.0048507,0,0,0,0.0065288,-2.2174e-06,0.001958,1.6376,0.0028282,0.0058047,6.32e-09,0.66,0.96,0
0.025882,0.026537,0.0066342,1.2684e-05,0.0019941,0.00019306,0,0,0.060322,-0.025758,0,0.0050194,0,0,0,0.0066398,7.0597e-06,0.0019941,1.6686,0.0028803,0.005896,6.6377e-09,0.68,0.96,0
0.027098,0.027584,0.0067513,2.3292e-05,0.0020324,0.00020708,0,0,0.061346,-0.026118,0,0.0053841,0,0,0,0.0067576,1.6924e-05,0.0020324,1.7613,0.0029357,0.0059928,6.9866e-09,0.7,0.96,0
0.028336,0.028651,0.0068784,3.5009e-05,0.002074,0.00022946,0,0,0.062457,-0.026507,0,0.0059659,0,0,0,0.0068861,2.7324e-05,0.002074,1.9183,0.0029958,0.0060987,7.3809e-09,0.72,0.96,0
0.029597,0.029745,0.0070196,4.8025e-05,0.0021203,0.00026112,0,0,0.063691,-0.026939,0,0.0067891,0,0,0,0.0070293,3.8258e-05,0.0021203,2.142,0.0030626,0.0062173,7.8386e-09,0.74,0.96,0
0.030883,0.030872,0.0071794,6.2719e-05,0.0021726,0.00030321,0,0,0.065088,-0.027429,0,0.0078835,0,0,0,0.0071922,4.9824e-05,0.0021726,2.4353,0.0031382,0.0063528,8.3826e-09,0.76,0.96,0
0.0322,0.032038,0.0073629,7.9756e-05,0.0022328,0.00035729,0,0,0.066692,-0.02799,0,0.0092894,0,0,0,0.0073804,6.2271e-05,0.0022328,2.8018,0.0032252,0.0065101,9.0429e-09,0.78,0.96,0
0.033551,0.033252,0.0075763,0.00010025,0.002303,0.00042558,0,0,0.068553,-0.028635,0,0.011065,0,0,0,0.0076004,7.6099e-05,0.002303,3.2476,0.0033265,0.0066947,9.8589e-09,0.8,0.96,0
0.034942,0.034522,0.0078267,0.00012602,0.0023858,0.00051143,0,0,0.070731,-0.029377,0,0.013297,0,0,0,0.0078605,9.2207e-05,0.0023858,3.7831,0.0034462,0.006913,1.0885e-08,0.82,0.96,0
0.03638,0.035855,0.0081228,0.00016014,0.0024849,0.00062006,0,0,0.073293,-0.030222,0,0.016122,0,0,0,0.0081708,0.00011215,0.0024849,4.4261,0.0035893,0.0071729,1.2199e-08,0.84,0.96,0
0.037874,0.037262,0.0084753,0.00020782,0.0026049,0.00075974,0,0,0.076315,-0.031162,0,0.019753,0,0,0,0.0085445,0.00013858,0.0026049,5.2071,0.0037627,0.007484,1.3911e-08,0.86,0.96,0
0.039433,0.038755,0.0088963,0.00027823,0.0027524,0.00094397,0,0,0.079871,-0.032164,0,0.024543,0,0,0,0.0089985,0.00017604,0.0027524,6.1783,0.0039756,0.0078577,1.6187e-08,0.88,0.96,0
0.041069,0.04035,0.0093968,0.0003882,0.0029355,0.0011956,0,0,0.083997,-0.033115,0,0.031085,0,0,0,0.0095528,0.00023223,0.0029355,7.4326,0.0042402,0.0083057,1.9262e-08,0.9,0.96,0
0.042793,0.042066,0.0099713,0.0005681,0.0031618,0.0015501,0,0,0.088523,-0.033718,0,0.040302,0,0,0,0.01022,0.00031917,0.0031618,9.1235,0.0045671,0.0088298,2.3398e-08,0.92,0.96,0
0.04461,0.043927,0.010559,0.00088309,0.0034326,0.0020683,0,0,0.092643,-0.033144,0,0.053776,0,0,0,0.010983,0.00045952,0.0034326,11.574,0.0049582,0.0093962,2.8668e-08,0.94,0.96,0
0.046498,0.045963,0.010793,0.0013935,0.003656,0.0027338,0,0,0.092784,-0.029413,0,0.071078,0,0,0,0.011531,0.00065626,0.003656,15.092,0.005281,0.0097277,3.2563e-08,0.96,0.96,0
0.048321,0.048083,0.010868,0.0029118,0.0041338,0.0033312,0,0,0.087539,-0.015886,0,0.086611,0,0,0,0.012078,0.0017012,0.0041338,19.972,0.0059711,0.0093998,3.3219e-08,0.98,0.96,0
0.05,0.05,0.011301,0.0048434,0.0048434,0.0036866,0,0,0.083952,2.6021e-18,0,0.095852,0,0,0,0.012973,0.0031716,0.0048434,24.393,0.006996,0.0090817,3.4117e-08,1,0.96,0
0,0,0.0020594,0.00088262,0.00088262,-0.00058436,0,0,0.015299,4.3368e-19,0,-0.015193,0,0,0,0.0023003,0.00064176,0.00088262,-22.401,0.0012749,0.0015522,1.7658e-10,0,0.98,0
0.00030597,-0.00030387,0.0019187,0.00025676,0.00065265,-0.00037659,0,0,0.016459,-0.0051465,0,-0.0097914,0,0,0,0.0020001,0.00017541,0.00065265,-12.19,0.00094272,0.001639,1.6317e-10,0.02,0.98,0
0.00065836,-0.00048371,0.0019749,0.00018942,0.00064929,-0.00017852,0,0,0.017233,-0.0059783,0,-0.0046414,0,0,0,0.0019926,0.00017174,0.00064929,-5.654,0.00093786,0.0016352,1.6167e-10,0.04,0.98,0
0.00099528,-0.00049146,0.0018818,0.00010837,0.00059706,-3.7077e-05,0,0,0.016702,-0.006353,0,-0.00096401,0,0,0,0.0018826,0.00010759,0.00059706,-1.1972,0.00086242,0.0015879,1.4168e-10,0.06,0.98,0
0.0013264,-0.00036197,0.0018634,6.7297e-05,0.00057921,4.1147e-05,0,0,0.016695,-0.0066549,0,0.0010698,0,0,0,0.0018643,6.6355e-05,0.00057921,1.3117,0.00083663,0.0016043,1.413e-10,0.08,0.98,0
0.0016631,-0.00011355,0.0019073,4.4757e-05,0.00058563,9.1048e-05,0,0,0.017182,-0.0070313,0,0.0023672,0,0,0,0.0019118,4.0317e-05,0.00058563,2.7919,0.00084591,0.0016671,1.5496e-10,0.1,0.98,0
0.0020137,0.000239,0.0019961,3.1822e-05,0.00060839,0.00012484,0,0,0.018041,-0.0074953,0,0.0032458,0,0,0,0.002004,2.392e-05,0.00060839,3.622,0.00087878,0.0017621,1.8034e-10,0.12,0.98,0
0.0023847,0.00068439,0.0021168,2.3833e-05,0.0006422,0.00014934,0,0,0.01917,-0.0080388,0,0.0038828,0,0,0,0.0021274,1.3231e-05,0.0006422,4.0607,0.00092763,0.0018804,2.1712e-10,0.14,0.98,0
0.0027806,0.0012133,0.0022611,1.8543e-05,0.00068391,0.00016795,0,0,0.020504,-0.0086497,0,0.0043668,0,0,0,0.0022736,6.0349e-06,0.00068391,4.2593,0.00098786,0.0020161,2.6606e-10,0.16,0.98,0
0.0032048,0.0018177,0.0024235,1.4782e-05,0.00073148,0.00018257,0,0,0.021996,-0.0093171,0,0.0047468,0,0,0,0.0024372,1.0222e-06,0.00073148,4.31,0.0010566,0.0021655,3.2851e-10,0.18,0.98,0
0.0036604,0.0024903,0.0026,1.1901e-05,0.00078356,0.00019426,0,0,0.023613,-0.010032,0,0.0050508,0,0,0,0.0026145,-2.5991e-06,0.00078356,4.2688,0.0011318,0.0023259,4.0613e-10,0.2,0.98,0
0.0041494,0.0032246,0.0027877,9.524e-06,0.00083917,0.00020364,0,0,0.025331,-0.010785,0,0.0052947,0,0,0,0.0028026,-5.3241e-06,0.00083917,4.1701,0.0012121,0.0024952,5.0071e-10,0.22,0.98,0
0.0046736,0.0040143,0.0029843,7.4195e-06,0.00089753,0.00021106,0,0,0.027128,-0.011571,0,0.0054875,0,0,0,0.0029992,-7.4697e-06,0.00089753,4.0353,0.0012964,0.0026717,6.1409e-10,0.24,0.98,0
0.0052345,0.0048535,0.0031879,5.444e-06,0.00095799,0.00021668,0,0,0.028988,-0.012383,0,0.0056338,0,0,0,0.0032026,-9.2418e-06,0.00095799,3.8773,0.0013838,0.0028539,7.4795e-10,0.26,0.98,0
0.0058332,0.0057364,0.0033965,3.508e-06,0.00102,0.0002206,0,0,0.030894,-0.013214,0,0.0057355,0,0,0,0.0034108,-1.0774e-05,0.00102,3.7044,0.0014733,0.0030402,9.0378e-10,0.28,0.98,0
0.0064703,0.0066573,0.0036084,1.5599e-06,0.001083,0.00022281,0,0,0.032831,-0.014059,0,0.0057931,0,0,0,0.0036221,-1.2152e-05,0.001083,3.5216,0.0015643,0.0032291,1.0827e-09,0.3,0.98,0
0.0071464,0.0076109,0.003822,-4.2323e-07,0.0011465,0.00022331,0,0,0.034782,-0.01491,0,0.005806,0,0,0,0.003835,-1.3425e-05,0.0011465,3.3321,0.001656,0.0034194,1.2852e-09,0.32,0.98,0
0.0078616,0.0085918,0.0040356,-2.4414e-06,0.0012099,0.00022206,0,0,0.036733,-0.015761,0,0.0057734,0,0,0,0.0040477,-1.4616e-05,0.0012099,3.1381,0.0017477,0.0036094,1.5113e-09,0.34,0.98,0
0.0086157,0.0095948,0.0042474,-4.4747e-06,0.0012729,0.00021903,0,0,0.038669,-0.016605,0,0.0056949,0,0,0,0.0042586,-1.5728e-05,0.0012729,2.9412,0.0018386,0.0037977,1.7602e-09,0.36,0.98,0
0.0094083,0.010615,0.0044558,-6.4856e-06,0.0013348,0.00021425,0,0,0.040573,-0.017437,0,0.0055704,0,0,0,0.0044661,-1.6749e-05,0.0013348,2.7425,0.001928,0.0039829,2.0303e-09,0.38,0.98,0
0.010239,0.011647,0.0046592,-8.4222e-06,0.0013952,0.00020774,0,0,0.042431,-0.018247,0,0.0054012,0,0,0,0.0046684,-1.765e-05,0.0013952,2.5433,0.0020153,0.0041635,2.319e-09,0.4,0.98,0
0.011106,0.012688,0.004856,-1.022e-05,0.0014537,0.0001996,0,0,0.044229,-0.019031,0,0.0051896,0,0,0,0.0048641,-1.8394e-05,0.0014537,2.3449,0.0020998,0.004338,2.6231e-09,0.42,0.98,0
0.012008,0.013733,0.0050447,-1.1809e-05,0.0015099,0.00018998,0,0,0.045953,-0.019782,0,0.0049396,0,0,0,0.0050519,-1.8937e-05,0.0015099,2.1487,0.0021809,0.0045053,2.9386e-09,0.44,0.98,0
0.012944,0.014779,0.0052243,-1.311e-05,0.0015634,0.00017911,0,0,0.047592,-0.020494,0,0.0046569,0,0,0,0.0052304,-1.9229e-05,0.0015634,1.9564,0.0022582,0.0046642,3.261e-09,0.46,0.98,0
0.013912,0.015822,0.0053936,-1.4051e-05,0.0016139,0.00016726,0,0,0.049136,-0.021163,0,0.0043488,0,0,0,0.0053987,-1.9219e-05,0.0016139,1.7699,0.0023311,0.0048139,3.5857e-09,0.48,0.98,0
0.014909,0.016862,0.0055519,-1.4559e-05,0.0016612,0.00015478,0,0,0.050579,-0.021785,0,0.0040244,0,0,0,0.0055563,-1.886e-05,0.0016612,1.5915,0.0023995,0.0049536,3.9081e-09,0.5,0.98,0
0.015935,0.017895,0.005699,-1.4577e-05,0.0017053,0.00014208,0,0,0.051918,-0.022359,0,0.003694,0,0,0,0.0057026,-1.8108e-05,0.0017053,1.4236,0.0024633,0.005083,4.224e-09,0.52,0.98,0
0.016986,0.018922,0.0058349,-1.4058e-05,0.0017462,0.00012959,0,0,0.053152,-0.022884,0,0.0033694,0,0,0,0.0058377,-1.6928e-05,0.0017462,1.2686,0.0025224,0.0052022,4.5303e-09,0.54,0.98,0
0.018061,0.019942,0.00596,-1.2972e-05,0.0017841,0.00011781,0,0,0.054286,-0.023362,0,0.003063,0,0,0,0.0059623,-1.5295e-05,0.0017841,1.1295,0.002577,0.0053116,4.8248e-09,0.56,0.98,0
0.019157,0.020956,0.0060753,-1.1308e-05,0.0018192,0.00010723,0,0,0.055329,-0.023796,0,0.0027879,0,0,0,0.0060771,-1.3197e-05,0.0018192,1.009,0.0026277,0.005412,5.1069e-09,0.58,0.98,0
0.020274,0.021966,0.0061821,-9.0721e-06,0.0018519,9.8349e-05,0,0,0.056293,-0.024193,0,0.0025571,0,0,0,0.0061837,-1.0634e-05,0.0018519,0.90985,0.002675,0.0055047,5.3777e-09,0.6,0.98,0
0.021409,0.022974,0.0062825,-6.2833e-06,0.0018829,9.1666e-05,0,0,0.057195,-0.024559,0,0.0023833,0,0,0,0.0062838,-7.6192e-06,0.0018829,0.83491,0.0027197,0.0055913,5.6401e-09,0.62,0.98,0
0.022562,0.023984,0.0063786,-2.9717e-06,0.0019127,8.7648e-05,0,0,0.058057,-0.024904,0,0.0022788,0,0,0,0.0063799,-4.1752e-06,0.0019127,0.78673,0.0027628,0.0056739,5.8991e-09,0.64,0.98,0
0.023731,0.024999,0.0064734,8.3083e-07,0.0019423,8.6737e-05,0,0,0.058904,-0.025239,0,0.0022552,0,0,0,0.0064745,-3.313e-07,0.0019423,0.76762,0.0028055,0.0057549,6.1616e-09,0.66,0.98,0
0.024918,0.026023,0.0065698,5.0991e-06,0.0019725,8.9352e-05,0,0,0.059766,-0.025576,0,0.0023232,0,0,0,0.0065711,3.8832e-06,0.0019725,0.77966,0.0028491,0.0058374,6.4369e-09,0.68,0.98,0
0.026122,0.027062,0.0066717,9.8274e-06,0.0020045,9.5899e-05,0,0,0.060674,-0.02593,0,0.0024934,0,0,0,0.006673,8.4471e-06,0.0020045,0.82456,0.0028953,0.0059244,6.7364e-09,0.7,0.98,0
0.027345,0.028122,0.0067829,1.5045e-05,0.0020394,0.00010679,0,0,0.061666,-0.026316,0,0.0027767,0,0,0,0.0067846,1.336e-05,0.0020394,0.90382,0.0029458,0.0060196,7.0745e-09,0.72,0.98,0
0.028589,0.029206,0.006908,2.0839e-05,0.0020787,0.00012251,0,0,0.062782,-0.026752,0,0.0031852,0,0,0,0.0069102,1.866e-05,0.0020787,1.0187,0.0030025,0.006127,7.469e-09,0.74,0.98,0
0.029856,0.030323,0.0070522,2.7384e-05,0.0021239,0.00014363,0,0,0.064069,-0.027255,0,0.0037343,0,0,0,0.0070552,2.4449e-05,0.0021239,1.1708,0.0030678,0.0062512,7.9423e-09,0.76,0.98,0
0.031151,0.031477,0.0072213,3.4993e-05,0.0021769,0.00017094,0,0,0.065578,-0.027845,0,0.0044446,0,0,0,0.0072254,3.0929e-05,0.0021769,1.3619,0.0031444,0.0063974,8.5237e-09,0.78,0.98,0
0.032479,0.032677,0.0074224,4.42e-05,0.00224,0.00020564,0,0,0.067371,-0.028545,0,0.0053467,0,0,0,0.0074281,3.8473e-05,0.00224,1.5953,0.0032355,0.0065715,9.2524e-09,0.8,0.98,0
0.033846,0.03393,0.0076641,5.5914e-05,0.002316,0.00024954,0,0,0.069525,-0.029381,0,0.0064879,0,0,0,0.0076723,4.7739e-05,0.002316,1.8765,0.0033453,0.0067812,1.0183e-08,0.82,0.98,0
0.03526,0.035244,0.0079579,7.1709e-05,0.0024089,0.00030555,0,0,0.072137,-0.030383,0,0.0079442,0,0,0,0.0079697,5.9889e-05,0.0024089,2.2155,0.0034795,0.0070358,1.1398e-08,0.84,0.98,0
0.036732,0.036628,0.0083196,9.4429e-05,0.0025242,0.00037855,0,0,0.07534,-0.031587,0,0.0098424,0,0,0,0.008337,7.7044e-05,0.0025242,2.6296,0.0036461,0.0073486,1.3023e-08,0.86,0.98,0
0.038274,0.038094,0.0087727,0.00012952,0.0026707,0.00047723,0,0,0.079326,-0.033035,0,0.012408,0,0,0,0.0087989,0.00010325,0.0026707,3.1508,0.0038576,0.0077383,1.5268e-08,0.88,0.98,0
0.039905,0.039659,0.0093538,0.00018803,0.0028626,0.00061746,0,0,0.084386,-0.034769,0,0.016054,0,0,0,0.0093952,0.00014662,0.0028626,3.8367,0.0041348,0.0082337,1.8506e-08,0.9,0.98,0
0.041649,0.041344,0.010123,0.00029469,0.0031253,0.00083345,0,0,0.090969,-0.036797,0,0.02167,0,0,0,0.010193,0.00022452,0.0031253,4.813,0.0045143,0.0088808,2.3461e-08,0.92,0.98,0
0.043543,0.043187,0.011162,0.00049879,0.0034982,0.0011865,0,0,0.099627,-0.038992,0,0.030848,0,0,0,0.011292,0.00036837,0.0034982,6.273,0.0050529,0.0097435,3.1508e-08,0.94,0.98,0
0.045634,0.045238,0.012527,0.00094196,0.0040407,0.0018923,0,0,0.11032,-0.040283,0,0.049199,0,0,0,0.012828,0.00064071,0.0040407,9.0455,0.0058366,0.010893,4.5235e-08,0.96,0.98,0
0.047956,0.047662,0.012498,0.0011771,0.0041025,0.0028182,0,0,0.10914,-0.038031,0,0.073274,0,0,0,0.013161,0.0005143,0.0041025,13.234,0.0059258,0.011288,4.9497e-08,0.98,0.98,0
0.05,0.05,0.013755,0.0058952,0.0058952,0.0044958,0,0,0.10218,-1.9082e-17,0,0.11689,0,0,0,0.015797,0.0038538,0.0058952,24.42,0.0085152,0.011064,6.166e-08,1,0.98,0
0,0,0.0028393,0.0012168,0.0012168,-0.00084582,0,0,0.021091,-1.7347e-18,0,-0.021991,0,0,0,0.0032,0.00085608,0.0012168,-23.098,0.0017576,0.002186,4.876e-10,0,1,0
0.00042183,-0.00043982,0.0019542,9.0506e-05,0.00061342,-0.00035286,0,0,0.017431,-0.0067979,0,-0.0091744,0,0,0,0.0020188,2.5936e-05,0.00061342,-10.37,0.00088606,0.0017737,1.8418e-10,0.02,1,0
0.00069722,-0.00059869,0.0013677,-4.5598e-05,0.00039662,-8.6313e-05,0,0,0.012624,-0.0057488,0,-0.0022441,0,0,0,0.0013729,-5.085e-05,0.00039662,-3.482,0.0005729,0.0012611,6.099e-11,0.04,1,0
0.00092677,-0.00060731,0.0012012,-0.00012177,0.00032383,-1.8183e-05,0,0,0.011406,-0.0057928,0,-0.00047277,0,0,0,0.0012014,-0.00012202,0.00032383,-0.7873,0.00046775,0.0011663,4.3181e-11,0.06,1,0
0.0011535,-0.00048059,0.0012277,-0.00012558,0.00033063,2.1349e-05,0,0,0.011661,-0.0059306,0,0.00055507,0,0,0,0.001228,-0.00012591,0.00033063,0.9036,0.00047757,0.0011931,4.6141e-11,0.08,1,0
0.0013932,-0.00023914,0.0013263,-0.00012164,0.00036139,4.3048e-05,0,0,0.012544,-0.0062794,0,0.0011193,0,0,0,0.0013276,-0.00012292,0.00036139,1.7015,0.00052201,0.001279,5.7857e-11,0.1,1,0
0.0016552,0.00010384,0.0014671,-0.0001139,0.00040596,5.7429e-05,0,0,0.013795,-0.0067582,0,0.0014931,0,0,0,0.0014692,-0.00011598,0.00040596,2.0776,0.00058639,0.0013992,7.757e-11,0.12,1,0
0.001945,0.00053766,0.0016348,-0.00010559,0.00045877,6.761e-05,0,0,0.015289,-0.0073367,0,0.0017579,0,0,0,0.0016374,-0.00010822,0.00045877,2.2213,0.00066267,0.0015424,1.0624e-10,0.14,1,0
0.0022668,0.0010535,0.0018219,-9.7298e-05,0.00051739,7.5289e-05,0,0,0.016959,-0.0079909,0,0.0019575,0,0,0,0.0018249,-0.00010025,0.00051739,2.2431,0.00074734,0.0017025,1.4561e-10,0.16,1,0
0.0026234,0.0016436,0.0020238,-8.9246e-05,0.00058036,8.13e-05,0,0,0.018764,-0.0087049,0,0.0021138,0,0,0,0.0020269,-9.237e-05,0.00058036,2.2001,0.0008383,0.0018757,1.9784e-10,0.18,1,0
0.0030173,0.0023009,0.0022374,-8.1472e-05,0.00064677,8.6106e-05,0,0,0.020678,-0.0094671,0,0.0022387,0,0,0,0.0022406,-8.4664e-05,0.00064677,2.1237,0.00093422,0.0020594,2.6528e-10,0.2,1,0
0.0034505,0.0030192,0.0024604,-7.3963e-05,0.00071592,8.9961e-05,0,0,0.022678,-0.010268,0,0.002339,0,0,0,0.0024636,-7.7152e-05,0.00071592,2.0304,0.0010341,0.0022515,3.5045e-10,0.22,1,0
0.0039244,0.0037923,0.0026909,-6.6697e-05,0.00078725,9.3004e-05,0,0,0.024747,-0.011101,0,0.0024181,0,0,0,0.002694,-6.983e-05,0.00078725,1.9295,0.0011371,0.0024504,4.5587e-10,0.24,1,0
0.0044404,0.0046143,0.0029272,-5.9657e-05,0.00086025,9.5299e-05,0,0,0.02687,-0.011959,0,0.0024778,0,0,0,0.0029302,-6.2695e-05,0.00086025,1.8256,0.0012426,0.0026546,5.8396e-10,0.26,1,0
0.0049992,0.0054797,0.0031676,-5.2838e-05,0.00093443,9.6871e-05,0,0,0.029031,-0.012834,0,0.0025187,0,0,0,0.0031705,-5.575e-05,0.00093443,1.7214,0.0013497,0.0028626,7.3689e-10,0.28,1,0
0.0056016,0.0063829,0.0034104,-4.6249e-05,0.0010093,9.7717e-05,0,0,0.031215,-0.013722,0,0.0025406,0,0,0,0.0034132,-4.9009e-05,0.0010093,1.618,0.0014578,0.0030729,9.1638e-10,0.3,1,0
0.0062479,0.0073187,0.003654,-3.9911e-05,0.0010842,9.782e-05,0,0,0.033407,-0.014614,0,0.0025433,0,0,0,0.0036566,-4.2499e-05,0.0010842,1.5159,0.0015661,0.003284,1.1235e-09,0.32,1,0
0.0069379,0.0082817,0.0038963,-3.3857e-05,0.0011587,9.7161e-05,0,0,0.035589,-0.015504,0,0.0025262,0,0,0,0.0038987,-3.6258e-05,0.0011587,1.4153,0.0016737,0.0034942,1.3586e-09,0.34,1,0
0.0076714,0.0092671,0.0041356,-2.8134e-05,0.0012322,9.5724e-05,0,0,0.037743,-0.016385,0,0.0024888,0,0,0,0.0041378,-3.0333e-05,0.0012322,1.3163,0.0017799,0.003702,1.6208e-09,0.36,1,0
0.0084476,0.01027,0.0043698,-2.2793e-05,0.0013041,9.3508e-05,0,0,0.039854,-0.01725,0,0.0024312,0,0,0,0.0043718,-2.4783e-05,0.0013041,1.2189,0.0018837,0.0039055,1.9083e-09,0.38,1,0
0.0092655,0.011286,0.004597,-1.7894e-05,0.0013737,9.0526e-05,0,0,0.041903,-0.018091,0,0.0023537,0,0,0,0.0045988,-1.9669e-05,0.0013737,1.1233,0.0019843,0.0041032,2.218e-09,0.4,1,0
0.010124,0.01231,0.0048153,-1.35e-05,0.0014405,8.6817e-05,0,0,0.043872,-0.018902,0,0.0022573,0,0,0,0.0048169,-1.5061e-05,0.0014405,1.0297,0.0020808,0.0042933,2.5456e-09,0.42,1,0
0.01102,0.01334,0.0050228,-9.6721e-06,0.0015039,8.2446e-05,0,0,0.045746,-0.019677,0,0.0021436,0,0,0,0.0050242,-1.1022e-05,0.0015039,0.93832,0.0021724,0.0044744,2.8858e-09,0.44,1,0
0.011954,0.014371,0.0052181,-6.4689e-06,0.0015635,7.7507e-05,0,0,0.04751,-0.020409,0,0.0020152,0,0,0,0.0052192,-7.6185e-06,0.0015635,0.84975,0.0022584,0.004645,3.2325e-09,0.46,1,0
0.012921,0.015401,0.0053996,-3.9426e-06,0.0016187,7.2125e-05,0,0,0.049152,-0.021094,0,0.0018752,0,0,0,0.0054006,-4.9051e-06,0.0016187,0.76458,0.0023381,0.004804,3.5792e-09,0.48,1,0
0.01392,0.016427,0.0055665,-2.1355e-06,0.0016693,6.6452e-05,0,0,0.050663,-0.021729,0,0.0017277,0,0,0,0.0055673,-2.9284e-06,0.0016693,0.68359,0.0024112,0.0049507,3.9194e-09,0.5,1,0
0.014947,0.017449,0.0057181,-1.0781e-06,0.0017151,6.0666e-05,0,0,0.052039,-0.022311,0,0.0015773,0,0,0,0.0057188,-1.7216e-06,0.0017151,0.60767,0.0024774,0.0050843,4.2472e-09,0.52,1,0
0.016001,0.018465,0.0058544,-7.8602e-07,0.0017561,5.4967e-05,0,0,0.053279,-0.022839,0,0.0014291,0,0,0,0.005855,-1.302e-06,0.0017561,0.53781,0.0025366,0.0052051,4.5575e-09,0.54,1,0
0.017078,0.019475,0.0059759,-1.2592e-06,0.0017924,4.9568e-05,0,0,0.054385,-0.023317,0,0.0012888,0,0,0,0.0059763,-1.6702e-06,0.0017924,0.47511,0.002589,0.0053132,4.847e-09,0.56,1,0
0.018177,0.020481,0.0060834,-2.4807e-06,0.0018243,4.4691e-05,0,0,0.055369,-0.023748,0,0.001162,0,0,0,0.0060837,-2.8088e-06,0.0018243,0.42072,0.0026351,0.0054096,5.1142e-09,0.58,1,0
0.019293,0.021483,0.0061786,-4.4171e-06,0.0018523,4.0559e-05,0,0,0.056243,-0.024137,0,0.0010545,0,0,0,0.0061789,-4.6832e-06,0.0018523,0.37582,0.0026755,0.0054957,5.3596e-09,0.6,1,0
0.020426,0.022484,0.0062636,-7.0193e-06,0.001877,3.7387e-05,0,0,0.057026,-0.024492,0,0.00097207,0,0,0,0.0062638,-7.2422e-06,0.001877,0.3416,0.0027112,0.0055732,5.586e-09,0.62,1,0
0.021574,0.023488,0.006341,-1.0224e-05,0.0018992,3.5384e-05,0,0,0.057743,-0.024823,0,0.00091998,0,0,0,0.0063412,-1.0421e-05,0.0018992,0.31919,0.0027433,0.0056445,5.7986e-09,0.64,1,0
0.022736,0.024496,0.006414,-1.3954e-05,0.00192,3.4741e-05,0,0,0.058422,-0.025142,0,0.00090326,0,0,0,0.0064142,-1.4142e-05,0.00192,0.30965,0.0027733,0.0057123,6.0047e-09,0.66,1,0
0.023911,0.025514,0.0064861,-1.8127e-05,0.0019404,3.564e-05,0,0,0.059095,-0.025461,0,0.00092663,0,0,0,0.0064863,-1.8322e-05,0.0019404,0.31394,0.0028028,0.0057798,6.2138e-09,0.68,1,0
0.0251,0.026547,0.0065615,-2.265e-05,0.0019617,3.8253e-05,0,0,0.059798,-0.025796,0,0.00099457,0,0,0,0.0065617,-2.2872e-05,0.0019617,0.33286,0.0028335,0.0058505,6.4375e-09,0.7,1,0
0.026303,0.027598,0.0066445,-2.7426e-05,0.0019851,4.2755e-05,0,0,0.060572,-0.026163,0,0.0011116,0,0,0,0.0066447,-2.77e-05,0.0019851,0.36715,0.0028674,0.0059281,6.6897e-09,0.72,1,0
0.027523,0.028675,0.0067399,-3.2357e-05,0.0020123,4.9342e-05,0,0,0.061459,-0.02658,0,0.0012829,0,0,0,0.0067402,-3.2716e-05,0.0020123,0.41743,0.0029066,0.006017,6.9874e-09,0.74,1,0
0.028761,0.029781,0.006853,-3.7339e-05,0.0020447,5.8256e-05,0,0,0.062508,-0.027066,0,0.0015146,0,0,0,0.0068535,-3.7832e-05,0.0020447,0.48437,0.0029534,0.0061217,7.3507e-09,0.76,1,0
0.030023,0.030925,0.0069898,-4.2263e-05,0.0020843,6.9828e-05,0,0,0.063772,-0.027645,0,0.0018155,0,0,0,0.0069904,-4.2957e-05,0.0020843,0.56887,0.0030106,0.0062476,7.8055e-09,0.78,1,0
0.031312,0.032111,0.007157,-4.6995e-05,0.002133,8.4552e-05,0,0,0.065312,-0.02834,0,0.0021983,0,0,0,0.007158,-4.7987e-05,0.002133,0.67235,0.003081,0.0064005,8.3851e-09,0.8,1,0
0.032635,0.033346,0.0073628,-5.1348e-05,0.0021934,0.0001032,0,0,0.067202,-0.029182,0,0.0026831,0,0,0,0.0073642,-5.2785e-05,0.0021934,0.79729,0.0031683,0.0065877,9.1355e-09,0.82,1,0
0.034,0.034639,0.0076176,-5.4996e-05,0.0022688,0.00012701,0,0,0.069535,-0.030209,0,0.0033024,0,0,0,0.0076197,-5.7098e-05,0.0022688,0.94814,0.0032771,0.0068182,1.0123e-08,0.84,1,0
0.035417,0.035998,0.0079357,-5.7332e-05,0.0023635,0.00015817,0,0,0.072439,-0.031471,0,0.0041124,0,0,0,0.0079389,-6.0461e-05,0.0023635,1.1332,0.003414,0.0071046,1.1451e-08,0.86,1,0
0.036898,0.037434,0.0083386,-5.6641e-05,0.0024846,0.00020048,0,0,0.076102,-0.033036,0,0.0052125,0,0,0,0.0083434,-6.1426e-05,0.0024846,1.3672,0.0035888,0.0074649,1.3288e-08,0.88,1,0
0.038461,0.038959,0.0088609,-5.0086e-05,0.0026432,0.00026217,0,0,0.080829,-0.035013,0,0.0068163,0,0,0,0.0088686,-5.7792e-05,0.0026432,1.6837,0.003818,0.0079288,1.5945e-08,0.9,1,0
0.040131,0.040594,0.0095774,-1.843e-05,0.0028677,0.00035773,0,0,0.087227,-0.03752,0,0.0093009,0,0,0,0.0095908,-3.1748e-05,0.0028677,2.132,0.0041422,0.0085498,2.0097e-08,0.92,1,0
0.04195,0.042367,0.010626,4.744e-05,0.0032021,0.00054896,0,0,0.096514,-0.041011,0,0.014273,0,0,0,0.010655,1.903e-05,0.0032021,2.9626,0.0046253,0.0094549,2.7405e-08,0.94,1,0
0.043992,0.044352,0.012722,0.00058362,0.0039916,0.00087404,0,0,0.11349,-0.044303,0,0.022725,0,0,0,0.012784,0.000521,0.0039916,4.0976,0.0057656,0.010948,4.5277e-08,0.96,1,0
0.04649,0.046562,0.017046,0.0012589,0.0054915,0.0026105,0,0,0.15021,-0.055024,0,0.067873,0,0,0,0.017466,0.00083846,0.0054915,9.1498,0.0079322,0.014858,1.1446e-07,0.98,1,0
0.05,0.05,0.023628,0.010126,0.010126,0.0066121,0,0,0.17552,1.1102e-16,0,0.17191,0,0,0,0.026326,0.0074274,0.010126,22.203,0.014627,0.017705,2.6283e-07,1,1,0
