"Displacements:0","Displacements:1","Stress/Strain:0","Stress/Strain:1","Stress/Strain:2","Stress/Strain:3","Stress/Strain:4","Stress/Strain:5","Stress/Strain:6","Stress/Strain:7","Stress/Strain:8","Stress/Strain:9","Stress/Strain:10","Stress/Strain:11","Stress/Strain:12","Principal Stress:0","Principal Stress:1","Principal Stress:2","Principal Stress:3","Principal Stress:4","Principal Stress:5","Principal Stress:6","nodes:0","nodes:1","nodes:2"
0,0,0.017617,0.0019574,0.0019574,0.0029605,0,0,0.17225,-3.4694e-18,0,0.065132,0,0,0,0.018158,0.0014164,0.0019574,10.356,0.0071771,0.016477,2.2893e-07,0,0,0
0.003445,0.0013026,0.015824,0.00042682,0.0016251,0.0010602,0,0,0.15619,-0.013181,0,0.023325,0,0,0,0.015897,0.00035415,0.0016251,3.9206,0.0059587,0.014948,1.6736e-07,0.02,0,0
0.0062476,0.002578,0.013444,0.00018691,0.001363,0.00058613,0,0,0.13289,-0.012937,0,0.012895,0,0,0,0.013469,0.00016104,0.001363,2.5267,0.0049978,0.01275,1.0327e-07,0.04,0,0
0.0087604,0.0038639,0.012231,7.7775e-05,0.0012309,0.00041834,0,0,0.121,-0.012684,0,0.0092035,0,0,0,0.012245,6.3392e-05,0.0012309,1.9691,0.0045132,0.011642,7.8305e-08,0.06,0,0
0.011088,0.0051518,0.011401,4.573e-05,0.0011447,0.00032682,0,0,0.11282,-0.012088,0,0.0071902,0,0,0,0.01141,3.6331e-05,0.0011447,1.6473,0.0041971,0.010862,6.3522e-08,0.08,0,0
0.013273,0.0064461,0.010743,2.8349e-05,0.0010771,0.00027546,0,0,0.10632,-0.011536,0,0.0060602,0,0,0,0.01075,2.1272e-05,0.0010771,1.4718,0.0039493,0.010241,5.3196e-08,0.1,0,0
0.01534,0.0077462,0.010181,1.8555e-05,0.0010199,0.00024301,0,0,0.10077,-0.011015,0,0.0053463,0,0,0,0.010186,1.2747e-05,0.0010199,1.3691,0.0037397,0.0097093,4.5309e-08,0.12,0,0
0.017304,0.0090507,0.0096784,1.2074e-05,0.00096904,0.00022179,0,0,0.095803,-0.010527,0,0.0048794,0,0,0,0.0096835,6.9876e-06,0.00096904,1.3137,0.0035532,0.0092331,3.8951e-08,0.14,0,0
0.019173,0.010358,0.0092146,7.4476e-06,0.00092221,0.00020761,0,0,0.091216,-0.010062,0,0.0045675,0,0,0,0.0092193,2.7684e-06,0.00092221,1.2911,0.0033814,0.0087929,3.3632e-08,0.16,0,0
0.020953,0.011664,0.0087759,3.9112e-06,0.00087798,0.00019809,0,0,0.086877,-0.0096148,0,0.004358,0,0,0,0.0087804,-5.5982e-07,0.00087798,1.293,0.0032193,0.0083763,2.9067e-08,0.18,0,0
0.022648,0.012966,0.0083535,1.0832e-06,0.00083546,0.00019164,0,0,0.082699,-0.0091782,0,0.0042162,0,0,0,0.0083579,-3.3117e-06,0.00083546,1.3137,0.0030634,0.007975,2.5081e-08,0.2,0,0
0.024261,0.01426,0.0079419,-1.2354e-06,0.00079407,0.00018712,0,0,0.078627,-0.0087484,0,0.0041167,0,0,0,0.0079463,-5.641e-06,0.00079407,1.3487,0.0029116,0.0075838,2.1564e-08,0.22,0,0
0.025793,0.015542,0.0075379,-3.1381e-06,0.00075348,0.00018358,0,0,0.074629,-0.0083228,0,0.0040388,0,0,0,0.0075424,-7.6047e-06,0.00075348,1.3937,0.0027628,0.0071997,1.8447e-08,0.24,0,0
0.027246,0.016805,0.0071404,-4.6557e-06,0.00071357,0.00018021,0,0,0.070695,-0.0079005,0,0.0039647,0,0,0,0.0071449,-9.1982e-06,0.00071357,1.4439,0.0026164,0.0068215,1.5687e-08,0.26,0,0
0.028621,0.018045,0.00675,-5.7819e-06,0.00067442,0.00017626,0,0,0.066832,-0.0074823,0,0.0038777,0,0,0,0.0067546,-1.0378e-05,0.00067442,1.4935,0.0024729,0.0064499,1.3259e-08,0.28,0,0
0.029919,0.019253,0.0063694,-6.4916e-06,0.00063629,0.00017104,0,0,0.063064,-0.0070706,0,0.0037629,0,0,0,0.006374,-1.1077e-05,0.00063629,1.5356,0.0023331,0.0060872,1.1144e-08,0.3,0,0
0.031143,0.020424,0.0060025,-6.7553e-06,0.00059957,0.00016395,0,0,0.059432,-0.0066696,0,0.003607,0,0,0,0.006007,-1.1225e-05,0.00059957,1.5617,0.0021984,0.0057372,9.3294e-09,0.32,0,0
0.032296,0.021551,0.0056548,-6.551e-06,0.00056482,0.00015453,0,0,0.055989,-0.0062851,0,0.0033997,0,0,0,0.005659,-1.0766e-05,0.00056482,1.5624,0.002071,0.005405,7.8006e-09,0.34,0,0
0.033383,0.022628,0.0053326,-5.878e-06,0.00053268,0.00014249,0,0,0.052799,-0.0059241,0,0.0031348,0,0,0,0.0053364,-9.6784e-06,0.00053268,1.5278,0.0019531,0.0050966,6.5405e-09,0.36,0,0
0.034408,0.02365,0.0050429,-4.7744e-06,0.00050381,0.00012781,0,0,0.04993,-0.0055944,0,0.0028118,0,0,0,0.0050461,-8.0085e-06,0.00050381,1.4495,0.0018473,0.0048186,5.5284e-09,0.38,0,0
0.03538,0.024613,0.004792,-3.3448e-06,0.00047887,0.00011081,0,0,0.047445,-0.0053044,0,0.0024379,0,0,0,0.0047946,-5.9041e-06,0.00047887,1.3231,0.0017558,0.0045774,4.74e-09,0.4,0,0
0.036306,0.025518,0.0045852,-1.778e-06,0.00045835,9.2256e-05,0,0,0.045396,-0.0050614,0,0.0020296,0,0,0,0.0045871,-3.6327e-06,0.00045835,1.1517,0.0016806,0.0043781,4.1486e-09,0.42,0,0
0.037196,0.026367,0.0044251,-3.2987e-07,0.00044248,7.3347e-05,0,0,0.043809,-0.0048709,0,0.0016136,0,0,0,0.0044263,-1.5452e-06,0.00044248,0.94927,0.0016224,0.0042234,3.7254e-09,0.44,0,0
0.038058,0.027165,0.0043106,7.6198e-07,0.00043113,5.5667e-05,0,0,0.042674,-0.0047341,0,0.0012247,0,0,0,0.0043113,4.3087e-08,0.00043113,0.73989,0.0015808,0.0041127,3.4407e-09,0.46,0,0
0.038903,0.027921,0.004236,1.4026e-06,0.00042375,4.0893e-05,0,0,0.041935,-0.0046458,0,0.00089965,0,0,0,0.0042364,1.0077e-06,0.00042375,0.55323,0.0015537,0.0040407,3.2636e-09,0.48,0,0
0.039736,0.02865,0.0041919,1.7198e-06,0.00041937,3.0406e-05,0,0,0.041499,-0.0045941,0,0.00066892,0,0,0,0.0041922,1.4992e-06,0.00041937,0.41573,0.0015377,0.0039981,3.1619e-09,0.5,0,0
0.040563,0.029364,0.0041659,2.0046e-06,0.00041679,2.4904e-05,0,0,0.04124,-0.0045627,0,0.00054789,0,0,0,0.0041661,1.8556e-06,0.00041679,0.34266,0.0015282,0.003973,3.1028e-09,0.52,0,0
0.041385,0.03008,0.0041449,2.5195e-06,0.00041474,2.4275e-05,0,0,0.041031,-0.0045344,0,0.00053405,0,0,0,0.004145,2.3772e-06,0.00041474,0.33575,0.0015207,0.0039526,3.0555e-09,0.54,0,0
0.042204,0.030811,0.004117,3.3068e-06,0.00041203,2.7779e-05,0,0,0.040754,-0.0044959,0,0.00061113,0,0,0,0.0041171,3.1192e-06,0.00041203,0.38688,0.0015108,0.0039256,2.9936e-09,0.56,0,0
0.043015,0.031569,0.0040729,4.1444e-06,0.0004077,3.4456e-05,0,0,0.040317,-0.0044392,0,0.00075804,0,0,0,0.0040732,3.8526e-06,0.0004077,0.48516,0.0014949,0.0038832,2.898e-09,0.58,0,0
0.043817,0.032365,0.0040059,4.6879e-06,0.00040106,4.3492e-05,0,0,0.039653,-0.0043601,0,0.00095683,0,0,0,0.0040063,4.2152e-06,0.00040106,0.6227,0.0014705,0.0038192,2.7573e-09,0.6,0,0
0.044602,0.033205,0.0039111,4.6829e-06,0.00039157,5.434e-05,0,0,0.038714,-0.0042558,0,0.0011955,0,0,0,0.0039118,3.9271e-06,0.00039157,0.79682,0.0014358,0.0037292,2.5668e-09,0.62,0,0
0.045365,0.034093,0.0037849,4.0951e-06,0.0003789,6.6588e-05,0,0,0.037466,-0.0041228,0,0.0014649,0,0,0,0.003786,2.9227e-06,0.0003789,1.0087,0.0013893,0.0036098,2.3278e-09,0.64,0,0
0.0461,0.03503,0.003625,3.0827e-06,0.00036281,7.9736e-05,0,0,0.035884,-0.003957,0,0.0017542,0,0,0,0.0036268,1.3282e-06,0.00036281,1.2605,0.0013303,0.0034589,2.0473e-09,0.66,0,0
0.0468,0.036015,0.0034307,1.8601e-06,0.00034326,9.3069e-05,0,0,0.033962,-0.0037554,0,0.0020475,0,0,0,0.0034332,-6.6417e-07,0.00034326,1.5536,0.0012586,0.0032755,1.738e-09,0.68,0,0
0.047459,0.03704,0.0032032,5.6638e-07,0.00032038,0.00010572,0,0,0.031711,-0.0035179,0,0.0023259,0,0,0,0.0032067,-2.9197e-06,0.00032038,1.8886,0.0011747,0.0030608,1.4175e-09,0.7,0,0
0.048069,0.0381,0.0029459,-7.8139e-07,0.00029451,0.00011686,0,0,0.029166,-0.0032482,0,0.0025709,0,0,0,0.0029506,-5.4083e-06,0.00029451,2.2674,0.0010799,0.002818,1.1055e-09,0.72,0,0
0.048625,0.039183,0.002664,-2.249e-06,0.00026617,0.00012587,0,0,0.026376,-0.0029526,0,0.0027692,0,0,0,0.0026699,-8.1781e-06,0.00026617,2.6969,0.00097597,0.002552,8.2045e-10,0.74,0,0
0.049124,0.040278,0.0023636,-3.9177e-06,0.00023597,0.00013249,0,0,0.023404,-0.0026387,0,0.0029148,0,0,0,0.002371,-1.1309e-05,0.00023597,3.1931,0.00086521,0.0022688,5.7583e-10,0.76,0,0
0.049562,0.041372,0.002051,-5.8434e-06,0.00020451,0.00013677,0,0,0.020311,-0.0023139,0,0.003009,0,0,0,0.00206,-1.4898e-05,0.00020451,3.7878,0.00074987,0.0019744,3.7887e-10,0.78,0,0
0.049936,0.042453,0.0017317,-8.0527e-06,0.00017236,0.00013905,0,0,0.017153,-0.0019846,0,0.0030591,0,0,0,0.0017427,-1.9096e-05,0.00017236,4.541,0.000632,0.0016743,2.3048e-10,0.8,0,0
0.050248,0.043509,0.0014101,-1.056e-05,0.00013996,0.00013985,0,0,0.013972,-0.0016557,0,0.0030767,0,0,0,0.0014238,-2.4196e-05,0.00013996,5.5689,0.00051318,0.0013733,1.2663e-10,0.82,0,0
0.050495,0.044526,0.001089,-1.3391e-05,0.00010756,0.00013983,0,0,0.010795,-0.0013304,0,0.0030763,0,0,0,0.0011064,-3.0852e-05,0.00010756,7.1177,0.00039437,0.0010748,6.0213e-11,0.84,0,0
0.05068,0.045496,0.00076896,-1.6606e-05,7.5235e-05,0.00013973,0,0,0.007631,-0.0010103,0,0.003074,0,0,0,0.00079307,-4.0718e-05,7.5235e-05,9.7911,0.00027586,0.00078228,2.2777e-11,0.86,0,0
0.0508,0.046406,0.0004488,-2.0347e-05,4.2845e-05,0.00014036,0,0,0.0044655,-0.00069511,0,0.003088,0,0,0,0.00048759,-5.9135e-05,4.2845e-05,15.448,0.0001571,0.00050354,5.6612e-12,0.88,0,0
0.050858,0.047247,0.00012453,-2.4917e-05,9.9613e-06,0.00014274,0,0,0.0012603,-0.00038366,0,0.0031403,0,0,0,0.00021092,-0.00011131,9.9613e-06,31.184,3.6525e-05,0.00028189,4.7485e-13,0.9,0,0
0.050851,0.04801,-0.0002116,-3.1102e-05,-2.427e-05,0.00014821,0,0,-0.0020606,-7.5148e-05,0,0.0032606,0,0,0,5.2174e-05,-0.00029488,-2.427e-05,60.669,-8.8991e-05,0.00031584,-1.3042e-12,0.92,0,0
0.050776,0.048684,-0.00057466,-4.0366e-05,-6.1502e-05,0.00015951,0,0,-0.0056447,0.0002325,0,0.0035092,0,0,0,3.6314e-06,-0.00061865,-6.1502e-05,74.58,-0.00022551,0.00059241,-1.0244e-11,0.94,0,0
0.050625,0.049257,-0.0010006,-6.1143e-05,-0.00010617,0.00017996,0,0,-0.0098386,0.00049533,0,0.0039591,0,0,0,-2.7851e-05,-0.0010339,-0.00010617,79.519,-0.0003893,0.00096925,-4.5737e-11,0.96,0,0
0.050382,0.049709,-0.0015897,-0.00010006,-0.00016897,0.0002232,0,0,-0.015628,0.00075806,0,0.0049103,0,0,0,-6.7335e-05,-0.0016224,-0.00016897,81.659,-0.00061957,0.0015068,-1.7302e-10,0.98,0,0
0.05,0.05,-0.0019539,-0.0002171,-0.0002171,0.00066176,0,0,-0.019105,-1.0267e-16,0,0.014559,0,0,0,6.3006e-06,-0.0021774,-0.0002171,71.346,-0.00079605,0.002081,-4.4489e-10,1,0,0
0,0,0.013411,0.0014901,0.0014901,0.0023614,0,0,0.13113,1.5179e-18,0,0.05195,0,0,0,0.013861,0.0010393,0.0014901,10.806,0.0054636,0.012603,1.0236e-07,0,0.02,0
0.0026225,0.001039,0.013264,0.00062901,0.0013893,0.0013519,0,0,0.13062,-0.0083634,0,0.029741,0,0,0,0.013407,0.00048599,0.0013893,6.0391,0.0050941,0.012494,9.8404e-08,0.02,0.02,0
0.0052249,0.0023193,0.01275,0.00031182,0.0013061,0.0010694,0,0,0.12588,-0.010937,0,0.023528,0,0,0,0.012841,0.00022053,0.0013061,4.8788,0.0047891,0.012114,8.8834e-08,0.04,0.02,0
0.0076576,0.0036102,0.011926,0.00016593,0.0012092,0.00080727,0,0,0.11789,-0.011476,0,0.01776,0,0,0,0.011981,0.00011077,0.0012092,3.9086,0.0044338,0.011361,7.295e-08,0.06,0.02,0
0.0099404,0.00491,0.011222,9.8668e-05,0.0011321,0.00065651,0,0,0.11099,-0.011367,0,0.014443,0,0,0,0.011261,6.0054e-05,0.0011321,3.3661,0.0041509,0.010705,6.0879e-08,0.08,0.02,0
0.012097,0.0062154,0.010625,6.2728e-05,0.0010688,0.00056104,0,0,0.10512,-0.011066,0,0.012343,0,0,0,0.010655,3.3011e-05,0.0010688,3.032,0.0039188,0.010143,5.1723e-08,0.1,0.02,0
0.014145,0.0075259,0.010102,4.1477e-05,0.0010144,0.0004989,0,0,0.099967,-0.010702,0,0.010976,0,0,0,0.010127,1.6797e-05,0.0010144,2.832,0.0037194,0.0096501,4.4497e-08,0.12,0.02,0
0.016096,0.0088402,0.0096302,2.7907e-05,0.00096581,0.00045715,0,0,0.095309,-0.010317,0,0.010057,0,0,0,0.009652,6.1925e-06,0.00096581,2.7195,0.0035413,0.0092035,3.8576e-08,0.14,0.02,0
0.017958,0.010156,0.009193,1.8842e-05,0.00092118,0.00042876,0,0,0.09099,-0.0099257,0,0.0094328,0,0,0,0.009213,-1.1527e-06,0.00092118,2.67,0.0033777,0.0087893,3.3582e-08,0.16,0.02,0
0.019735,0.011471,0.0087797,1.2701e-05,0.00087924,0.00040939,0,0,0.086906,-0.009532,0,0.0090066,0,0,0,0.0087988,-6.3746e-06,0.00087924,2.6678,0.0032239,0.0083975,2.9276e-08,0.18,0.02,0
0.021434,0.012783,0.0083834,8.6595e-06,0.0008392,0.00039607,0,0,0.082986,-0.009136,0,0.0087135,0,0,0,0.008402,-1.003e-05,0.0008392,2.7017,0.0030771,0.0080213,2.5507e-08,0.2,0.02,0
0.023055,0.014085,0.007999,6.284e-06,0.00080052,0.00038658,0,0,0.079183,-0.0087367,0,0.0085048,0,0,0,0.0080176,-1.237e-05,0.00080052,2.7626,0.0029353,0.007656,2.2174e-08,0.22,0.02,0
0.024601,0.015376,0.0076237,5.3473e-06,0.0007629,0.00037911,0,0,0.075469,-0.0083331,0,0.0083405,0,0,0,0.0076425,-1.3472e-05,0.0007629,2.8419,0.0027973,0.0072988,1.921e-08,0.24,0.02,0
0.026074,0.016647,0.0072562,5.7268e-06,0.0007262,0.00037206,0,0,0.071831,-0.0079252,0,0.0081853,0,0,0,0.0072753,-1.3315e-05,0.0007262,2.9299,0.0026627,0.0069484,1.6574e-08,0.26,0.02,0
0.027474,0.017895,0.0068968,7.3336e-06,0.00069041,0.00036395,0,0,0.06827,-0.0075138,0,0.008007,0,0,0,0.0069159,-1.184e-05,0.00069041,3.0156,0.0025315,0.0066047,1.4235e-08,0.28,0.02,0
0.028804,0.019112,0.0065466,1.006e-05,0.00065567,0.00035346,0,0,0.0648,-0.0071017,0,0.0077762,0,0,0,0.0065657,-8.9976e-06,0.00065567,3.0863,0.0024041,0.0062688,1.2174e-08,0.3,0.02,0
0.030066,0.020291,0.0062083,1.3738e-05,0.00062221,0.00033942,0,0,0.061448,-0.0066932,0,0.0074672,0,0,0,0.0062269,-4.8039e-06,0.00062221,3.1269,0.0022814,0.0059431,1.0377e-08,0.32,0.02,0
0.031262,0.021426,0.0058854,1.8108e-05,0.00059035,0.00032091,0,0,0.058246,-0.0062947,0,0.00706,0,0,0,0.0059029,6.0818e-07,0.00059035,3.1214,0.0021646,0.0056306,8.8302e-09,0.34,0.02,0
0.032396,0.02251,0.0055818,2.28e-05,0.00056046,0.0002974,0,0,0.055235,-0.0059143,0,0.0065428,0,0,0,0.0055977,6.9349e-06,0.00056046,3.0536,0.002055,0.0053356,7.5189e-09,0.36,0.02,0
0.033472,0.023538,0.0053019,2.7311e-05,0.00053292,0.00026884,0,0,0.052458,-0.0055617,0,0.0059145,0,0,0,0.0053155,1.3644e-05,0.00053292,2.9103,0.001954,0.0050623,6.427e-09,0.38,0.02,0
0.034494,0.024507,0.0050495,3.0983e-05,0.00050805,0.00023583,0,0,0.049956,-0.0052477,0,0.0051883,0,0,0,0.0050606,1.9925e-05,0.00050805,2.6846,0.0018629,0.0048152,5.5358e-09,0.4,0.02,0
0.03547,0.025417,0.0048279,3.301e-05,0.00048609,0.00019977,0,0,0.04776,-0.0049839,0,0.004395,0,0,0,0.0048362,2.4701e-05,0.00048609,2.3816,0.0017823,0.0045982,4.8242e-09,0.42,0.02,0
0.036405,0.026269,0.0046386,3.2555e-05,0.00046711,0.00016292,0,0,0.045886,-0.0047802,0,0.0035843,0,0,0,0.0046443,2.6799e-05,0.00046711,2.0233,0.0017128,0.0044139,4.2687e-09,0.44,0.02,0
0.037305,0.02707,0.004481,2.9041e-05,0.000451,0.00012827,0,0,0.04433,-0.0046416,0,0.002822,0,0,0,0.0044847,2.5348e-05,0.000451,1.649,0.0016537,0.0042625,3.844e-09,0.46,0.02,0
0.038178,0.027829,0.0043519,2.254e-05,0.00043744,9.9054e-05,0,0,0.043059,-0.0045639,0,0.0021792,0,0,0,0.0043541,2.0275e-05,0.00043744,1.31,0.001604,0.0041411,3.5227e-09,0.48,0.02,0
0.039028,0.028558,0.0042457,1.3995e-05,0.00042597,7.795e-05,0,0,0.042017,-0.0045317,0,0.0017149,0,0,0,0.0042471,1.2559e-05,0.00042597,1.0549,0.0015619,0.0040437,3.2766e-09,0.5,0.02,0
0.039859,0.029273,0.0041551,4.9754e-06,0.00041601,6.633e-05,0,0,0.04113,-0.0045214,0,0.0014593,0,0,0,0.0041562,3.9155e-06,0.00041601,0.91542,0.0015254,0.0039623,3.0788e-09,0.52,0.02,0
0.040673,0.029989,0.0040724,-2.9914e-06,0.00040694,6.3947e-05,0,0,0.040321,-0.0045093,0,0.0014068,0,0,0,0.0040735,-3.9945e-06,0.00040694,0.89872,0.0014921,0.0038883,2.9058e-09,0.54,0.02,0
0.041472,0.030721,0.0039904,-9.1066e-06,0.00039813,6.9342e-05,0,0,0.039515,-0.0044796,0,0.0015255,0,0,0,0.0039916,-1.0308e-05,0.00039813,0.99298,0.0014598,0.0038141,2.7399e-09,0.56,0.02,0
0.042254,0.03148,0.0039031,-1.3494e-05,0.00038896,8.0685e-05,0,0,0.038655,-0.004427,0,0.0017751,0,0,0,0.0039047,-1.5155e-05,0.00038896,1.1797,0.0014262,0.0037343,2.5692e-09,0.58,0.02,0
0.043018,0.032278,0.0038057,-1.6803e-05,0.00037889,9.6517e-05,0,0,0.037695,-0.0043526,0,0.0021234,0,0,0,0.0038082,-1.9238e-05,0.00037889,1.4455,0.0013893,0.0036447,2.3868e-09,0.6,0.02,0
0.043761,0.03312,0.0036946,-1.9561e-05,0.00036751,0.00011596,0,0,0.036598,-0.0042577,0,0.0025512,0,0,0,0.0036982,-2.3178e-05,0.00036751,1.7865,0.0013475,0.0035423,2.1895e-09,0.62,0.02,0
0.044482,0.034011,0.0035665,-2.1777e-05,0.00035447,0.0001384,0,0,0.035332,-0.0041388,0,0.0030448,0,0,0,0.0035718,-2.7106e-05,0.00035447,2.2055,0.0012997,0.0034241,1.9759e-09,0.64,0.02,0
0.045175,0.034951,0.0034189,-2.3003e-05,0.00033958,0.00016296,0,0,0.033872,-0.0039885,0,0.0035851,0,0,0,0.0034265,-3.0701e-05,0.00033958,2.7047,0.0012451,0.0032878,1.7475e-09,0.66,0.02,0
0.045837,0.035939,0.00325,-2.274e-05,0.00032273,0.00018827,0,0,0.0322,-0.0038001,0,0.004142,0,0,0,0.0032608,-3.3536e-05,0.00032273,3.2817,0.0011833,0.0031314,1.5085e-09,0.68,0.02,0
0.046463,0.03697,0.0030597,-2.0819e-05,0.00030389,0.00021261,0,0,0.030314,-0.0035718,0,0.0046774,0,0,0,0.0030743,-3.5423e-05,0.00030389,3.9296,0.0011143,0.0029547,1.2662e-09,0.7,0.02,0
0.047049,0.038035,0.0028492,-1.7519e-05,0.00028317,0.00023428,0,0,0.028226,-0.0033075,0,0.0051541,0,0,0,0.0028682,-3.6539e-05,0.00028317,4.6414,0.0010383,0.0027588,1.0298e-09,0.72,0.02,0
0.047592,0.039124,0.0026209,-1.342e-05,0.00026075,0.00025204,0,0,0.025962,-0.0030159,0,0.0055448,0,0,0,0.0026448,-3.7316e-05,0.00026075,5.4161,0.00095609,0.0025462,8.0882e-10,0.74,0.02,0
0.048087,0.040225,0.0023784,-9.1682e-06,0.00023692,0.00026528,0,0,0.023556,-0.002707,0,0.0058362,0,0,0,0.0024075,-3.8288e-05,0.00023692,6.2643,0.00086872,0.0023205,6.114e-10,0.76,0.02,0
0.048534,0.041326,0.0021253,-5.3037e-06,0.000212,0.00027407,0,0,0.021046,-0.0023903,0,0.0060295,0,0,0,0.00216,-3.9994e-05,0.000212,7.2138,0.00077732,0.0020854,4.4295e-10,0.78,0.02,0
0.048929,0.042414,0.0018651,-2.2173e-06,0.00018629,0.00027897,0,0,0.018467,-0.0020736,0,0.0061373,0,0,0,0.0019059,-4.3003e-05,0.00018629,8.3177,0.00068307,0.001845,3.0583e-10,0.8,0.02,0
0.049273,0.043476,0.001601,-1.6322e-07,0.00016008,0.00028094,0,0,0.01585,-0.0017627,0,0.0061806,0,0,0,0.0016489,-4.8024e-05,0.00016008,9.6683,0.00058698,0.001603,1.9959e-10,0.82,0.02,0
0.049563,0.0445,0.0013351,7.0446e-07,0.00013358,0.00028116,0,0,0.013217,-0.0014616,0,0.0061855,0,0,0,0.0013919,-5.6117e-05,0.00013358,11.425,0.00048979,0.0013631,1.2163e-10,0.84,0.02,0
0.049801,0.045475,0.0010685,2.8713e-07,0.00010688,0.00028098,0,0,0.010578,-0.0011725,0,0.0061815,0,0,0,0.0011379,-6.9112e-05,0.00010688,13.874,0.00039189,0.0011293,6.7961e-11,0.86,0.02,0
0.049987,0.046392,0.00080133,-1.5321e-06,7.9979e-05,0.00028184,0,0,0.0079348,-0.00089663,0,0.0062005,0,0,0,0.00089039,-9.0591e-05,7.9979e-05,17.536,0.00029326,0.00090779,3.3895e-11,0.88,0.02,0
0.050119,0.047239,0.00053256,-5.016e-06,5.2755e-05,0.00028533,0,0,0.0052779,-0.00063548,0,0.0062772,0,0,0,0.00065577,-0.00012822,5.2755e-05,23.355,0.00019343,0.00071099,1.4506e-11,0.9,0.02,0
0.050198,0.048009,0.00026032,-1.0824e-05,2.495e-05,0.00029339,0,0,0.0025891,-0.00039351,0,0.0064546,0,0,0,0.00044795,-0.00019845,2.495e-05,32.599,9.1484e-05,0.00056863,4.7678e-12,0.92,0.02,0
0.050222,0.048689,-1.6667e-05,-2.0477e-05,-3.7145e-06,0.00030815,0,0,-0.00014248,-0.00018439,0,0.0067794,0,0,0,0.00028959,-0.00032673,-3.7145e-06,44.823,-1.362e-05,0.00053396,-6.5203e-13,0.94,0.02,0
0.050192,0.049267,-0.00029063,-3.7512e-05,-3.2814e-05,0.00033256,0,0,-0.0028359,-5.1681e-05,0,0.0073164,0,0,0,0.00019176,-0.0005199,-3.2814e-05,55.417,-0.00012032,0.00063014,-7.5658e-12,0.96,0.02,0
0.050109,0.049724,-0.00049158,-6.2938e-05,-5.5452e-05,0.00034385,0,0,-0.0047974,-8.2351e-05,0,0.0075646,0,0,0,0.00012791,-0.00068243,-5.5452e-05,60.968,-0.00020332,0.000736,-1.6271e-11,0.98,0.02,0
0.05,0.05,-0.00055658,-6.1842e-05,-6.1842e-05,0.0006273,0,0,-0.0054421,3.2147e-17,0,0.013801,0,0,0,0.00036511,-0.00098353,-6.1842e-05,55.761,-0.00022675,0.0011939,-5.1215e-11,1,0.02,0
0,0,0.01184,0.0013156,0.0013156,0.0022002,0,0,0.11577,-9.7578e-19,0,0.048405,0,0,0,0.012282,0.00087412,0.0013156,11.345,0.0048238,0.011193,7.165e-08,0,0.04,0
0.0023154,0.0009681,0.01178,0.0010715,0.0012851,0.0018629,0,0,0.11544,-0.0023502,0,0.040983,0,0,0,0.012094,0.00075662,0.0012851,9.5923,0.004712,0.011083,6.9383e-08,0.02,0.04,0
0.0046176,0.0021405,0.011595,0.00061205,0.0012207,0.0016466,0,0,0.11412,-0.0066951,0,0.036225,0,0,0,0.011836,0.0003705,0.0012207,8.3456,0.0044759,0.011065,6.8203e-08,0.04,0.04,0
0.0068801,0.0034048,0.01126,0.00037274,0.0011633,0.0014028,0,0,0.11107,-0.0086962,0,0.030862,0,0,0,0.011438,0.0001949,0.0011633,7.2252,0.0042655,0.010792,6.28e-08,0.06,0.04,0
0.0090603,0.0046971,0.010812,0.00023748,0.0011049,0.0011986,0,0,0.10677,-0.0095417,0,0.02637,0,0,0,0.010946,0.00010331,0.0011049,6.3869,0.0040513,0.010378,5.5607e-08,0.08,0.04,0
0.011151,0.0060034,0.010357,0.00015758,0.0010515,0.0010532,0,0,0.10236,-0.0098327,0,0.02317,0,0,0,0.010465,4.9967e-05,0.0010515,5.8342,0.0038554,0.0099518,4.8896e-08,0.1,0.04,0
0.013155,0.0073181,0.0099232,0.00010707,0.001003,0.00095059,0,0,0.098122,-0.0098556,0,0.020913,0,0,0,0.010014,1.5859e-05,0.001003,5.4807,0.0036778,0.0095434,4.3034e-08,0.12,0.04,0
0.015076,0.008638,0.0095131,7.3499e-05,0.00095867,0.00087849,0,0,0.094099,-0.0097368,0,0.019327,0,0,0,0.0095942,-7.5602e-06,0.00095867,5.2718,0.0035151,0.009157,3.7958e-08,0.14,0.04,0
0.016919,0.0099605,0.0091236,5.0473e-05,0.0009174,0.00082783,0,0,0.090268,-0.0095362,0,0.018212,0,0,0,0.0091985,-2.444e-05,0.0009174,5.1708,0.0033638,0.0087899,3.3534e-08,0.16,0.04,0
0.018687,0.011282,0.0087502,3.4584e-05,0.00087848,0.00079235,0,0,0.086589,-0.0092828,0,0.017432,0,0,0,0.0088216,-3.6864e-05,0.00087848,5.1525,0.0032211,0.0084381,2.9637e-08,0.18,0.04,0
0.020382,0.012601,0.0083892,2.397e-05,0.00084132,0.00076738,0,0,0.083027,-0.0089908,0,0.016882,0,0,0,0.008459,-4.5844e-05,0.00084132,5.1982,0.0030848,0.0080978,2.6172e-08,0.2,0.04,0
0.022008,0.013911,0.0080376,1.7616e-05,0.00080552,0.00074928,0,0,0.079553,-0.008667,0,0.016484,0,0,0,0.008107,-5.1785e-05,0.00080552,5.2919,0.0029536,0.0077657,2.3067e-08,0.22,0.04,0
0.023564,0.015209,0.0076934,1.4982e-05,0.00077084,0.00073492,0,0,0.076149,-0.0083145,0,0.016168,0,0,0,0.0077631,-5.4725e-05,0.00077084,5.4183,0.0028264,0.0074395,2.0272e-08,0.24,0.04,0
0.025054,0.016488,0.0073556,1.5763e-05,0.00073713,0.00072151,0,0,0.072803,-0.0079351,0,0.015873,0,0,0,0.0074258,-5.4489e-05,0.00073713,5.5613,0.0027028,0.0071176,1.7749e-08,0.26,0.04,0
0.026477,0.017744,0.0070239,1.9735e-05,0.00070436,0.00070649,0,0,0.069515,-0.0075309,0,0.015543,0,0,0,0.0070944,-5.0816e-05,0.00070436,5.7027,0.0025827,0.0067992,1.5474e-08,0.28,0.04,0
0.027834,0.018969,0.0066989,2.6613e-05,0.00067255,0.00068748,0,0,0.06629,-0.0071053,0,0.015125,0,0,0,0.006769,-4.3485e-05,0.00067255,5.822,0.002466,0.0064842,1.3428e-08,0.3,0.04,0
0.029128,0.020157,0.0063821,3.5952e-05,0.00064181,0.00066243,0,0,0.063144,-0.0066644,0,0.014573,0,0,0,0.0064506,-3.2456e-05,0.00064181,5.896,0.0023533,0.0061735,1.16e-08,0.32,0.04,0
0.03036,0.021299,0.0060756,4.7069e-05,0.00061227,0.00062972,0,0,0.060097,-0.0062172,0,0.013854,0,0,0,0.0061407,-1.8007e-05,0.00061227,5.9,0.002245,0.005869,9.9803e-09,0.34,0.04,0
0.031532,0.022391,0.0057819,5.9005e-05,0.00058409,0.0005884,0,0,0.057176,-0.0057759,0,0.012945,0,0,0,0.0058417,-8.6535e-07,0.00058409,5.8099,0.0021417,0.0055732,8.5614e-09,0.36,0.04,0
0.032647,0.023427,0.0055036,7.0501e-05,0.00055741,0.00053835,0,0,0.054408,-0.005356,0,0.011844,0,0,0,0.0055565,1.7671e-05,0.00055741,5.6046,0.0020438,0.0052896,7.3352e-09,0.38,0.04,0
0.033708,0.024404,0.0052436,7.9953e-05,0.00053235,0.00048051,0,0,0.051823,-0.0049764,0,0.010571,0,0,0,0.0052879,3.562e-05,0.00053235,5.2714,0.001952,0.0050224,6.2924e-09,0.4,0.04,0
0.03472,0.025319,0.0050041,8.5398e-05,0.00050895,0.00041708,0,0,0.049447,-0.0046591,0,0.0091757,0,0,0,0.0050392,5.0284e-05,0.00050895,4.8125,0.0018662,0.0047762,5.4222e-09,0.42,0.04,0
0.035686,0.026176,0.0047871,8.4696e-05,0.00048718,0.00035172,0,0,0.047299,-0.0044273,0,0.0077379,0,0,0,0.0048133,5.8535e-05,0.00048718,4.2539,0.0017863,0.0045556,4.711e-09,0.44,0.04,0
0.036612,0.026979,0.0045931,7.6227e-05,0.00046693,0.00028951,0,0,0.045388,-0.0042978,0,0.0063692,0,0,0,0.0046116,5.7747e-05,0.00046693,3.6524,0.0017121,0.0043637,4.1413e-09,0.46,0.04,0
0.037502,0.027739,0.004421,5.997e-05,0.0004481,0.00023614,0,0,0.043702,-0.0042694,0,0.005195,0,0,0,0.0044337,4.7221e-05,0.0004481,3.0904,0.001643,0.0042004,3.6897e-09,0.48,0.04,0
0.03836,0.028469,0.0042676,3.8294e-05,0.00043059,0.00019654,0,0,0.042207,-0.0043153,0,0.0043238,0,0,0,0.0042767,2.918e-05,0.00043059,2.6549,0.0015788,0.0040617,3.3285e-09,0.5,0.04,0
0.03919,0.029184,0.0041285,1.5415e-05,0.00041439,0.00017318,0,0,0.040856,-0.0043888,0,0.00381,0,0,0,0.0041358,8.1364e-06,0.00041439,2.4067,0.0015195,0.0039403,3.0297e-09,0.52,0.04,0
0.039994,0.029899,0.003999,-4.5387e-06,0.00039945,0.00016546,0,0,0.039595,-0.0044438,0,0.0036401,0,0,0,0.0040058,-1.1365e-05,0.00039945,2.3625,0.0014646,0.0038283,2.7702e-09,0.54,0.04,0
0.040774,0.030631,0.0038751,-1.9552e-05,0.00038556,0.00017048,0,0,0.038386,-0.0044562,0,0.0037505,0,0,0,0.0038826,-2.7e-05,0.00038556,2.5015,0.0014137,0.0037205,2.5357e-09,0.56,0.04,0
0.041529,0.031392,0.0037543,-3.0272e-05,0.00037241,0.00018497,0,0,0.037201,-0.0044295,0,0.0040694,0,0,0,0.0037634,-3.9291e-05,0.00037241,2.7915,0.0013655,0.0036144,2.3194e-09,0.58,0.04,0
0.042262,0.032191,0.0036346,-3.8723e-05,0.00035959,0.0002068,0,0,0.036025,-0.0043815,0,0.0045496,0,0,0,0.0036462,-5.0329e-05,0.00035959,3.2121,0.0013185,0.0035096,2.1184e-09,0.6,0.04,0
0.042971,0.033035,0.0035138,-4.6399e-05,0.00034674,0.00023521,0,0,0.034838,-0.0043245,0,0.0051746,0,0,0,0.0035293,-6.1871e-05,0.00034674,3.7635,0.0012714,0.0034053,1.93e-09,0.62,0.04,0
0.043655,0.033928,0.003389,-5.3149e-05,0.00033358,0.00026988,0,0,0.033609,-0.004254,0,0.0059374,0,0,0,0.00341,-7.4181e-05,0.00033358,4.456,0.0012231,0.0032993,1.7499e-09,0.64,0.04,0
0.044315,0.034871,0.0032567,-5.7496e-05,0.00031992,0.00030975,0,0,0.032304,-0.0041515,0,0.0068145,0,0,0,0.0032854,-8.6198e-05,0.00031992,5.2939,0.001173,0.003188,1.5734e-09,0.66,0.04,0
0.044948,0.035863,0.0031137,-5.7864e-05,0.00030558,0.00035243,0,0,0.030889,-0.0039979,0,0.0077534,0,0,0,0.0031524,-9.6554e-05,0.00030558,6.265,0.0011205,0.0030677,1.3972e-09,0.68,0.04,0
0.045551,0.036897,0.0029579,-5.37e-05,0.00029042,0.0003946,0,0,0.029343,-0.0037854,0,0.0086812,0,0,0,0.0030088,-0.00010454,0.00029042,7.3421,0.0010649,0.0029358,1.2207e-09,0.7,0.04,0
0.046121,0.037968,0.0027888,-4.5754e-05,0.00027431,0.00043295,0,0,0.02766,-0.0035207,0,0.0095249,0,0,0,0.0028535,-0.00011041,0.00027431,8.4933,0.0010058,0.0027915,1.046e-09,0.72,0.04,0
0.046657,0.039062,0.0026071,-3.5583e-05,0.00025716,0.00046501,0,0,0.02585,-0.0032201,0,0.01023,0,0,0,0.0026866,-0.00011502,0.00025716,9.694,0.0009429,0.0026353,8.7708e-10,0.74,0.04,0
0.047155,0.04017,0.0024145,-2.4851e-05,0.00023897,0.00048951,0,0,0.023931,-0.002902,0,0.010769,0,0,0,0.0025091,-0.00011942,0.00023897,10.934,0.00087622,0.0024689,7.1833e-10,0.76,0.04,0
0.047614,0.041277,0.0022133,-1.4942e-05,0.00021984,0.00050634,0,0,0.021928,-0.0025826,0,0.011139,0,0,0,0.002323,-0.0001246,0.00021984,12.22,0.00080607,0.0022948,5.7383e-10,0.78,0.04,0
0.048032,0.04237,0.0020058,-6.8547e-06,0.0001999,0.00051626,0,0,0.019865,-0.0022743,0,0.011358,0,0,0,0.0021305,-0.00013155,0.0001999,13.579,0.00073296,0.0021159,4.4656e-10,0.8,0.04,0
0.048409,0.043438,0.0017944,-1.2618e-06,0.00017931,0.00052075,0,0,0.017766,-0.0019863,0,0.011456,0,0,0,0.0019345,-0.00014135,0.00017931,15.057,0.00065748,0.0019355,3.3821e-10,0.82,0.04,0
0.048743,0.044468,0.0015811,1.445e-06,0.00015825,0.00052167,0,0,0.015651,-0.0017248,0,0.011477,0,0,0,0.0017378,-0.00015528,0.00015825,16.722,0.00058025,0.0017574,2.4912e-10,0.84,0.04,0
0.049035,0.045449,0.0013675,1.0787e-06,0.00013686,0.00052109,0,0,0.013537,-0.0014936,0,0.011464,0,0,0,0.0015436,-0.00017496,0.00013686,18.666,0.00050182,0.0015858,1.7841e-10,0.86,0.04,0
0.049284,0.04637,0.0011554,-2.467e-06,0.00011529,0.00052107,0,0,0.011441,-0.0012954,0,0.011463,0,0,0,0.0013554,-0.00020243,0.00011529,20.994,0.00042274,0.0014257,1.2429e-10,0.88,0.04,0
0.049492,0.047222,0.00094666,-9.4131e-06,9.3724e-05,0.00052349,0,0,0.0093822,-0.0011345,0,0.011517,0,0,0,0.0011775,-0.00024029,9.3724e-05,23.799,0.00034366,0.0012838,8.4383e-11,0.9,0.04,0
0.04966,0.047994,0.0007449,-2.0312e-05,7.2459e-05,0.00052964,0,0,0.0073969,-0.0010205,0,0.011652,0,0,0,0.0010157,-0.00029109,7.2459e-05,27.078,0.00026568,0.0011682,5.5944e-11,0.92,0.04,0
0.049788,0.048677,0.00055844,-3.6211e-05,5.2223e-05,0.00053923,0,0,0.0055684,-0.00097277,0,0.011863,0,0,0,0.00087688,-0.00035465,5.2223e-05,30.564,0.00019148,0.0010868,3.6144e-11,0.94,0.04,0
0.049883,0.049255,0.00040615,-5.7124e-05,3.4903e-05,0.00054388,0,0,0.0040837,-0.0010123,0,0.011965,0,0,0,0.00076566,-0.00041663,3.4903e-05,33.465,0.00012798,0.0010334,2.2412e-11,0.96,0.04,0
0.049952,0.049705,0.00028834,-7.6162e-05,2.1218e-05,0.00052897,0,0,0.0029383,-0.0010712,0,0.011637,0,0,0,0.00066558,-0.0004534,2.1218e-05,35.495,7.7797e-05,0.00097277,1.2249e-11,0.98,0.04,0
0.05,0.05,0.00024721,2.7467e-05,2.7467e-05,0.00066925,0,0,0.0024171,8.9826e-17,0,0.014724,0,0,0,0.00081554,-0.00054087,2.7467e-05,40.339,0.00010071,0.0011798,2.3292e-11,1,0.04,0
0,0,0.010848,0.0012053,0.0012053,0.0021477,0,0,0.10607,3.6592e-19,0,0.04725,0,0,0,0.011305,0.00074857,0.0012053,12.006,0.0044195,0.010335,5.6326e-08,0,0.06,0
0.0021214,0.000945,0.010825,0.0011266,0.0011952,0.0019567,0,0,0.10593,-0.00075414,0,0.043047,0,0,0,0.011205,0.00074673,0.0011952,10.987,0.0043823,0.010241,5.4814e-08,0.02,0.06,0
0.0042372,0.0020514,0.010736,0.0008514,0.0011588,0.0018939,0,0,0.10535,-0.0033812,0,0.041665,0,0,0,0.011087,0.00050098,0.0011588,10.483,0.0042489,0.010273,5.4909e-08,0.04,0.06,0
0.0063355,0.0032623,0.010568,0.00058451,0.0011153,0.0017456,0,0,0.10398,-0.0058387,0,0.038403,0,0,0,0.010865,0.00028811,0.0011153,9.6369,0.0040894,0.010188,5.3112e-08,0.06,0.06,0
0.0083966,0.0045283,0.010316,0.00040264,0.0010719,0.0015817,0,0,0.10168,-0.0073614,0,0.034797,0,0,0,0.010562,0.0001564,0.0010719,8.8491,0.0039301,0.0099796,4.96e-08,0.08,0.06,0
0.010403,0.0058221,0.010007,0.00028024,0.0010287,0.0014387,0,0,0.098761,-0.0082334,0,0.031652,0,0,0,0.010215,7.1886e-05,0.0010287,8.24,0.003772,0.0097005,4.5347e-08,0.1,0.06,0
0.012347,0.0071317,0.0096777,0.00019667,0.00098744,0.0013266,0,0,0.095593,-0.0086984,0,0.029185,0,0,0,0.0098598,1.4543e-05,0.00098744,7.8171,0.0036206,0.0093967,4.1077e-08,0.12,0.06,0
0.014227,0.0084507,0.009345,0.00013821,0.00094832,0.0012421,0,0,0.092363,-0.0089112,0,0.027327,0,0,0,0.0095096,-2.6433e-05,0.00094832,7.5503,0.0034772,0.009088,3.7059e-08,0.14,0.06,0
0.016042,0.0097748,0.0090157,9.6698e-05,0.00091124,0.00118,0,0,0.089149,-0.0089599,0,0.02596,0,0,0,0.0091691,-5.6776e-05,0.00091124,7.4105,0.0033412,0.008782,3.3365e-08,0.16,0.06,0
0.017793,0.0111,0.0086917,6.7332e-05,0.0008759,0.001135,0,0,0.085973,-0.0088942,0,0.024969,0,0,0,0.0088385,-7.9526e-05,0.0008759,7.3729,0.0032116,0.0084808,2.9992e-08,0.18,0.06,0
0.019481,0.012423,0.0083729,4.732e-05,0.00084203,0.0011025,0,0,0.08284,-0.0087418,0,0.024254,0,0,0,0.0085165,-9.6196e-05,0.00084203,7.4168,0.0030874,0.008184,2.6909e-08,0.2,0.06,0
0.021106,0.013739,0.0080587,3.5079e-05,0.00080938,0.0010786,0,0,0.079743,-0.0085173,0,0.023728,0,0,0,0.0082012,-0.00010737,0.00080938,7.524,0.0029677,0.0078902,2.4084e-08,0.22,0.06,0
0.02267,0.015043,0.0077481,2.9743e-05,0.00077778,0.0010596,0,0,0.076673,-0.0082285,0,0.023311,0,0,0,0.0078909,-0.00011307,0.00077778,7.6764,0.0028519,0.0075978,2.1486e-08,0.24,0.06,0
0.024173,0.01633,0.0074404,3.0825e-05,0.00074712,0.0010421,0,0,0.073626,-0.0078793,0,0.022926,0,0,0,0.0075842,-0.00011295,0.00074712,7.8552,0.0027395,0.0073051,1.909e-08,0.26,0.06,0
0.025615,0.017594,0.0071353,3.7943e-05,0.00071732,0.0010229,0,0,0.070598,-0.0074732,0,0.022504,0,0,0,0.0072798,-0.00010654,0.00071732,8.0397,0.0026302,0.0070108,1.6877e-08,0.28,0.06,0
0.026997,0.018828,0.006833,5.0587e-05,0.00068836,0.00099894,0,0,0.067591,-0.0070155,0,0.021977,0,0,0,0.0069771,-9.348e-05,0.00068836,8.2066,0.002524,0.0067138,1.4835e-08,0.3,0.06,0
0.028319,0.020024,0.0065341,6.7916e-05,0.0006602,0.00096753,0,0,0.064613,-0.0065151,0,0.021286,0,0,0,0.0066757,-7.375e-05,0.0006602,8.3301,0.0024207,0.0064141,1.2956e-08,0.32,0.06,0
0.029582,0.021177,0.0062397,8.8623e-05,0.00063283,0.00092655,0,0,0.061676,-0.0059863,0,0.020384,0,0,0,0.0063762,-4.7915e-05,0.00063283,8.3829,0.0023204,0.0061123,1.1239e-08,0.34,0.06,0
0.030786,0.022278,0.0059513,0.00011089,0.00060622,0.00087473,0,0,0.058796,-0.0054487,0,0.019244,0,0,0,0.0060795,-1.7309e-05,0.00060622,8.3376,0.0022228,0.0058102,9.6839e-09,0.36,0.06,0
0.031933,0.023324,0.0056707,0.00013239,0.00058031,0.00081182,0,0,0.055994,-0.0049271,0,0.01786,0,0,0,0.0057872,1.5845e-05,0.00058031,8.1696,0.0021278,0.0055109,8.2925e-09,0.38,0.06,0
0.033026,0.024308,0.0053997,0.00015037,0.00055501,0.00073877,0,0,0.053292,-0.0044511,0,0.016253,0,0,0,0.0055017,4.8376e-05,0.00055501,7.8602,0.002035,0.0052185,7.0675e-09,0.4,0.06,0
0.034065,0.025231,0.0051406,0.00016142,0.0005302,0.00065787,0,0,0.050714,-0.0040566,0,0.014473,0,0,0,0.005226,7.5965e-05,0.0005302,7.401,0.0019441,0.0049386,6.0104e-09,0.42,0.06,0
0.035054,0.026092,0.0048957,0.00016163,0.00050574,0.00057312,0,0,0.04829,-0.0037852,0,0.012609,0,0,0,0.0049641,9.323e-05,0.00050574,6.8054,0.0018544,0.0046783,5.1212e-09,0.44,0.06,0
0.035997,0.026898,0.0046674,0.00014736,0.00048147,0.00049052,0,0,0.046045,-0.0036752,0,0.010792,0,0,0,0.00472,9.4744e-05,0.00048147,6.1229,0.0017654,0.0044445,4.3943e-09,0.46,0.06,0
0.036896,0.027658,0.0044565,0.00011782,0.00045743,0.00041781,0,0,0.04399,-0.0037358,0,0.0091918,0,0,0,0.0044963,7.7948e-05,0.00045743,5.4508,0.0016772,0.0042414,3.8132e-09,0.48,0.06,0
0.037756,0.028386,0.0042619,7.724e-05,0.00043391,0.00036204,0,0,0.042108,-0.0039234,0,0.0079649,0,0,0,0.004293,4.6148e-05,0.00043391,4.9084,0.001591,0.0040669,3.3489e-09,0.5,0.06,0
0.03858,0.029097,0.0040808,3.4454e-05,0.00041153,0.00032691,0,0,0.040362,-0.0041478,0,0.0071921,0,0,0,0.0041071,8.212e-06,0.00041153,4.5894,0.0015089,0.0039128,2.9668e-09,0.52,0.06,0
0.039371,0.029811,0.0039105,-1.7042e-06,0.00039088,0.0003108,0,0,0.038716,-0.0043185,0,0.0068376,0,0,0,0.0039351,-2.6241e-05,0.00039088,4.514,0.0014332,0.0037701,2.639e-09,0.54,0.06,0
0.040129,0.030542,0.0037501,-2.7532e-05,0.00037226,0.00030876,0,0,0.037157,-0.0043977,0,0.0067926,0,0,0,0.0037752,-5.26e-05,0.00037226,4.6418,0.001365,0.0036341,2.3517e-09,0.56,0.06,0
0.040857,0.031303,0.0036008,-4.5463e-05,0.00035553,0.00031597,0,0,0.035698,-0.004411,0,0.0069514,0,0,0,0.003628,-7.2642e-05,0.00035553,4.9162,0.0013036,0.0035062,2.1029e-09,0.58,0.06,0
0.041557,0.032102,0.003464,-6.0734e-05,0.00034033,0.00033073,0,0,0.03436,-0.0044117,0,0.0072761,0,0,0,0.0034948,-9.1499e-05,0.00034033,5.3144,0.0012479,0.003391,1.8937e-09,0.6,0.06,0
0.042231,0.032947,0.0033396,-7.6666e-05,0.00032629,0.00035418,0,0,0.033146,-0.0044325,0,0.0077919,0,0,0,0.0033759,-0.000113,0.00032629,5.8571,0.0011964,0.0032913,1.7217e-09,0.62,0.06,0
0.042883,0.033841,0.0032243,-9.2422e-05,0.00031319,0.0003881,0,0,0.032023,-0.0044617,0,0.0085383,0,0,0,0.0032691,-0.00013723,0.00031319,6.5858,0.0011484,0.003205,1.5788e-09,0.64,0.06,0
0.043512,0.034785,0.003113,-0.00010405,0.0003009,0.00043231,0,0,0.030933,-0.0044545,0,0.0095107,0,0,0,0.0031701,-0.00016113,0.0003009,7.5216,0.0011033,0.0031259,1.4539e-09,0.66,0.06,0
0.04412,0.03578,0.0029999,-0.00010757,0.00028923,0.00048366,0,0,0.029817,-0.0043648,0,0.010641,0,0,0,0.0030734,-0.00018111,0.00028923,8.6454,0.0010605,0.0030467,1.3366e-09,0.68,0.06,0
0.044705,0.036819,0.0028805,-0.0001016,0.00027789,0.00053699,0,0,0.028629,-0.0041744,0,0.011814,0,0,0,0.0029742,-0.00019535,0.00027789,9.903,0.0010189,0.0029615,1.2199e-09,0.7,0.06,0
0.045265,0.037894,0.0027524,-8.7789e-05,0.00026646,0.00058707,0,0,0.027345,-0.0038968,0,0.012916,0,0,0,0.002869,-0.00020435,0.00026646,11.23,0.00097703,0.0028671,1.1012e-09,0.72,0.06,0
0.045799,0.038995,0.002615,-6.9353e-05,0.00025457,0.00063003,0,0,0.025965,-0.0035632,0,0.013861,0,0,0,0.0027556,-0.00020986,0.00025457,12.573,0.00093342,0.0027627,9.8056e-10,0.74,0.06,0
0.046304,0.040109,0.002469,-4.9509e-05,0.00024195,0.0006638,0,0,0.024498,-0.003206,0,0.014604,0,0,0,0.0026333,-0.00021375,0.00024195,13.898,0.00088715,0.0026487,8.5995e-10,0.76,0.06,0
0.046779,0.041223,0.0023156,-3.079e-05,0.00022848,0.00068779,0,0,0.022958,-0.002852,0,0.015131,0,0,0,0.0025023,-0.00021754,0.00022848,15.191,0.00083777,0.0025266,7.421e-10,0.78,0.06,0
0.047222,0.042323,0.0021566,-1.5108e-05,0.00021415,0.00070261,0,0,0.021367,-0.0025219,0,0.015458,0,0,0,0.0023641,-0.0002226,0.00021415,16.453,0.00078522,0.0023984,6.3007e-10,0.8,0.06,0
0.047633,0.043396,0.0019941,-3.7853e-06,0.00019903,0.00070976,0,0,0.019746,-0.002231,0,0.015615,0,0,0,0.0022206,-0.00023026,0.00019903,17.697,0.00072978,0.0022669,5.267e-10,0.82,0.06,0
0.048012,0.044431,0.0018302,2.4245e-06,0.00018326,0.00071131,0,0,0.018116,-0.0019892,0,0.015649,0,0,0,0.0020744,-0.00024177,0.00018326,18.948,0.00067195,0.0021356,4.3419e-10,0.84,0.06,0
0.048358,0.045415,0.001667,3.3256e-06,0.00016703,0.0007095,0,0,0.0165,-0.0018008,0,0.015609,0,0,0,0.0019285,-0.00025815,0.00016703,20.231,0.00061246,0.0020081,3.5385e-10,0.86,0.06,0
0.048672,0.04634,0.0015072,-8.8443e-07,0.00015063,0.00070628,0,0,0.014922,-0.0016666,0,0.015538,0,0,0,0.0017863,-0.00028,0.00015063,21.564,0.00055231,0.0018882,2.8604e-10,0.88,0.06,0
0.048955,0.047194,0.001354,-9.7918e-06,0.00013442,0.00070278,0,0,0.013415,-0.0015863,0,0.015461,0,0,0,0.0016513,-0.00030712,0.00013442,22.932,0.00049286,0.0017792,2.3032e-10,0.9,0.06,0
0.049209,0.047968,0.0012124,-2.2739e-05,0.00011896,0.0006985,0,0,0.012027,-0.0015587,0,0.015367,0,0,0,0.0015271,-0.00033754,0.00011896,24.26,0.00043619,0.0016835,1.8566e-10,0.92,0.06,0
0.049436,0.04865,0.0010893,-3.7827e-05,0.00010515,0.0006895,0,0,0.010826,-0.0015727,0,0.015169,0,0,0,0.0014162,-0.00036477,0.00010515,25.369,0.00038554,0.0015987,1.5035e-10,0.94,0.06,0
0.049642,0.049226,0.00098785,-4.8306e-05,9.3954e-05,0.00066742,0,0,0.0098328,-0.0015649,0,0.014683,0,0,0,0.0013147,-0.00037513,9.3954e-05,26.09,0.0003445,0.0015109,1.2128e-10,0.96,0.06,0
0.049829,0.049681,0.00090242,-2.2811e-05,8.796e-05,0.00062325,0,0,0.008959,-0.0012185,0,0.013712,0,0,0,0.001216,-0.00033638,8.796e-05,26.708,0.00032252,0.0013897,9.5744e-11,0.98,0.06,0
0.05,0.05,0.00087273,9.697e-05,9.697e-05,0.00072468,0,0,0.0085334,-3.8218e-17,0,0.015943,0,0,0,0.0013068,-0.00033711,9.697e-05,30.921,0.00035556,0.0014756,1.1814e-10,1,0.06,0
0,0,0.010155,0.0011283,0.0011283,0.0021317,0,0,0.099293,8.8091e-19,0,0.046897,0,0,0,0.010633,0.00065025,0.0011283,12.641,0.0041372,0.0097525,4.7255e-08,0,0.08,0
0.0019859,0.00093793,0.01014,0.0011069,0.0011247,0.0020085,0,0,0.09917,-0.00019585,0,0.044188,0,0,0,0.010567,0.00068044,0.0011247,11.987,0.0041239,0.0096717,4.6136e-08,0.02,0.08,0
0.0039668,0.0020053,0.010088,0.00094082,0.0011029,0.0019991,0,0,0.098836,-0.0017826,0,0.043981,0,0,0,0.010506,0.00052299,0.0011029,11.805,0.0040439,0.0097059,4.6395e-08,0.04,0.08,0
0.0059393,0.0031713,0.0099943,0.00073029,0.0010725,0.0019311,0,0,0.09814,-0.0037639,0,0.042484,0,0,0,0.010381,0.00034386,0.0010725,11.316,0.0039323,0.0096931,4.5885e-08,0.06,0.08,0
0.0078924,0.0044026,0.0098442,0.00054296,0.0010387,0.0018269,0,0,0.09686,-0.0054533,0,0.040192,0,0,0,0.01019,0.000197,0.0010387,10.723,0.0038086,0.0096,4.4264e-08,0.08,0.08,0
0.0098137,0.0056741,0.0096429,0.00039813,0.0010041,0.0017173,0,0,0.095027,-0.0066657,0,0.037781,0,0,0,0.0099516,8.9433e-05,0.0010041,10.191,0.0036817,0.0094381,4.1815e-08,0.1,0.08,0
0.011694,0.0069702,0.0094063,0.00028962,0.00096959,0.0016197,0,0,0.092804,-0.0074797,0,0.035632,0,0,0,0.0096855,1.0425e-05,0.00096959,9.7805,0.0035552,0.0092329,3.8957e-08,0.12,0.08,0
0.013526,0.0082816,0.00915,0.00020889,0.00093589,0.0015399,0,0,0.090355,-0.007997,0,0.033877,0,0,0,0.0094078,-4.8876e-05,0.00093589,9.503,0.0034316,0.0090047,3.5993e-08,0.14,0.08,0
0.015308,0.0096021,0.0088838,0.00014905,0.00090328,0.0014778,0,0,0.087786,-0.0082966,0,0.032513,0,0,0,0.009127,-9.4217e-05,0.00090328,9.3475,0.003312,0.0087652,3.3081e-08,0.16,0.08,0
0.017037,0.010927,0.008613,0.00010536,0.00087183,0.0014313,0,0,0.085152,-0.0084312,0,0.031488,0,0,0,0.0088473,-0.00012897,0.00087183,9.2982,0.0031967,0.0085201,3.0292e-08,0.18,0.08,0
0.018714,0.012251,0.0083401,7.4827e-05,0.00084149,0.001397,0,0,0.082484,-0.0084333,0,0.030733,0,0,0,0.0085698,-0.0001549,0.00084149,9.3384,0.0030855,0.0082716,2.765e-08,0.2,0.08,0
0.020337,0.01357,0.008066,5.5654e-05,0.00081217,0.0013716,0,0,0.079792,-0.0083216,0,0.030174,0,0,0,0.0082944,-0.00017268,0.00081217,9.4518,0.002978,0.0080201,2.5153e-08,0.22,0.08,0
0.021906,0.01488,0.0077909,4.6861e-05,0.00078378,0.0013516,0,0,0.077078,-0.0081061,0,0.029736,0,0,0,0.00802,-0.00018227,0.00078378,9.6214,0.0028738,0.0077645,2.2792e-08,0.24,0.08,0
0.02342,0.016173,0.0075144,4.7908e-05,0.00075623,0.0013337,0,0,0.07434,-0.0077916,0,0.029342,0,0,0,0.0077455,-0.00018317,0.00075623,9.8296,0.0027729,0.0075032,2.0553e-08,0.26,0.08,0
0.024879,0.017445,0.0072362,5.8352e-05,0.00072946,0.0013143,0,0,0.071574,-0.0073821,0,0.028914,0,0,0,0.0074693,-0.00017473,0.00072946,10.056,0.0026747,0.0072344,1.8426e-08,0.28,0.08,0
0.026283,0.018689,0.006956,7.751e-05,0.00070335,0.0012899,0,0,0.068779,-0.0068842,0,0.028379,0,0,0,0.0071899,-0.00015644,0.00070335,10.28,0.0025789,0.0069565,1.6403e-08,0.3,0.08,0
0.02763,0.019896,0.0066739,0.00010413,0.0006778,0.0012575,0,0,0.065957,-0.0063104,0,0.027665,0,0,0,0.0069063,-0.00012835,0.0006778,10.474,0.0024853,0.0066683,1.4481e-08,0.32,0.08,0
0.028921,0.02106,0.0063903,0.00013615,0.00065264,0.0012145,0,0,0.063114,-0.0056815,0,0.026719,0,0,0,0.0066178,-9.1415e-05,0.00065264,10.613,0.002393,0.0063699,1.2666e-08,0.34,0.08,0
0.030155,0.022173,0.0061061,0.00017064,0.00062767,0.0011593,0,0,0.060262,-0.0050273,0,0.025504,0,0,0,0.0063244,-4.774e-05,0.00062767,10.668,0.0023015,0.0060628,1.0968e-08,0.36,0.08,0
0.031331,0.02323,0.0058221,0.00020405,0.00060262,0.0010915,0,0,0.057415,-0.0043843,0,0.024014,0,0,0,0.0060268,-5.7415e-07,0.00060262,10.618,0.0022096,0.0057495,9.4002e-09,0.38,0.08,0
0.032451,0.024226,0.0055394,0.00023234,0.00057718,0.0010122,0,0,0.054585,-0.0037933,0,0.022269,0,0,0,0.0057259,4.5831e-05,0.00057718,10.44,0.0021163,0.005434,7.9758e-09,0.4,0.08,0
0.033515,0.025157,0.0052595,0.00025127,0.00055108,0.00092329,0,0,0.051793,-0.0032979,0,0.020312,0,0,0,0.0054243,8.6483e-05,0.00055108,10.12,0.0020206,0.0051214,6.7079e-09,0.42,0.08,0
0.034523,0.026024,0.0049851,0.00025509,0.00052402,0.0008276,0,0,0.049072,-0.0029583,0,0.018207,0,0,0,0.0051257,0.00011446,0.00052402,9.6434,0.0019214,0.0048195,5.6099e-09,0.44,0.08,0
0.035478,0.026832,0.0047202,0.00023725,0.00049575,0.00073102,0,0,0.046469,-0.0028435,0,0.016082,0,0,0,0.0048364,0.00012105,0.00049575,9.0314,0.0018177,0.0045396,4.6947e-09,0.46,0.08,0
0.036382,0.02759,0.0044686,0.00019353,0.00046621,0.00064219,0,0,0.044026,-0.0029994,0,0.014128,0,0,0,0.004563,9.9151e-05,0.00046621,8.361,0.0017094,0.0042921,3.9609e-09,0.48,0.08,0
0.037239,0.028312,0.0042313,0.00012978,0.00043611,0.00057193,0,0,0.041747,-0.0033697,0,0.012582,0,0,0,0.0043096,5.152e-05,0.00043611,7.7915,0.0015991,0.0040794,3.3824e-09,0.5,0.08,0
0.038052,0.029018,0.0040069,6.2643e-05,0.00040695,0.00052504,0,0,0.039599,-0.0037874,0,0.011551,0,0,0,0.0040756,-6.0502e-06,0.00040695,7.454,0.0014922,0.0038916,2.9123e-09,0.52,0.08,0
0.038823,0.029727,0.003794,9.4635e-06,0.00038035,0.00049844,0,0,0.03755,-0.0040797,0,0.010966,0,0,0,0.0038586,-5.5082e-05,0.00038035,7.3785,0.0013946,0.0037151,2.512e-09,0.54,0.08,0
0.039554,0.030455,0.0035953,-2.3909e-05,0.00035714,0.0004825,0,0,0.03562,-0.0041916,0,0.010615,0,0,0,0.0036585,-8.7129e-05,0.00035714,7.4647,0.0013095,0.0035445,2.1664e-09,0.56,0.08,0
0.040248,0.031215,0.0034172,-4.5493e-05,0.00033717,0.00047066,0,0,0.033881,-0.0042093,0,0.010354,0,0,0,0.0034801,-0.00010833,0.00033717,7.604,0.0012363,0.0033877,1.8809e-09,0.58,0.08,0
0.040909,0.032014,0.0032662,-6.7128e-05,0.00031991,0.00046298,0,0,0.03241,-0.0042574,0,0.010186,0,0,0,0.0033293,-0.00013024,0.00031991,7.7623,0.001173,0.0032579,1.6622e-09,0.6,0.08,0
0.041544,0.032857,0.0031444,-9.5352e-05,0.0003049,0.0004656,0,0,0.031234,-0.0044028,0,0.010243,0,0,0,0.00321,-0.00016094,0.0003049,8.0181,0.001118,0.0031638,1.5083e-09,0.62,0.08,0
0.042158,0.033749,0.0030474,-0.00012738,0.000292,0.00048494,0,0,0.030309,-0.0046132,0,0.010669,0,0,0,0.0031198,-0.00019981,0.000292,8.4939,0.0010707,0.0031031,1.4056e-09,0.64,0.08,0
0.042756,0.034693,0.0029663,-0.00015382,0.00028125,0.00052337,0,0,0.029536,-0.0047858,0,0.011514,0,0,0,0.0030518,-0.00023927,0.00028125,9.2726,0.0010313,0.0030641,1.335e-09,0.66,0.08,0
0.04334,0.035688,0.0028913,-0.00016569,0.00027256,0.00057665,0,0,0.028806,-0.0048207,0,0.012686,0,0,0,0.0029964,-0.00027085,0.00027256,10.335,0.00099938,0.0030323,1.2784e-09,0.68,0.08,0
0.043909,0.03673,0.0028143,-0.00016005,0.00026543,0.00063696,0,0,0.028038,-0.0046803,0,0.014013,0,0,0,0.002945,-0.00029072,0.00026543,11.593,0.00097324,0.0029966,1.2231e-09,0.7,0.08,0
0.044461,0.037812,0.0027311,-0.00014048,0.00025906,0.000696,0,0,0.027192,-0.0043949,0,0.015312,0,0,0,0.0028909,-0.00030028,0.00025906,12.931,0.00094989,0.0029515,1.1623e-09,0.72,0.08,0
0.044996,0.03892,0.0026397,-0.00011295,0.00025267,0.00074838,0,0,0.026257,-0.0040219,0,0.016464,0,0,0,0.00283,-0.00030326,0.00025267,14.268,0.00092647,0.0028956,1.0936e-09,0.74,0.08,0
0.045512,0.040041,0.0025399,-8.2437e-05,0.00024575,0.00079082,0,0,0.025236,-0.00361,0,0.017398,0,0,0,0.0027599,-0.00030246,0.00024575,15.548,0.00090107,0.0028284,1.0165e-09,0.76,0.08,0
0.046006,0.041163,0.0024325,-5.2812e-05,0.00023797,0.00082201,0,0,0.02414,-0.0031986,0,0.018084,0,0,0,0.0026797,-0.00030009,0.00023797,16.742,0.00087254,0.0027506,9.3243e-10,0.78,0.08,0
0.046477,0.04227,0.002319,-2.7131e-05,0.00022919,0.00084186,0,0,0.022988,-0.0028195,0,0.018521,0,0,0,0.0025899,-0.00029795,0.00022919,17.832,0.00084037,0.0026637,8.4392e-10,0.8,0.08,0
0.046925,0.043349,0.0022018,-7.8014e-06,0.0002194,0.00085168,0,0,0.021806,-0.0024992,0,0.018737,0,0,0,0.002492,-0.00029797,0.0002194,18.814,0.00080447,0.0025706,7.5468e-10,0.82,0.08,0
0.04735,0.044388,0.0020832,3.9595e-06,0.00020872,0.00085358,0,0,0.020619,-0.0022523,0,0.018779,0,0,0,0.0023887,-0.00030156,0.00020872,19.694,0.0007653,0.0024749,6.6838e-10,0.84,0.08,0
0.04775,0.045377,0.0019657,8.1113e-06,0.00019738,0.00084984,0,0,0.019452,-0.002082,0,0.018697,0,0,0,0.0022832,-0.00030934,0.00019738,20.483,0.00072374,0.00238,5.8795e-10,0.86,0.08,0
0.048127,0.046303,0.0018519,5.5907e-06,0.00018575,0.00084214,0,0,0.018328,-0.0019818,0,0.018527,0,0,0,0.0021783,-0.00032081,0.00018575,21.186,0.00068109,0.0022883,5.1521e-10,0.88,0.08,0
0.048483,0.047158,0.0017449,-1.8908e-06,0.0001743,0.00083087,0,0,0.017276,-0.0019381,0,0.018279,0,0,0,0.0020769,-0.00033397,0.0001743,21.785,0.00063909,0.0022012,4.5089e-10,0.9,0.08,0
0.048819,0.047932,0.0016479,-1.1541e-05,0.00016363,0.00081446,0,0,0.016327,-0.0019269,0,0.017918,0,0,0,0.0019808,-0.00034449,0.00016363,22.234,0.00059999,0.0021175,3.9458e-10,0.92,0.08,0
0.049136,0.048614,0.0015632,-1.7996e-05,0.00015453,0.00078908,0,0,0.015496,-0.0018977,0,0.01736,0,0,0,0.0018897,-0.00034439,0.00015453,22.472,0.00056659,0.0020311,3.4436e-10,0.94,0.08,0
0.049438,0.049192,0.0014899,-8.6269e-06,0.00014813,0.00074997,0,0,0.014759,-0.0017243,0,0.016499,0,0,0,0.0018008,-0.00031949,0.00014813,22.514,0.00054313,0.0019294,2.9712e-10,0.96,0.08,0
0.049727,0.049657,0.0014225,3.9241e-05,0.00014617,0.00069769,0,0,0.014039,-0.0011762,0,0.015349,0,0,0,0.0017132,-0.00025154,0.00014617,22.625,0.00053596,0.0017992,2.5056e-10,0.98,0.08,0
0.05,0.05,0.0013981,0.00015534,0.00015534,0.00078002,0,0,0.01367,-3.6755e-17,0,0.01716,0,0,0,0.001774,-0.00022055,0.00015534,25.73,0.00056959,0.0018357,2.7333e-10,1,0.08,0
0,0,0.0096321,0.0010702,0.0010702,0.0021299,0,0,0.09418,7.3522e-19,0,0.046858,0,0,0,0.010133,0.00056964,0.0010702,13.226,0.0039242,0.0093228,4.1212e-08,0,0.1,0
0.0018836,0.00093717,0.0096216,0.0010704,0.0010692,0.0020425,0,0,0.094077,1.2937e-05,0,0.044935,0,0,0,0.010084,0.00060757,0.0010692,12.767,0.0039204,0.0092547,4.037e-08,0.02,0.1,0
0.0037631,0.0019801,0.0095867,0.00096392,0.0010551,0.0020578,0,0,0.093848,-0.0010026,0,0.045271,0,0,0,0.010053,0.00049801,0.0010551,12.757,0.0038686,0.0092886,4.0661e-08,0.04,0.1,0
0.0056375,0.0031118,0.0095296,0.00080422,0.0010334,0.0020349,0,0,0.093459,-0.0025208,0,0.044769,0,0,0,0.0099809,0.00035297,0.0010334,12.503,0.0037891,0.0093064,4.0651e-08,0.06,0.1,0
0.0075014,0.0043102,0.0094371,0.000638,0.0010075,0.00198,0,0,0.092725,-0.0040646,0,0.04356,0,0,0,0.0098621,0.00021298,0.0010075,12.115,0.0036942,0.0092774,3.9999e-08,0.08,0.1,0
0.0093465,0.0055554,0.0093056,0.00049075,0.00097963,0.0019091,0,0,0.091585,-0.0053777,0,0.042001,0,0,0,0.0097013,9.5031e-05,0.00097963,11.71,0.003592,0.0091959,3.8697e-08,0.1,0.1,0
0.011165,0.0068325,0.0091403,0.00036979,0.00095101,0.0018372,0,0,0.090082,-0.0063935,0,0.040419,0,0,0,0.0095096,4.8231e-07,0.00095101,11.366,0.003487,0.0090713,3.6923e-08,0.12,0.1,0
0.01295,0.0081309,0.00895,0.00027368,0.00092237,0.001773,0,0,0.088304,-0.0071356,0,0.039007,0,0,0,0.0092984,-7.4669e-05,0.00092237,11.115,0.003382,0.0089164,3.4878e-08,0.14,0.1,0
0.014697,0.0094429,0.0087427,0.00019897,0.00089417,0.0017202,0,0,0.086334,-0.0076472,0,0.037845,0,0,0,0.0090761,-0.00013439,0.00089417,10.967,0.0032786,0.0087417,3.2713e-08,0.16,0.1,0
0.016403,0.010763,0.0085241,0.00014243,0.00086665,0.0016792,0,0,0.084231,-0.0079664,0,0.036942,0,0,0,0.008848,-0.00018147,0.00086665,10.918,0.0031777,0.0085537,3.0521e-08,0.18,0.1,0
0.018066,0.012086,0.0082975,0.00010172,0.00083992,0.0016486,0,0,0.082033,-0.0081202,0,0.03627,0,0,0,0.0086167,-0.00021748,0.00083992,10.958,0.0030797,0.0083558,2.8352e-08,0.2,0.1,0
0.019685,0.013406,0.0080648,7.5368e-05,0.00081402,0.0016264,0,0,0.079759,-0.0081251,0,0.03578,0,0,0,0.0083832,-0.00024301,0.00081402,11.076,0.0029847,0.0081493,2.6226e-08,0.22,0.1,0
0.021257,0.014719,0.0078266,6.2613e-05,0.00078892,0.0016097,0,0,0.077414,-0.0079894,0,0.035412,0,0,0,0.0081471,-0.00025788,0.00078892,11.261,0.0028927,0.0079335,2.4148e-08,0.24,0.1,0
0.022781,0.016018,0.0075827,6.3102e-05,0.00076458,0.0015954,0,0,0.075,-0.0077163,0,0.035099,0,0,0,0.0079072,-0.00026139,0.00076458,11.497,0.0028035,0.007707,2.2113e-08,0.26,0.1,0
0.024257,0.017299,0.0073326,7.6546e-05,0.00074092,0.0015802,0,0,0.072509,-0.0073081,0,0.034765,0,0,0,0.0076618,-0.00025265,0.00074092,11.768,0.0027167,0.0074674,2.0116e-08,0.28,0.1,0
0.025681,0.018552,0.0070757,0.00010227,0.00071779,0.0015605,0,0,0.069937,-0.0067707,0,0.03433,0,0,0,0.0074089,-0.00023099,0.00071779,12.055,0.0026319,0.0072125,1.8151e-08,0.3,0.1,0
0.027054,0.019772,0.0068114,0.00013874,0.00069501,0.0015326,0,0,0.06728,-0.006119,0,0.033718,0,0,0,0.0071466,-0.00019645,0.00069501,12.336,0.0025484,0.0069403,1.6219e-08,0.32,0.1,0
0.028373,0.020949,0.0065397,0.00018309,0.00067228,0.0014937,0,0,0.064542,-0.0053811,0,0.032861,0,0,0,0.0068732,-0.0001504,0.00067228,12.586,0.002465,0.0066506,1.4331e-08,0.34,0.1,0
0.029636,0.022077,0.0062612,0.00023106,0.00064922,0.0014418,0,0,0.061732,-0.0045998,0,0.031719,0,0,0,0.0065882,-9.5925e-05,0.00064922,12.778,0.0023805,0.0063444,1.2508e-08,0.36,0.1,0
0.030842,0.023148,0.005976,0.00027731,0.00062533,0.0013766,0,0,0.058858,-0.0038283,0,0.030285,0,0,0,0.0062911,-3.7805e-05,0.00062533,12.893,0.0022929,0.0060248,1.0774e-08,0.38,0.1,0
0.03199,0.024157,0.0056842,0.00031658,0.00060008,0.0012997,0,0,0.055926,-0.0031185,0,0.028594,0,0,0,0.0059824,1.8424e-05,0.00060008,12.92,0.0022003,0.0056955,9.156e-09,0.4,0.1,0
0.033079,0.025099,0.0053846,0.00034378,0.00057284,0.001213,0,0,0.052929,-0.0025197,0,0.026686,0,0,0,0.0056613,6.7082e-05,0.00057284,12.85,0.0021004,0.0053593,7.6687e-09,0.42,0.1,0
0.034107,0.025974,0.0050786,0.00035538,0.00054339,0.0011184,0,0,0.049887,-0.0020681,0,0.024604,0,0,0,0.00533,0.00010396,0.00054339,12.67,0.0019925,0.0050208,6.3326e-09,0.44,0.1,0
0.035074,0.026784,0.0047705,0.00033997,0.00051104,0.001016,0,0,0.046853,-0.0018818,0,0.022352,0,0,0,0.0049923,0.00011808,0.00051104,12.319,0.0018738,0.0046901,5.1736e-09,0.46,0.1,0
0.035981,0.027538,0.0044689,0.00028605,0.00047549,0.00091669,0,0,0.043928,-0.0020839,0,0.020167,0,0,0,0.004661,9.3969e-05,0.00047549,11.834,0.0017435,0.0043887,4.231e-09,0.48,0.1,0
0.036832,0.028251,0.0041786,0.00019526,0.00043739,0.0008321,0,0,0.041154,-0.0026634,0,0.018306,0,0,0,0.0043454,2.8426e-05,0.00043739,11.337,0.0016037,0.0041278,3.4929e-09,0.5,0.1,0
0.037628,0.028946,0.0038998,9.8712e-05,0.00039985,0.00077534,0,0,0.038499,-0.0033125,0,0.017058,0,0,0,0.0040518,-5.336e-05,0.00039985,11.097,0.0014661,0.0038984,2.9047e-09,0.52,0.1,0
0.038372,0.029648,0.0036333,3.3043e-05,0.00036663,0.00073509,0,0,0.035933,-0.0036695,0,0.016172,0,0,0,0.0037776,-0.00011126,0.00036663,11.107,0.0013443,0.0036733,2.401e-09,0.54,0.1,0
0.039065,0.030375,0.0033864,2.7501e-06,0.00033891,0.00069655,0,0,0.033522,-0.0036978,0,0.015324,0,0,0,0.0035242,-0.00013503,0.00033891,11.189,0.0012427,0.0034467,1.9696e-09,0.56,0.1,0
0.039712,0.031135,0.0031745,-1.2658e-05,0.00031618,0.00064888,0,0,0.031441,-0.0036172,0,0.014275,0,0,0,0.0033015,-0.0001397,0.00031618,11.078,0.0011593,0.0032374,1.6268e-09,0.58,0.1,0
0.040322,0.031932,0.0030104,-3.8493e-05,0.00029719,0.00059875,0,0,0.029845,-0.0036925,0,0.013173,0,0,0,0.0031238,-0.00015186,0.00029719,10.722,0.0010897,0.0030758,1.3877e-09,0.6,0.1,0
0.040906,0.032771,0.0028986,-8.4708e-05,0.00028139,0.00056034,0,0,0.028789,-0.0040271,0,0.012327,0,0,0,0.0030004,-0.00018648,0.00028139,10.294,0.0010318,0.0029806,1.2477e-09,0.62,0.1,0
0.041474,0.033656,0.0028321,-0.00014469,0.00026874,0.0005488,0,0,0.028197,-0.0045477,0,0.012074,0,0,0,0.00293,-0.00024265,0.00026874,10.12,0.00098537,0.0029504,1.1866e-09,0.64,0.1,0
0.042034,0.034594,0.0027954,-0.0001996,0.00025958,0.00057041,0,0,0.027894,-0.005051,0,0.012549,0,0,0,0.0029004,-0.00030456,0.00025958,10.426,0.00095181,0.0029634,1.175e-09,0.66,0.1,0
0.04259,0.035587,0.0027722,-0.00022882,0.00025433,0.00062121,0,0,0.027696,-0.0053147,0,0.013667,0,0,0,0.0028957,-0.00035233,0.00025433,11.245,0.00093256,0.0029912,1.1862e-09,0.68,0.1,0
0.043142,0.036631,0.0027492,-0.00022707,0.00025221,0.00068641,0,0,0.027467,-0.0052721,0,0.015101,0,0,0,0.0028999,-0.00037775,0.00025221,12.381,0.00092477,0.0030124,1.1997e-09,0.7,0.1,0
0.043688,0.037718,0.0027193,-0.00020316,0.00025161,0.00075488,0,0,0.027144,-0.0050025,0,0.016607,0,0,0,0.0029027,-0.00038663,0.00025161,13.661,0.00092258,0.0030212,1.2061e-09,0.72,0.1,0
0.044228,0.038834,0.0026794,-0.00016684,0.00025126,0.00081771,0,0,0.02671,-0.0045991,0,0.01799,0,0,0,0.0028976,-0.00038504,0.00025126,14.94,0.00092129,0.0030153,1.1994e-09,0.74,0.1,0
0.044757,0.039965,0.0026282,-0.00012495,0.00025032,0.00087116,0,0,0.026156,-0.004128,0,0.019165,0,0,0,0.0028807,-0.00037745,0.00025032,16.164,0.00091785,0.002994,1.1767e-09,0.76,0.1,0
0.045274,0.041095,0.0025662,-8.1887e-05,0.00024843,0.00091143,0,0,0.025495,-0.0036335,0,0.020051,0,0,0,0.0028496,-0.00036526,0.00024843,17.271,0.00091091,0.0029561,1.1364e-09,0.78,0.1,0
0.045777,0.04221,0.0024956,-4.3371e-05,0.00024523,0.00093755,0,0,0.024754,-0.0031746,0,0.020626,0,0,0,0.0028043,-0.00035204,0.00024523,18.223,0.00089916,0.0029041,1.0808e-09,0.8,0.1,0
0.046264,0.043296,0.0024198,-1.3376e-05,0.00024065,0.00095059,0,0,0.023971,-0.0027942,0,0.020913,0,0,0,0.0027472,-0.00034071,0.00024065,19.001,0.00088237,0.0028421,1.0148e-09,0.82,0.1,0
0.046735,0.044341,0.0023419,6.2067e-06,0.00023481,0.0009531,0,0,0.023178,-0.0025146,0,0.020968,0,0,0,0.0026814,-0.00033335,0.00023481,19.609,0.00086096,0.0027747,9.4394e-10,0.84,0.1,0
0.047191,0.045332,0.0022643,1.5782e-05,0.00022801,0.00094768,0,0,0.022399,-0.0023345,0,0.020849,0,0,0,0.0026104,-0.00033035,0.00022801,20.064,0.00083602,0.0027051,8.7249e-10,0.86,0.1,0
0.047632,0.046261,0.0021891,1.7459e-05,0.00022066,0.00093604,0,0,0.021653,-0.0022352,0,0.020593,0,0,0,0.0025369,-0.0003303,0.00022066,20.381,0.00080909,0.0026353,8.032e-10,0.88,0.1,0
0.048057,0.047116,0.0021184,1.4633e-05,0.0002133,0.0009184,0,0,0.020956,-0.0021853,0,0.020205,0,0,0,0.0024629,-0.00032988,0.0002133,20.562,0.00078209,0.0025647,7.3709e-10,0.9,0.1,0
0.04847,0.047891,0.0020533,1.2128e-05,0.00020654,0.00089335,0,0,0.020314,-0.0021385,0,0.019654,0,0,0,0.002389,-0.00032363,0.00020654,20.599,0.00075731,0.0024903,6.7357e-10,0.92,0.1,0
0.04887,0.048574,0.001994,1.7376e-05,0.00020114,0.00085853,0,0,0.019721,-0.0020214,0,0.018888,0,0,0,0.0023148,-0.00030345,0.00020114,20.49,0.0007375,0.002406,6.1061e-10,0.94,0.1,0
0.049259,0.049157,0.0019385,4.1739e-05,0.00019803,0.00081277,0,0,0.019145,-0.0017192,0,0.017881,0,0,0,0.0022391,-0.00025888,0.00019803,20.298,0.00072609,0.0023038,5.4567e-10,0.96,0.1,0
0.049636,0.049634,0.0018833,9.9614e-05,0.00019829,0.00075936,0,0,0.018535,-0.0010855,0,0.016706,0,0,0,0.0021628,-0.00017987,0.00019829,20.206,0.00072708,0.0021784,4.7742e-10,0.98,0.1,0
0.05,0.05,0.0018629,0.00020699,0.00020699,0.00083161,0,0,0.018215,8.267e-17,0,0.018295,0,0,0,0.0022084,-0.00013855,0.00020699,22.563,0.00075896,0.0021947,4.9789e-10,1,0.1,0
0,0,0.0092205,0.0010245,0.0010245,0.0021328,0,0,0.090156,9.8933e-19,0,0.046923,0,0,0,0.0097423,0.0005027,0.0010245,13.748,0.0037565,0.0089901,3.6894e-08,0,0.12,0
0.0018031,0.00093845,0.009213,0.0010301,0.0010243,0.0020674,0,0,0.090076,6.3324e-05,0,0.045483,0,0,0,0.0097057,0.0005374,0.0010243,13.404,0.0037558,0.0089348,3.6267e-08,0.02,0.12,0
0.003603,0.0019652,0.0091892,0.00095591,0.0010145,0.0020937,0,0,0.089922,-0.00064467,0,0.046062,0,0,0,0.009691,0.00045407,0.0010145,13.479,0.0037199,0.0089699,3.6579e-08,0.04,0.12,0
0.0054,0.0030705,0.0091534,0.00083247,0.00099859,0.0020969,0,0,0.089703,-0.0018273,0,0.046132,0,0,0,0.009652,0.00033391,0.00099859,13.374,0.0036615,0.0090042,3.6805e-08,0.06,0.12,0
0.0071912,0.00424,0.0090955,0.00069044,0.0009786,0.0020759,0,0,0.089286,-0.0031697,0,0.04567,0,0,0,0.0095803,0.00020569,0.0009786,13.144,0.0035882,0.009013,3.6673e-08,0.08,0.12,0
0.0089714,0.005459,0.00901,0.00055206,0.00095621,0.0020381,0,0,0.088592,-0.0044456,0,0.044837,0,0,0,0.0094755,8.6584e-05,0.00095621,12.865,0.0035061,0.0089857,3.6089e-08,0.1,0.12,0
0.010735,0.0067145,0.0088969,0.00042885,0.00093257,0.0019931,0,0,0.087608,-0.0055409,0,0.043848,0,0,0,0.0093425,-1.6792e-05,0.00093257,12.604,0.0034194,0.0089226,3.5095e-08,0.12,0.12,0
0.012476,0.0079962,0.00876,0.00032474,0.00090847,0.0019489,0,0,0.086366,-0.006421,0,0.042876,0,0,0,0.0091885,-0.00010378,0.00090847,12.401,0.003331,0.0088297,3.3795e-08,0.14,0.12,0
0.01419,0.0092962,0.0086041,0.00023987,0.00088439,0.0019104,0,0,0.084916,-0.0070897,0,0.042029,0,0,0,0.0090197,-0.00017582,0.00088439,12.276,0.0032428,0.008714,3.2294e-08,0.16,0.12,0
0.015872,0.010608,0.0084336,0.00017317,0.00086068,0.0018798,0,0,0.083302,-0.0075626,0,0.041355,0,0,0,0.0088413,-0.00023447,0.00086068,12.236,0.0031558,0.0085807,3.0674e-08,0.18,0.12,0
0.017522,0.011926,0.0082518,0.00012355,0.00083753,0.0018573,0,0,0.081557,-0.0078538,0,0.04086,0,0,0,0.008656,-0.00028073,0.00083753,12.28,0.0030709,0.0084334,2.8988e-08,0.2,0.12,0
0.019135,0.013245,0.0080603,9.0288e-05,0.00081506,0.001842,0,0,0.079698,-0.0079725,0,0.040524,0,0,0,0.0084654,-0.00031484,0.00081506,12.404,0.0029886,0.0082734,2.7266e-08,0.22,0.12,0
0.020709,0.01456,0.0078599,7.318e-05,0.00079331,0.0018323,0,0,0.077733,-0.0079215,0,0.04031,0,0,0,0.0082695,-0.00033641,0.00079331,12.601,0.0029088,0.0081004,2.5518e-08,0.24,0.12,0
0.022244,0.015865,0.0076504,7.2341e-05,0.00077227,0.0018255,0,0,0.075659,-0.0076992,0,0.040162,0,0,0,0.0080672,-0.0003445,0.00077227,12.862,0.0028317,0.0079127,2.3745e-08,0.26,0.12,0
0.023736,0.017153,0.0074306,8.792e-05,0.00075186,0.0018188,0,0,0.073467,-0.0073033,0,0.040015,0,0,0,0.0078565,-0.00033792,0.00075186,13.177,0.0027568,0.0077075,2.194e-08,0.28,0.12,0
0.025183,0.018418,0.0071995,0.0001196,0.00073191,0.0018086,0,0,0.071144,-0.0067355,0,0.039789,0,0,0,0.0076348,-0.00031565,0.00073191,13.531,0.0026837,0.0074819,2.0096e-08,0.3,0.12,0
0.026582,0.019651,0.006956,0.00016585,0.00071218,0.0017908,0,0,0.068682,-0.0060096,0,0.039398,0,0,0,0.0073993,-0.00027751,0.00071218,13.905,0.0026113,0.007233,1.8214e-08,0.32,0.12,0
0.02793,0.020845,0.0066995,0.00022322,0.00069227,0.0017619,0,0,0.066079,-0.0051596,0,0.038762,0,0,0,0.0071478,-0.00022508,0.00069227,14.275,0.0025383,0.0069597,1.6304e-08,0.34,0.12,0
0.029225,0.021989,0.0064304,0.00028566,0.00067161,0.0017193,0,0,0.063347,-0.0042454,0,0.037824,0,0,0,0.0068787,-0.00016266,0.00067161,14.615,0.0024626,0.0066635,1.4396e-08,0.36,0.12,0
0.030464,0.023077,0.0061493,0.00034545,0.00064948,0.0016629,0,0,0.060498,-0.0033443,0,0.036585,0,0,0,0.0065921,-9.725e-05,0.00064948,14.907,0.0023814,0.0063489,1.2533e-08,0.38,0.12,0
0.031645,0.024101,0.0058552,0.00039423,0.00062494,0.0015955,0,0,0.057533,-0.0025378,0,0.035101,0,0,0,0.0062872,-3.775e-05,0.00062494,15.15,0.0022914,0.006021,1.0754e-08,0.4,0.12,0
0.032765,0.025056,0.0055451,0.00042786,0.00059729,0.0015225,0,0,0.054425,-0.0018638,0,0.033496,0,0,0,0.0059638,9.1233e-06,0.00059729,15.378,0.0021901,0.0056834,9.0893e-09,0.42,0.12,0
0.033822,0.025941,0.0052076,0.00044155,0.00056491,0.0014441,0,0,0.051069,-0.0013569,0,0.03177,0,0,0,0.005611,3.8136e-05,0.00056491,15.608,0.0020713,0.005329,7.517e-09,0.44,0.12,0
0.034808,0.026757,0.0048485,0.00044441,0.00052929,0.0013614,0,0,0.047511,-0.00093365,0,0.029952,0,0,0,0.0052354,5.7526e-05,0.00052929,15.864,0.0019407,0.0049588,6.072e-09,0.46,0.12,0
0.035722,0.027506,0.0044758,0.00039331,0.00048691,0.0012561,0,0,0.043877,-0.0010295,0,0.027635,0,0,0,0.0048313,3.7783e-05,0.00048691,15.804,0.0017853,0.0045855,4.7921e-09,0.48,0.12,0
0.036563,0.028205,0.0041072,0.00027271,0.00043799,0.0011687,0,0,0.040362,-0.0018181,0,0.025711,0,0,0,0.0044353,-5.5396e-05,0.00043799,15.682,0.001606,0.0042655,3.8067e-09,0.5,0.12,0
0.037337,0.028885,0.0037483,0.00014102,0.00038893,0.0010956,0,0,0.036953,-0.002727,0,0.024104,0,0,0,0.004055,-0.00016567,0.00038893,15.638,0.0014261,0.0039725,3.0092e-09,0.52,0.12,0
0.038041,0.02958,0.0034012,7.3952e-05,0.00034752,0.0010416,0,0,0.033591,-0.0030092,0,0.022915,0,0,0,0.0037004,-0.00022522,0.00034752,16.025,0.0012742,0.0036729,2.3375e-09,0.54,0.12,0
0.03868,0.030308,0.0030898,7.6096e-05,0.00031659,0.00095823,0,0,0.030506,-0.0026455,0,0.021081,0,0,0,0.0033687,-0.00020277,0.00031659,16.226,0.0011608,0.0033422,1.7624e-09,0.56,0.12,0
0.039261,0.031071,0.0028356,7.5686e-05,0.00029112,0.00084963,0,0,0.027989,-0.0023698,0,0.018692,0,0,0,0.0030761,-0.0001649,0.00029112,15.81,0.0010674,0.0030388,1.3325e-09,0.58,0.12,0
0.0398,0.031866,0.0026613,4.7008e-05,0.00027083,0.00073273,0,0,0.026295,-0.0024621,0,0.01612,0,0,0,0.0028527,-0.00014435,0.00027083,14.636,0.00099305,0.0028125,1.0592e-09,0.6,0.12,0
0.040313,0.032696,0.0025694,-2.0401e-05,0.00025489,0.00062951,0,0,0.025459,-0.0030283,0,0.013849,0,0,0,0.0027143,-0.00016531,0.00025489,12.963,0.00093461,0.0026942,9.2254e-10,0.62,0.12,0
0.040818,0.033567,0.0025478,-0.00012725,0.00024206,0.00056259,0,0,0.025364,-0.0040624,0,0.012377,0,0,0,0.0026613,-0.00024075,0.00024206,11.406,0.00088755,0.0026933,8.9572e-10,0.64,0.12,0
0.041328,0.034491,0.002577,-0.0002341,0.00023429,0.00055552,0,0,0.02577,-0.0051523,0,0.012221,0,0,0,0.0026828,-0.00033989,0.00023429,10.783,0.00085907,0.0027804,9.4723e-10,0.66,0.12,0
0.041849,0.035475,0.0026274,-0.00029724,0.00023302,0.00059693,0,0,0.026338,-0.0058328,0,0.013133,0,0,0,0.0027446,-0.00041439,0.00023302,11.103,0.00085439,0.0028901,1.0332e-09,0.68,0.12,0
0.042381,0.03652,0.0026779,-0.00030415,0.00023738,0.00067213,0,0,0.026846,-0.0059568,0,0.014787,0,0,0,0.0028224,-0.00044864,0.00023738,12.132,0.00087038,0.0029877,1.1301e-09,0.7,0.12,0
0.042923,0.037611,0.0027173,-0.00027791,0.00024394,0.00075183,0,0,0.027207,-0.0057404,0,0.01654,0,0,0,0.0028955,-0.00045604,0.00024394,13.329,0.00089445,0.0030621,1.2189e-09,0.72,0.12,0
0.04347,0.038736,0.0027382,-0.00023741,0.00025008,0.00083376,0,0,0.02737,-0.0053624,0,0.018343,0,0,0,0.0029559,-0.0004551,0.00025008,14.633,0.00091697,0.0031188,1.2936e-09,0.74,0.12,0
0.044018,0.039876,0.0027401,-0.00018096,0.00025591,0.00090452,0,0,0.027326,-0.0048056,0,0.019899,0,0,0,0.0029975,-0.00043837,0.00025591,15.885,0.00093833,0.0031467,1.3413e-09,0.76,0.12,0
0.044562,0.041017,0.0027221,-0.00012054,0.00026016,0.00095873,0,0,0.027082,-0.0041877,0,0.021092,0,0,0,0.0030153,-0.00041367,0.00026016,17,0.00095391,0.0031466,1.356e-09,0.78,0.12,0
0.045101,0.042143,0.0026911,-6.4861e-05,0.00026262,0.00099354,0,0,0.026713,-0.0036023,0,0.021858,0,0,0,0.0030119,-0.00038569,0.00026262,17.896,0.00096295,0.0031243,1.3418e-09,0.8,0.12,0
0.045631,0.043237,0.0026522,-2.1e-05,0.00026312,0.0010111,0,0,0.02628,-0.0031253,0,0.022244,0,0,0,0.0029915,-0.00036034,0.00026312,18.553,0.00096477,0.0030877,1.3066e-09,0.82,0.12,0
0.046152,0.044288,0.0026097,8.6676e-06,0.00026184,0.0010151,0,0,0.025826,-0.0027849,0,0.022333,0,0,0,0.002959,-0.00034061,0.00026184,18.987,0.00096006,0.0030434,1.2587e-09,0.84,0.12,0
0.046664,0.045283,0.0025659,2.5435e-05,0.00025914,0.0010093,0,0,0.025375,-0.0025707,0,0.022205,0,0,0,0.0029181,-0.00032675,0.00025914,19.235,0.00095017,0.0029952,1.204e-09,0.86,0.12,0
0.047167,0.046214,0.0025223,3.312e-05,0.00025554,0.0009959,0,0,0.024934,-0.0024466,0,0.02191,0,0,0,0.0028717,-0.00031628,0.00025554,19.333,0.00093698,0.002944,1.1456e-09,0.88,0.12,0
0.047661,0.047071,0.0024794,3.6887e-05,0.00025163,0.00097528,0,0,0.024506,-0.0023622,0,0.021456,0,0,0,0.0028211,-0.00030475,0.00025163,19.305,0.00092265,0.0028881,1.0841e-09,0.9,0.12,0
0.048147,0.047846,0.0024375,4.2975e-05,0.00024805,0.00094666,0,0,0.024084,-0.0022558,0,0.020827,0,0,0,0.0027665,-0.00028607,0.00024805,19.166,0.00090951,0.0028237,1.0183e-09,0.92,0.12,0
0.048625,0.048533,0.0023958,5.8964e-05,0.00024547,0.00090902,0,0,0.023653,-0.0020516,0,0.019998,0,0,0,0.0027077,-0.00025299,0.00024547,18.941,0.00090007,0.0027457,9.4604e-10,0.94,0.12,0
0.049093,0.049124,0.0023527,9.3743e-05,0.00024465,0.00086281,0,0,0.023189,-0.00166,0,0.018982,0,0,0,0.0026446,-0.0001981,0.00024465,18.688,0.00089704,0.0026492,8.6569e-10,0.96,0.12,0
0.049552,0.049613,0.0023066,0.00015599,0.00024626,0.00081181,0,0,0.022664,-0.00099294,0,0.01786,0,0,0,0.0025786,-0.00011604,0.00024626,18.526,0.00090295,0.002533,7.7747e-10,0.98,0.12,0
0.05,0.05,0.0022892,0.00025435,0.00025435,0.0008787,0,0,0.022383,2.1413e-16,0,0.019331,0,0,0,0.0026161,-7.2572e-05,0.00025435,20.408,0.00093263,0.002541,7.9584e-10,1,0.12,0
0,0,0.0088864,0.00098737,0.00098737,0.0021357,0,0,0.086889,2.2722e-19,0,0.046985,0,0,0,0.0094268,0.00044692,0.00098737,14.201,0.0036204,0.0087222,3.364e-08,0,0.14,0
0.0017378,0.0009397,0.0088816,0.00099024,0.00098718,0.0020848,0,0,0.086838,3.3622e-05,0,0.045865,0,0,0,0.0093985,0.00047333,0.00098718,13.925,0.0036197,0.0086797,3.3187e-08,0.02,0.14,0
0.0034735,0.0019544,0.0088667,0.00093271,0.00097994,0.002116,0,0,0.086754,-0.00051955,0,0.046552,0,0,0,0.0093957,0.00040365,0.00097994,14.038,0.0035931,0.0087182,3.3532e-08,0.04,0.14,0
0.0052079,0.0030387,0.0088454,0.00083301,0.00096784,0.0021341,0,0,0.086653,-0.0014831,0,0.04695,0,0,0,0.0093784,0.00030004,0.00096784,14.022,0.0035487,0.0087635,3.3891e-08,0.06,0.14,0
0.0069397,0.0041834,0.0088105,0.00071134,0.00095218,0.0021355,0,0,0.086441,-0.0026493,0,0.046981,0,0,0,0.009339,0.00018278,0.00095218,13.902,0.0034913,0.0087968,3.4062e-08,0.08,0.14,0
0.0086656,0.0053776,0.0087567,0.00058491,0.00093416,0.0021226,0,0,0.086048,-0.0038417,0,0.046696,0,0,0,0.0092751,6.648e-05,0.00093416,13.726,0.0034252,0.0088069,3.3937e-08,0.1,0.14,0
0.010382,0.0066109,0.008682,0.0004653,0.00091473,0.002101,0,0,0.08544,-0.0049437,0,0.046221,0,0,0,0.009188,-4.0736e-05,0.00091473,13.542,0.003354,0.0087901,3.3496e-08,0.12,0.14,0
0.012083,0.007874,0.0085872,0.00035877,0.0008946,0.0020765,0,0,0.084619,-0.0058942,0,0.045684,0,0,0,0.0090816,-0.00013557,0.0008946,13.39,0.0032802,0.0087477,3.2778e-08,0.14,0.14,0
0.013766,0.0091593,0.0084749,0.00026804,0.00087429,0.0020539,0,0,0.083607,-0.0066688,0,0.045186,0,0,0,0.0089602,-0.00021728,0.00087429,13.295,0.0032057,0.0086833,3.1842e-08,0.16,0.14,0
0.015427,0.01046,0.0083476,0.00019403,0.00085417,0.0020359,0,0,0.082428,-0.0072615,0,0.04479,0,0,0,0.0088277,-0.00028606,0.00085417,13.268,0.0031319,0.0086005,3.0746e-08,0.18,0.14,0
0.017063,0.011771,0.0082077,0.00013703,0.00083448,0.002024,0,0,0.081106,-0.0076719,0,0.044527,0,0,0,0.0086869,-0.0003421,0.00083448,13.318,0.0030597,0.0085019,2.9535e-08,0.2,0.14,0
0.018672,0.013087,0.0080566,9.731e-05,0.0008154,0.0020183,0,0,0.079654,-0.0078989,0,0.044402,0,0,0,0.0085392,-0.00038522,0.0008154,13.446,0.0029898,0.0083888,2.8237e-08,0.22,0.14,0
0.02025,0.014402,0.0078947,7.54e-05,0.00079701,0.0020181,0,0,0.078075,-0.0079378,0,0.044398,0,0,0,0.0083849,-0.00041472,0.00079701,13.651,0.0029224,0.0082606,2.6863e-08,0.24,0.14,0
0.021795,0.01571,0.0077214,7.2102e-05,0.00077935,0.0020218,0,0,0.076363,-0.0077798,0,0.04448,0,0,0,0.0082229,-0.0004294,0.00077935,13.931,0.0028576,0.0081158,2.5413e-08,0.26,0.14,0
0.023304,0.017006,0.0075353,8.8289e-05,0.00076235,0.0020271,0,0,0.074502,-0.0074147,0,0.044596,0,0,0,0.0080513,-0.00042774,0.00076235,14.282,0.0027953,0.0079511,2.3878e-08,0.28,0.14,0
0.024775,0.018283,0.0073341,0.00012443,0.00074585,0.0020306,0,0,0.072471,-0.0068357,0,0.044674,0,0,0,0.0078667,-0.00040817,0.00074585,14.697,0.0027348,0.0077625,2.2243e-08,0.3,0.14,0
0.026203,0.019531,0.007116,0.00017969,0.00072957,0.0020282,0,0,0.07025,-0.0060487,0,0.04462,0,0,0,0.0076655,-0.00036982,0.00072957,15.16,0.0026751,0.0075459,2.0497e-08,0.32,0.14,0
0.027585,0.020743,0.0068796,0.00025047,0.00071301,0.0020149,0,0,0.067833,-0.0050879,0,0.044327,0,0,0,0.007444,-0.00031389,0.00071301,15.647,0.0026144,0.0072988,1.8644e-08,0.34,0.14,0
0.028916,0.021908,0.0066257,0.00032919,0.00069549,0.0019869,0,0,0.065232,-0.0040292,0,0.043711,0,0,0,0.0072003,-0.00024534,0.00069549,16.128,0.0025501,0.0070226,1.6716e-08,0.36,0.14,0
0.030194,0.023015,0.0063557,0.00040344,0.00067591,0.0019432,0,0,0.062477,-0.0029972,0,0.042751,0,0,0,0.0069339,-0.00017478,0.00067591,16.571,0.0024783,0.0067238,1.4773e-08,0.38,0.14,0
0.031415,0.024055,0.0060718,0.00046126,0.0006533,0.0018897,0,0,0.059603,-0.0021124,0,0.041575,0,0,0,0.0066489,-0.00011588,0.0006533,16.983,0.0023954,0.0064149,1.2903e-08,0.4,0.14,0
0.032578,0.025024,0.0057662,0.00049048,0.00062567,0.001834,0,0,0.056546,-0.0014871,0,0.040349,0,0,0,0.0063411,-8.4444e-05,0.00062567,17.405,0.0022941,0.0061016,1.1136e-08,0.42,0.14,0
0.033677,0.02592,0.0054332,0.00050217,0.00059353,0.0017956,0,0,0.053236,-0.001005,0,0.039503,0,0,0,0.0060177,-8.238e-05,0.00059353,18.033,0.0021763,0.0057918,9.5219e-09,0.44,0.14,0
0.034708,0.026747,0.0050053,0.00047905,0.00054843,0.0017547,0,0,0.049025,-0.00076315,0,0.038602,0,0,0,0.0056058,-0.00012149,0.00054843,18.894,0.0020109,0.0054234,7.7733e-09,0.46,0.14,0
0.035638,0.027497,0.0045357,0.00051558,0.00050513,0.0017401,0,0,0.044337,0.0001149,0,0.038283,0,0,0,0.0051843,-0.000133,0.00050513,20.441,0.0018522,0.0050287,6.1781e-09,0.48,0.14,0
0.036481,0.028178,0.0040283,0.00037327,0.00044016,0.0016068,0,0,0.03947,-0.00073578,0,0.035349,0,0,0,0.0046342,-0.00023263,0.00044016,20.661,0.0016139,0.0045678,4.5389e-09,0.5,0.14,0
0.037217,0.028837,0.003514,0.00015918,0.00036732,0.0015667,0,0,0.034614,-0.0022895,0,0.034467,0,0,0,0.0041319,-0.00045867,0.00036732,21.523,0.0013468,0.0042384,3.4151e-09,0.52,0.14,0
0.037866,0.029528,0.003052,0.00019063,0.00032426,0.0014367,0,0,0.030005,-0.0014699,0,0.031607,0,0,0,0.0036488,-0.00040623,0.00032426,22.56,0.001189,0.0037437,2.3526e-09,0.54,0.14,0
0.038417,0.030269,0.0026404,0.00023231,0.00028727,0.0012618,0,0,0.025885,-0.00060462,0,0.027758,0,0,0,0.0031804,-0.0003077,0.00028727,23.17,0.0010533,0.003232,1.5377e-09,0.56,0.14,0
0.038901,0.03104,0.0023616,0.00024036,0.00026019,0.0010597,0,0,0.023115,-0.00021812,0,0.023312,0,0,0,0.0028002,-0.00019828,0.00026019,22.487,0.00095403,0.0027976,1.0234e-09,0.58,0.14,0
0.039342,0.031834,0.0021904,0.0002056,0.0002396,0.00085958,0,0,0.021459,-0.00037403,0,0.018911,0,0,0,0.0025109,-0.0001149,0.0002396,20.449,0.00087854,0.0024677,7.1844e-10,0.6,0.14,0
0.039759,0.03265,0.0021165,0.00012019,0.00022366,0.00067197,0,0,0.020821,-0.0011382,0,0.014783,0,0,0,0.0023216,-8.4927e-05,0.00022366,16.975,0.0008201,0.002268,5.6196e-10,0.62,0.14,0
0.040175,0.033494,0.0021569,-2.7486e-05,0.00021295,0.0005188,0,0,0.021384,-0.0026447,0,0.011414,0,0,0,0.0022739,-0.00014444,0.00021295,12.704,0.0007808,0.0022609,5.4392e-10,0.64,0.14,0
0.040615,0.034388,0.0022741,-0.00025216,0.00020219,0.00043385,0,0,0.022791,-0.0049978,0,0.0095447,0,0,0,0.0023465,-0.00032459,0.00020219,9.4782,0.00074136,0.0024505,6.3964e-10,0.66,0.14,0
0.041086,0.035353,0.0024389,-0.00037866,0.00020603,0.00048114,0,0,0.024562,-0.0064316,0,0.010585,0,0,0,0.0025188,-0.00045856,0.00020603,9.4283,0.00075542,0.002707,8.1547e-10,0.68,0.14,0
0.041597,0.036393,0.0026025,-0.00038901,0.00022135,0.0005528,0,0,0.026193,-0.006714,0,0.012162,0,0,0,0.0027014,-0.0004879,0.00022135,10.142,0.00081161,0.0029004,1.005e-09,0.7,0.14,0
0.042134,0.037489,0.0027332,-0.00038812,0.00023451,0.00067672,0,0,0.027485,-0.0068489,0,0.014888,0,0,0,0.0028736,-0.00052852,0.00023451,11.721,0.00085986,0.003092,1.2123e-09,0.72,0.14,0
0.042697,0.03862,0.0028351,-0.0003341,0.0002501,0.00079116,0,0,0.028435,-0.0064262,0,0.017405,0,0,0,0.0030217,-0.00052063,0.0002501,13.266,0.00091704,0.0032267,1.3992e-09,0.74,0.14,0
0.043271,0.039772,0.002887,-0.00025884,0.00026281,0.00089364,0,0,0.028866,-0.0057382,0,0.01966,0,0,0,0.0031231,-0.00049498,0.00026281,14.802,0.00096364,0.003305,1.5306e-09,0.76,0.14,0
0.043851,0.040927,0.0029096,-0.00017212,0.00027375,0.00096795,0,0,0.028994,-0.0049045,0,0.021295,0,0,0,0.0031884,-0.00045093,0.00027375,16.068,0.0010037,0.0033365,1.6085e-09,0.78,0.14,0
0.044431,0.042066,0.0029123,-9.3121e-05,0.00028191,0.0010149,0,0,0.028934,-0.0041254,0,0.022327,0,0,0,0.0032229,-0.00040371,0.00028191,17.017,0.0010337,0.003337,1.6402e-09,0.8,0.14,0
0.045009,0.043171,0.0029049,-3.1424e-05,0.00028735,0.0010383,0,0,0.028793,-0.0035065,0,0.022842,0,0,0,0.0032349,-0.00036146,0.00028735,17.634,0.0010536,0.0033199,1.64e-09,0.82,0.14,0
0.045583,0.044229,0.0028922,1.0097e-05,0.00029023,0.0010453,0,0,0.028622,-0.0030815,0,0.022996,0,0,0,0.0032314,-0.00032908,0.00029023,17.977,0.0010642,0.0032948,1.6204e-09,0.84,0.14,0
0.046154,0.045229,0.0028764,3.5e-05,0.00029113,0.0010412,0,0,0.028437,-0.0028175,0,0.022907,0,0,0,0.003217,-0.0003057,0.00029113,18.119,0.0010675,0.0032655,1.5889e-09,0.86,0.14,0
0.04672,0.046163,0.0028576,4.9481e-05,0.00029071,0.0010291,0,0,0.028236,-0.0026535,0,0.02264,0,0,0,0.0031943,-0.00028726,0.00029071,18.119,0.0010659,0.0032316,1.5481e-09,0.88,0.14,0
0.047283,0.047022,0.0028357,6.0513e-05,0.00028962,0.0010096,0,0,0.028007,-0.0025202,0,0.022211,0,0,0,0.0031641,-0.00026789,0.00028962,18.019,0.001062,0.00319,1.497e-09,0.9,0.14,0
0.047841,0.0478,0.0028103,7.512e-05,0.00028854,0.00098227,0,0,0.02774,-0.0023477,0,0.02161,0,0,0,0.0031265,-0.00024108,0.00028854,17.844,0.001058,0.0031365,1.4336e-09,0.92,0.14,0
0.048392,0.048492,0.0027807,0.00010034,0.00028811,0.00094681,0,0,0.027419,-0.0020655,0,0.02083,0,0,0,0.0030815,-0.00020037,0.00028811,17.62,0.0010564,0.0030669,1.3557e-09,0.94,0.14,0
0.048937,0.049091,0.0027462,0.00014282,0.0002889,0.00090412,0,0,0.02703,-0.0016069,0,0.019891,0,0,0,0.0030294,-0.00014037,0.0002889,17.391,0.0010593,0.0029784,1.2625e-09,0.96,0.14,0
0.049474,0.049594,0.0027065,0.00020757,0.0002914,0.00085742,0,0,0.026565,-0.00092212,0,0.018863,0,0,0,0.0029724,-5.8334e-05,0.0002914,17.23,0.0010685,0.0028718,1.1559e-09,0.98,0.14,0
0.05,0.05,0.0026912,0.00029902,0.00029902,0.00092188,0,0,0.026314,1.6133e-16,0,0.020281,0,0,0,0.0030052,-1.5025e-05,0.00029902,18.812,0.0010964,0.0028761,1.1729e-09,1,0.14,0
0,0,0.0086082,0.00095647,0.00095647,0.0021359,0,0,0.084169,5.1923e-19,0,0.04699,0,0,0,0.009164,0.00040063,0.00095647,14.587,0.003507,0.0084991,3.1077e-08,0,0.16,0
0.0016834,0.0009398,0.0086061,0.00095226,0.00095583,0.002095,0,0,0.084152,-3.9326e-05,0,0.046091,0,0,0,0.009142,0.00041632,0.00095583,14.349,0.0035047,0.0084688,3.0769e-08,0.02,0.16,0
0.0033661,0.0019444,0.0085992,0.00090208,0.00095012,0.002128,0,0,0.084139,-0.00052847,0,0.046816,0,0,0,0.0091483,0.00035293,0.00095012,14.47,0.0034838,0.0085125,3.1156e-08,0.04,0.16,0
0.005049,0.0030111,0.0085892,0.00081704,0.00094062,0.0021546,0,0,0.084134,-0.0013594,0,0.047401,0,0,0,0.0091465,0.00025971,0.00094062,14.503,0.003449,0.0085667,3.1602e-08,0.06,0.16,0
0.0067315,0.0041341,0.0085711,0.00071052,0.00092816,0.0021703,0,0,0.084072,-0.002394,0,0.047746,0,0,0,0.0091305,0.00015112,0.00092816,14.454,0.0034033,0.0086171,3.1964e-08,0.08,0.16,0
0.0084118,0.0053053,0.0085405,0.00059535,0.00091358,0.0021751,0,0,0.083896,-0.0035005,0,0.047852,0,0,0,0.0090969,3.8862e-05,0.00091358,14.351,0.0033498,0.008654,3.2142e-08,0.1,0.16,0
0.010087,0.0065167,0.0084949,0.00048157,0.00089765,0.0021718,0,0,0.08357,-0.0045769,0,0.047781,0,0,0,0.0090457,-6.9207e-05,0.00089765,14.23,0.0032914,0.008672,3.2095e-08,0.12,0.16,0
0.011755,0.0077604,0.0084338,0.00037592,0.00088097,0.0021644,0,0,0.083081,-0.0055556,0,0.047618,0,0,0,0.0089784,-0.00016867,0.00088097,14.123,0.0032302,0.00867,3.1824e-08,0.14,0.16,0
0.013411,0.0090294,0.008358,0.00028245,0.00086405,0.0021566,0,0,0.082434,-0.0063975,0,0.047446,0,0,0,0.0088979,-0.00025741,0.00086405,14.054,0.0031682,0.0086493,3.1357e-08,0.16,0.16,0
0.015052,0.010318,0.0082689,0.00020349,0.00084724,0.0021514,0,0,0.081638,-0.0070812,0,0.047331,0,0,0,0.0088068,-0.0003345,0.00084724,14.04,0.0031065,0.0086115,3.0727e-08,0.18,0.16,0
0.016676,0.011619,0.0081678,0.0001405,0.00083083,0.0021506,0,0,0.080707,-0.0075936,0,0.047314,0,0,0,0.0087077,-0.00039937,0.00083083,14.092,0.0030464,0.0085585,2.9967e-08,0.2,0.16,0
0.01828,0.012929,0.0080558,9.4693e-05,0.00081505,0.0021554,0,0,0.079648,-0.0079239,0,0.047418,0,0,0,0.0086018,-0.00045139,0.00081505,14.217,0.0029885,0.0084911,2.9099e-08,0.22,0.16,0
0.019862,0.014242,0.0079328,6.7364e-05,0.00080001,0.0021658,0,0,0.07846,-0.0080591,0,0.047648,0,0,0,0.0084897,-0.00048957,0.00080001,14.421,0.0029334,0.008409,2.8133e-08,0.24,0.16,0
0.021419,0.015553,0.007798,6.0071e-05,0.00078581,0.0021814,0,0,0.077134,-0.0079831,0,0.04799,0,0,0,0.0083706,-0.00051251,0.00078581,14.707,0.0028813,0.0083103,2.7067e-08,0.26,0.16,0
0.022947,0.016856,0.0076494,7.4569e-05,0.0007724,0.0022007,0,0,0.075647,-0.0076761,0,0.048415,0,0,0,0.0082423,-0.00051837,0.0007724,15.079,0.0028321,0.0081919,2.5888e-08,0.28,0.16,0
0.024445,0.018144,0.0074839,0.0001125,0.00075964,0.0022211,0,0,0.073967,-0.0071186,0,0.048865,0,0,0,0.0081015,-0.00050502,0.00075964,15.537,0.0027854,0.008049,2.4569e-08,0.3,0.16,0
0.025906,0.019409,0.007298,0.00017458,0.00074726,0.0022384,0,0,0.072058,-0.0062995,0,0.049246,0,0,0,0.007943,-0.00047042,0.00074726,16.074,0.00274,0.0078755,2.3079e-08,0.32,0.16,0
0.027327,0.020641,0.0070889,0.00025878,0.00073477,0.0022465,0,0,0.069896,-0.0052359,0,0.049423,0,0,0,0.0077616,-0.00041388,0.00073477,16.669,0.0026942,0.007666,2.1397e-08,0.34,0.16,0
0.028702,0.021828,0.0068564,0.00035622,0.00072127,0.0022381,0,0,0.067487,-0.0040155,0,0.049238,0,0,0,0.0075525,-0.00033985,0.00072127,17.276,0.0026446,0.0074189,1.9534e-08,0.36,0.16,0
0.030026,0.022957,0.0066061,0.00045079,0.00070569,0.0022105,0,0,0.064905,-0.0028039,0,0.048632,0,0,0,0.0073177,-0.0002608,0.00070569,17.844,0.0025875,0.0071445,1.758e-08,0.38,0.16,0
0.031298,0.024016,0.0063406,0.00051512,0.00068557,0.0021662,0,0,0.062205,-0.0018749,0,0.047657,0,0,0,0.0070578,-0.00020209,0.00068557,18.319,0.0025137,0.0068593,1.5643e-08,0.4,0.16,0
0.032515,0.024996,0.006073,0.00054184,0.00066148,0.0021313,0,0,0.059527,-0.0013161,0,0.046888,0,0,0,0.0067989,-0.0001841,0.00066148,18.809,0.0024255,0.006601,1.3959e-08,0.42,0.16,0
0.033679,0.025901,0.0057634,0.00050079,0.00062642,0.0021071,0,0,0.056507,-0.0013819,0,0.046355,0,0,0,0.006503,-0.00023888,0.00062642,19.343,0.0022969,0.0063536,1.2353e-08,0.44,0.16,0
0.034775,0.026726,0.0054671,0.00049073,0.00059578,0.00219,0,0,0.053584,-0.0011556,0,0.048179,0,0,0,0.0062936,-0.00033576,0.00059578,20.676,0.0021845,0.0062161,1.1408e-08,0.46,0.16,0
0.035823,0.027511,0.0047379,0.00032589,0.00050637,0.0022035,0,0,0.046546,-0.0019854,0,0.048476,0,0,0,0.0056498,-0.00058609,0.00050637,22.484,0.0018567,0.0057678,8.6753e-09,0.48,0.16,0
0.036637,0.028176,0.0039485,0.00046672,0.00044152,0.0026889,0,0,0.038577,0.00027718,0,0.059155,0,0,0,0.0054108,-0.00099563,0.00044152,28.54,0.0016189,0.0058225,8.0934e-09,0.5,0.16,0
0.037366,0.028793,0.003166,0.0003857,0.00035517,0.0022057,0,0,0.030919,0.00033581,0,0.048525,0,0,0,0.0043831,-0.00083134,0.00035517,28.889,0.0013023,0.004734,4.3166e-09,0.52,0.16,0
0.037873,0.029521,0.0023574,0.00046638,0.00028238,0.0018826,0,0,0.022825,0.002024,0,0.041418,0,0,0,0.0035186,-0.00069483,0.00028238,31.666,0.0010354,0.0038198,2.2433e-09,0.54,0.16,0
0.038279,0.030283,0.0019632,0.00049506,0.00024583,0.001545,0,0,0.018891,0.0027416,0,0.033989,0,0,0,0.0029397,-0.00048136,0.00024583,32.293,0.00090138,0.0031216,1.2811e-09,0.56,0.16,0
0.038629,0.031062,0.0017405,0.00048404,0.00022245,0.0012443,0,0,0.016698,0.0028774,0,0.027375,0,0,0,0.0025062,-0.00028167,0.00022245,31.606,0.00081565,0.0025731,7.63e-10,0.58,0.16,0
0.038947,0.031851,0.0016021,0.00043404,0.00020362,0.00097198,0,0,0.015384,0.0025347,0,0.021384,0,0,0,0.002152,-0.00011587,0.00020362,29.5,0.0007466,0.0021263,4.5635e-10,0.6,0.16,0
0.039244,0.032651,0.0015278,0.00033954,0.00018673,0.00071216,0,0,0.014751,0.0016809,0,0.015668,0,0,0,0.0018611,6.2149e-06,0.00018673,25.082,0.00068468,0.0017715,2.7557e-10,0.62,0.16,0
0.039537,0.033461,0.0015486,0.00018475,0.00017333,0.00044732,0,0,0.015128,0.00012562,0,0.0098411,0,0,0,0.0016822,5.1127e-05,0.00017333,16.632,0.00063555,0.0015735,1.9604e-10,0.64,0.16,0
0.03985,0.034291,0.0018361,-7.8103e-05,0.0001758,0.00022808,0,0,0.018263,-0.0027929,0,0.0050179,0,0,0,0.0018629,-0.0001049,0.0001758,6.7021,0.00064459,0.0018435,2.9679e-10,0.66,0.16,0
0.040267,0.035218,0.0021709,-0.0005284,0.00016425,3.7228e-05,0,0,0.022073,-0.0076191,0,0.00081902,0,0,0,0.0021714,-0.00052891,0.00016425,0.79002,0.00060224,0.002429,5.3902e-10,0.68,0.16,0
0.040732,0.036251,0.0025243,-0.00056961,0.00019547,0.00034318,0,0,0.025617,-0.0084159,0,0.00755,0,0,0,0.0025619,-0.00060722,0.00019547,6.2541,0.00071672,0.0028537,8.8292e-10,0.7,0.16,0
0.041292,0.037338,0.0028424,-0.000541,0.00023014,0.00050985,0,0,0.028735,-0.0084826,0,0.011217,0,0,0,0.0029176,-0.00061616,0.00023014,8.3859,0.00084386,0.0031958,1.2884e-09,0.72,0.16,0
0.041882,0.038479,0.0029886,-0.00048084,0.00025078,0.00070066,0,0,0.030116,-0.0080478,0,0.015414,0,0,0,0.0031248,-0.000617,0.00025078,10.997,0.00091952,0.0033922,1.5711e-09,0.74,0.16,0
0.042496,0.039647,0.0030882,-0.00036544,0.00027227,0.00084315,0,0,0.030975,-0.0070148,0,0.018549,0,0,0,0.003283,-0.00056029,0.00027227,13.012,0.00099833,0.0035021,1.7927e-09,0.76,0.16,0
0.043121,0.040821,0.0031391,-0.00024121,0.00028978,0.00094691,0,0,0.031342,-0.0058409,0,0.020832,0,0,0,0.0033862,-0.00048839,0.00028978,14.63,0.0010625,0.0035501,1.931e-09,0.78,0.16,0
0.04375,0.041978,0.0031685,-0.00012859,0.00030399,0.0010075,0,0,0.031509,-0.0047583,0,0.022165,0,0,0,0.0034519,-0.00041208,0.00030399,15.716,0.0011146,0.0035604,2.0056e-09,0.8,0.16,0
0.044381,0.043097,0.0031857,-4.5535e-05,0.00031401,0.001038,0,0,0.031588,-0.003955,0,0.022835,0,0,0,0.0034904,-0.00035023,0.00031401,16.36,0.0011514,0.0035553,2.0392e-09,0.82,0.16,0
0.045014,0.044165,0.003197,8.6154e-06,0.00032057,0.0010494,0,0,0.031641,-0.0034315,0,0.023086,0,0,0,0.0035114,-0.00030575,0.00032057,16.677,0.0011754,0.0035457,2.0508e-09,0.84,0.16,0
0.045647,0.045171,0.0032029,4.1451e-05,0.00032443,0.0010498,0,0,0.031663,-0.0031128,0,0.023096,0,0,0,0.0035197,-0.0002754,0.00032443,16.795,0.0011896,0.0035336,2.0478e-09,0.86,0.16,0
0.04628,0.046108,0.0032025,6.2752e-05,0.00032653,0.0010426,0,0,0.031636,-0.0029015,0,0.022936,0,0,0,0.0035172,-0.0002519,0.00032653,16.794,0.0011973,0.0035157,2.0297e-09,0.88,0.16,0
0.046912,0.04697,0.0031951,8.1084e-05,0.00032762,0.0010282,0,0,0.031543,-0.0027119,0,0.022619,0,0,0,0.003504,-0.00022775,0.00032762,16.719,0.0012013,0.0034874,1.9933e-09,0.9,0.16,0
0.047542,0.047752,0.0031805,0.0001038,0.00032842,0.0010062,0,0,0.031372,-0.0024709,0,0.022136,0,0,0,0.0034803,-0.00019605,0.00032842,16.594,0.0012042,0.0034442,1.9354e-09,0.92,0.16,0
0.048167,0.04845,0.0031583,0.00013724,0.00032955,0.00097653,0,0,0.031116,-0.0021154,0,0.021484,0,0,0,0.0034465,-0.00015092,0.00032955,16.441,0.0012084,0.0033829,1.8537e-09,0.94,0.16,0
0.048786,0.049059,0.0031288,0.00018642,0.00033152,0.00093991,0,0,0.03077,-0.0015961,0,0.020678,0,0,0,0.0034034,-8.82e-05,0.00033152,16.287,0.0012156,0.0033018,1.7484e-09,0.96,0.16,0
0.049398,0.049577,0.0030926,0.00025403,0.00033466,0.00089861,0,0,0.030337,-0.00088699,0,0.019769,0,0,0,0.0033532,-6.5308e-06,0.00033466,16.17,0.0012271,0.0032027,1.6229e-09,0.98,0.16,0
0.05,0.05,0.0030785,0.00034206,0.00034206,0.00096253,0,0,0.030101,7.5894e-19,0,0.021176,0,0,0,0.0033832,3.7411e-05,0.00034206,17.563,0.0012542,0.0032043,1.6384e-09,1,0.16,0
0,0,0.0083712,0.00093014,0.00093014,0.0021321,0,0,0.081852,5.7598e-19,0,0.046906,0,0,0,0.0089388,0.00036252,0.00093014,14.908,0.0034105,0.0083071,2.8979e-08,0,0.18,0
0.001637,0.00093813,0.0083717,0.00091655,0.00092882,0.0020983,0,0,0.081871,-0.00013502,0,0.046162,0,0,0,0.0089217,0.00036656,0.00092882,14.688,0.0034057,0.0082883,2.8789e-08,0.02,0.18,0
0.0032749,0.0019332,0.0083723,0.00086814,0.00092404,0.0021314,0,0,0.081931,-0.00061499,0,0.04689,0,0,0,0.0089354,0.00030503,0.00092404,14.799,0.0033882,0.0083381,2.9221e-08,0.04,0.18,0
0.0049143,0.0029843,0.0083719,0.00079145,0.00091634,0.0021624,0,0,0.082011,-0.0013737,0,0.047572,0,0,0,0.0089453,0.000218,0.00091634,14.853,0.0033599,0.0084,2.9733e-08,0.06,0.18,0
0.0065553,0.0040876,0.008367,0.00069545,0.00090625,0.0021869,0,0,0.082069,-0.0023188,0,0.048111,0,0,0,0.0089466,0.00011584,0.00090625,14.844,0.0033229,0.0084633,3.0221e-08,0.08,0.18,0
0.008197,0.0052376,0.0083544,0.00058948,0.00089439,0.0022036,0,0,0.08206,-0.003354,0,0.04848,0,0,0,0.0089362,7.6919e-06,0.00089439,14.789,0.0032794,0.0085198,3.0606e-08,0.1,0.18,0
0.0098377,0.0064278,0.0083317,0.00048171,0.00088134,0.0022138,0,0,0.081954,-0.004396,0,0.048703,0,0,0,0.008913,-9.9548e-05,0.00088134,14.712,0.0032316,0.0085643,3.0841e-08,0.12,0.18,0
0.011475,0.0076518,0.0082979,0.00037844,0.00086764,0.0022197,0,0,0.081733,-0.0053812,0,0.048833,0,0,0,0.0088776,-0.00020127,0.00086764,14.637,0.0031813,0.0085945,3.0911e-08,0.14,0.18,0
0.013107,0.0089034,0.0082529,0.00028413,0.00085371,0.0022243,0,0,0.081391,-0.0062653,0,0.048935,0,0,0,0.0088317,-0.00029468,0.00085371,14.586,0.0031302,0.0086099,3.0823e-08,0.16,0.18,0
0.014731,0.010177,0.0081973,0.00020189,0.00083992,0.0022302,0,0,0.080931,-0.0070183,0,0.049065,0,0,0,0.0087773,-0.00037812,0.00083992,14.578,0.0030797,0.0086113,3.0596e-08,0.18,0.18,0
0.016344,0.011468,0.0081319,0.00013397,0.00082659,0.0022396,0,0,0.080359,-0.0076188,0,0.04927,0,0,0,0.0087163,-0.00045044,0.00082659,14.625,0.0030308,0.0085997,3.025e-08,0.2,0.18,0
0.017945,0.01277,0.0080572,8.2302e-05,0.00081395,0.0022539,0,0,0.079676,-0.0080482,0,0.049587,0,0,0,0.0086502,-0.00051064,0.00081395,14.739,0.0029845,0.0085756,2.9802e-08,0.22,0.18,0
0.019531,0.01408,0.0079733,4.8828e-05,0.00080221,0.0022743,0,0,0.078882,-0.0082872,0,0.050035,0,0,0,0.0085796,-0.00055752,0.00080221,14.928,0.0029414,0.0085389,2.9261e-08,0.24,0.18,0
0.021101,0.015391,0.0078791,3.5745e-05,0.00079149,0.0023012,0,0,0.077964,-0.0083132,0,0.050627,0,0,0,0.0085044,-0.00058957,0.00079149,15.202,0.0029021,0.0084882,2.8627e-08,0.26,0.18,0
0.02265,0.016699,0.0077727,4.5621e-05,0.00078183,0.0023343,0,0,0.076899,-0.0080983,0,0.051356,0,0,0,0.0084231,-0.00060483,0.00078183,15.57,0.0028667,0.0084207,2.7884e-08,0.28,0.18,0
0.024176,0.017998,0.0076503,8.1353e-05,0.00077316,0.0023725,0,0,0.075648,-0.0076099,0,0.052194,0,0,0,0.0083324,-0.00060082,0.00077316,16.042,0.0028349,0.0083317,2.7001e-08,0.3,0.18,0
0.025676,0.01928,0.0075064,0.0001458,0.00076522,0.0024125,0,0,0.074153,-0.0068136,0,0.053074,0,0,0,0.0082266,-0.00057442,0.00076522,16.623,0.0028058,0.0082136,2.5925e-08,0.32,0.18,0
0.027143,0.020534,0.0073345,0.00024038,0.00075749,0.0024474,0,0,0.072347,-0.0056882,0,0.053844,0,0,0,0.0080969,-0.00052204,0.00075749,17.303,0.0027775,0.0080558,2.4582e-08,0.34,0.18,0
0.02857,0.021747,0.0071332,0.00036137,0.00074946,0.0024668,0,0,0.070221,-0.0042689,0,0.054269,0,0,0,0.0079365,-0.00044191,0.00074946,18.038,0.002748,0.0078508,2.2935e-08,0.36,0.18,0
0.029951,0.022902,0.0069041,0.00048279,0.00073869,0.002456,0,0,0.067819,-0.0028148,0,0.054031,0,0,0,0.0077357,-0.00034883,0.00073869,18.707,0.0027085,0.0075994,2.0992e-08,0.38,0.18,0
0.031282,0.02398,0.0066735,0.00057524,0.00072488,0.0024242,0,0,0.065435,-0.001646,0,0.053333,0,0,0,0.0075198,-0.00027102,0.00072488,19.243,0.0026579,0.0073437,1.9085e-08,0.4,0.18,0
0.032569,0.024972,0.0064243,0.00056582,0.00069901,0.0023685,0,0,0.062978,-0.0014651,0,0.052107,0,0,0,0.007262,-0.00027193,0.00069901,19.479,0.002563,0.0070985,1.7217e-08,0.42,0.18,0
0.033802,0.025864,0.0062623,0.00053524,0.00067975,0.0024022,0,0,0.061408,-0.0015896,0,0.052849,0,0,0,0.0071365,-0.00033894,0.00067975,19.997,0.0024924,0.0070217,1.6526e-08,0.44,0.18,0
0.035025,0.026701,0.0059064,0.00029433,0.00062008,0.0023536,0,0,0.05815,-0.0035832,0,0.051779,0,0,0,0.0067628,-0.00056205,0.00062008,19.994,0.0022736,0.0068112,1.4595e-08,0.46,0.18,0
0.036128,0.027417,0.0064519,0.00035137,0.00068033,0.0028534,0,0,0.063487,-0.0036185,0,0.062775,0,0,0,0.0075785,-0.00077522,0.00068033,21.545,0.0024945,0.0077294,2.0911e-08,0.48,0.18,0
0.037565,0.028189,0.0088662,-0.0002362,0.000863,0.0034354,0,0,0.032219,-0.0013677,0,0.034426,0,0,0,0.010072,-0.0014417,0.000863,20.118,0.0031643,0.010553,7.0063e-08,0.5,0.18,0
0.037813,0.02885,0.0066256,0.0011414,0.0007767,0.0025288,0,0,0.011698,0.0016815,0,0.031595,0,0,0,0.0080296,-0.00026259,0.0007767,26.71,0.0028479,0.0079396,3.7384e-08,0.52,0.18,0
0.038032,0.029609,0.0059782,0.00091169,0.00068899,0.0022337,0,0,0.010578,0.0022171,0,0.025686,0,0,0,0.0071731,-0.00028322,0.00068899,27.175,0.0025263,0.0070817,2.9636e-08,0.54,0.18,0
0.038236,0.030378,0.0055839,0.00084405,0.00064279,0.0017958,0,0,0.0098822,0.0023634,0,0.020384,0,0,0,0.0065038,-7.5867e-05,0.00064279,26.304,0.0023569,0.0062896,2.2999e-08,0.56,0.18,0
0.038428,0.031155,0.0052612,0.00077267,0.00060339,0.0014654,0,0,0.0093157,0.0022765,0,0.016205,0,0,0,0.0059674,6.6474e-05,0.00060339,25.386,0.0022124,0.0056739,1.862e-08,0.58,0.18,0
0.038608,0.031935,0.004915,0.00069036,0.00056054,0.0011856,0,0,0.008709,0.0020189,0,0.012573,0,0,0,0.0054383,0.00016708,0.00056054,24.293,0.0020553,0.005097,1.4844e-08,0.6,0.18,0
0.038776,0.032717,0.0045048,0.00058224,0.0005087,0.00092964,0,0,0.0079921,0.0015685,0,0.0091004,0,0,0,0.0048567,0.00023026,0.0005087,22.634,0.0018652,0.0044971,1.1297e-08,0.62,0.18,0
0.038928,0.033499,0.0039721,0.0004227,0.00043948,0.00066371,0,0,0.0070653,0.00081629,0,0.005312,0,0,0,0.0041466,0.0002482,0.00043948,18.622,0.0016114,0.0038064,7.7665e-09,0.64,0.18,0
0.039059,0.034276,0.0032258,0.0002043,0.00034301,0.00037964,0,0,0.0057655,-0.00048492,0,0.00048202,0,0,0,0.0032836,0.00014645,0.00034301,2.3445,0.0012577,0.003044,4.2829e-09,0.66,0.18,0
0.039159,0.035049,0.0036093,-0.00040275,0.00032065,0.00040231,0,0,0.013683,-0.0034869,0,-0.00031738,0,0,0,0.0036887,-0.00048218,0.00032065,3.3487,0.0011757,0.0038334,3.6044e-09,0.68,0.18,0
0.03978,0.036056,0.002925,-0.00086051,0.00020645,-6.8787e-05,0,0,0.029904,-0.011737,0,-0.0015133,0,0,0,0.0029263,-0.00086176,0.00020645,-1.0407,0.00075699,0.0033829,1.3404e-09,0.7,0.18,0
0.040355,0.037149,0.0030033,-0.00079458,0.00022088,0.00033059,0,0,0.030607,-0.01117,0,0.007273,0,0,0,0.0030319,-0.00082314,0.00022088,4.9378,0.00080988,0.0034535,1.4819e-09,0.72,0.18,0
0.041004,0.038298,0.003248,-0.00067714,0.00025709,0.00055682,0,0,0.0329,-0.010276,0,0.01225,0,0,0,0.0033255,-0.0007546,0.00025709,7.9198,0.00094265,0.00368,1.9224e-09,0.74,0.18,0
0.041671,0.039492,0.0033506,-0.00051791,0.00028327,0.00077121,0,0,0.033741,-0.008813,0,0.016967,0,0,0,0.0034987,-0.00066598,0.00028327,10.869,0.0010387,0.0037805,2.1964e-09,0.76,0.18,0
0.042354,0.040694,0.0034257,-0.0003265,0.00030992,0.00090289,0,0,0.034274,-0.0070007,0,0.019863,0,0,0,0.0036317,-0.00053246,0.00030992,12.85,0.0011364,0.0038134,2.3863e-09,0.78,0.18,0
0.043042,0.041876,0.0034692,-0.00017126,0.0003298,0.00097958,0,0,0.034534,-0.0055116,0,0.021551,0,0,0,0.0037161,-0.00041811,0.0003298,14.144,0.0012093,0.0038156,2.4876e-09,0.8,0.18,0
0.043735,0.043013,0.0035051,-6.367e-05,0.00034414,0.0010161,0,0,0.03477,-0.0044859,0,0.022354,0,0,0,0.0037741,-0.00033269,0.00034414,14.829,0.0012618,0.0038137,2.5489e-09,0.82,0.18,0
0.044433,0.044092,0.0035336,1.184e-06,0.00035348,0.0010341,0,0,0.034981,-0.0038752,0,0.02275,0,0,0,0.003814,-0.00027927,0.00035348,15.174,0.0012961,0.0038165,2.5925e-09,0.84,0.18,0
0.045134,0.045105,0.0035542,4.1105e-05,0.00035953,0.0010425,0,0,0.035141,-0.0035026,0,0.022934,0,0,0,0.0038402,-0.00024494,0.00035953,15.344,0.0013183,0.003819,2.6207e-09,0.86,0.18,0
0.045838,0.046047,0.0035645,6.9244e-05,0.00036338,0.0010436,0,0,0.035213,-0.0032355,0,0.02296,0,0,0,0.0038524,-0.00021866,0.00036338,15.422,0.0013324,0.0038135,2.6262e-09,0.88,0.18,0
0.046543,0.046913,0.0035645,9.4935e-05,0.00036595,0.0010376,0,0,0.035184,-0.0029811,0,0.022827,0,0,0,0.0038511,-0.00019168,0.00036595,15.442,0.0013418,0.0037949,2.6037e-09,0.9,0.18,0
0.047246,0.047702,0.0035546,0.00012558,0.00036802,0.0010239,0,0,0.035052,-0.0026668,0,0.022525,0,0,0,0.003837,-0.00015688,0.00036802,15.423,0.0013494,0.0037591,2.5497e-09,0.92,0.18,0
0.047945,0.048407,0.0035352,0.00016699,0.00037022,0.0010023,0,0,0.034814,-0.0022355,0,0.022051,0,0,0,0.0038109,-0.00010872,0.00037022,15.38,0.0013575,0.0037034,2.4623e-09,0.94,0.18,0
0.048638,0.049027,0.003507,0.00022307,0.000373,0.00097329,0,0,0.034474,-0.0016493,0,0.021413,0,0,0,0.0037738,-4.3724e-05,0.000373,15.329,0.0013677,0.0036271,2.3421e-09,0.96,0.18,0
0.049324,0.049559,0.0034714,0.0002952,0.00037666,0.00093799,0,0,0.034043,-0.00089606,0,0.020636,0,0,0,0.0037278,3.8887e-05,0.00037666,15.284,0.0013811,0.0035321,2.1936e-09,0.98,0.18,0
0.05,0.05,0.0034575,0.00038417,0.00038417,0.0010025,0,0,0.033807,-1.3406e-16,0,0.022055,0,0,0,0.0037556,8.6069e-05,0.00038417,16.56,0.0014086,0.00353,2.2049e-09,1,0.18,0
0,0,0.0081647,0.00090718,0.00090718,0.0021236,0,0,0.079832,3.6592e-19,0,0.04672,0,0,0,0.0087404,0.00033146,0.00090718,15.169,0.0033263,0.0081364,2.7197e-08,0,0.2,0
0.0015966,0.00093439,0.0081676,0.0008832,0.00090508,0.0020946,0,0,0.079888,-0.00024063,0,0.046082,0,0,0,0.008727,0.00032383,0.00090508,14.952,0.0033186,0.0081281,2.7105e-08,0.02,0.2,0
0.0031955,0.0019198,0.0081753,0.00083322,0.00090085,0.0021269,0,0,0.080019,-0.00074395,0,0.046792,0,0,0,0.0087469,0.00026158,0.00090085,15.043,0.0033031,0.0081845,2.7579e-08,0.04,0.2,0
0.0047974,0.0029562,0.0081833,0.00076069,0.0008944,0.0021598,0,0,0.080178,-0.0014708,0,0.047515,0,0,0,0.008766,0.000178,0.0008944,15.098,0.0032795,0.0082532,2.814e-08,0.06,0.2,0
0.0064026,0.0040413,0.0081894,0.00067155,0.0008861,0.0021892,0,0,0.080337,-0.0023601,0,0.048162,0,0,0,0.0087805,8.0534e-05,0.0008861,15.108,0.003249,0.0083264,2.8714e-08,0.08,0.2,0
0.0080109,0.0051712,0.0081914,0.00057252,0.00087639,0.0022134,0,0,0.080465,-0.0033425,0,0.048694,0,0,0,0.0087877,-2.3811e-05,0.00087639,15.079,0.0032134,0.0083977,2.9241e-08,0.1,0.2,0
0.0096212,0.0063409,0.0081872,0.00047004,0.00086572,0.0022325,0,0,0.080536,-0.0043525,0,0.049114,0,0,0,0.0087865,-0.00012925,0.00086572,15.026,0.0031743,0.0084622,2.9677e-08,0.12,0.2,0
0.011232,0.0075452,0.0081759,0.00036957,0.00085454,0.0022479,0,0,0.080534,-0.0053347,0,0.049454,0,0,0,0.0087769,-0.00023147,0.00085454,14.969,0.0031333,0.0085174,3.0004e-08,0.14,0.2,0
0.012843,0.0087788,0.008157,0.00027542,0.00084324,0.0022617,0,0,0.080451,-0.006246,0,0.049758,0,0,0,0.0087599,-0.0003275,0.00084324,14.927,0.0030919,0.0085623,3.0217e-08,0.16,0.2,0
0.01445,0.010037,0.0081308,0.00019097,0.00083217,0.0022762,0,0,0.080284,-0.0070532,0,0.050077,0,0,0,0.008737,-0.00041528,0.00083217,14.914,0.0030513,0.0085967,3.0327e-08,0.18,0.2,0
0.016054,0.011314,0.0080977,0.0001189,0.00082166,0.0022934,0,0,0.080036,-0.0077303,0,0.050455,0,0,0,0.0087099,-0.00049333,0.00082166,14.947,0.0030127,0.0086213,3.0346e-08,0.2,0.2,0
0.017652,0.012607,0.0080583,6.1581e-05,0.00081198,0.0023152,0,0,0.079709,-0.0082544,0,0.050935,0,0,0,0.0086802,-0.00056036,0.00081198,15.036,0.0029773,0.0086366,3.0289e-08,0.22,0.2,0
0.019242,0.013911,0.0080126,2.1361e-05,0.0008034,0.0023432,0,0,0.079302,-0.0086024,0,0.051551,0,0,0,0.0086491,-0.00061505,0.0008034,15.195,0.0029458,0.0086426,3.0167e-08,0.24,0.2,0
0.020824,0.015221,0.0079604,8.4126e-07,0.00079612,0.0023787,0,0,0.078807,-0.0087481,0,0.052332,0,0,0,0.0086171,-0.00065587,0.00079612,15.434,0.0029191,0.008639,2.9985e-08,0.26,0.2,0
0.022395,0.016532,0.0079,3.084e-06,0.00079031,0.0024227,0,0,0.078207,-0.0086595,0,0.0533,0,0,0,0.0085841,-0.00068094,0.00079031,15.766,0.0028978,0.008624,2.9736e-08,0.28,0.2,0
0.023952,0.01784,0.0078285,3.1846e-05,0.00078604,0.0024757,0,0,0.077467,-0.0082961,0,0.054465,0,0,0,0.0085482,-0.00068784,0.00078604,16.209,0.0028821,0.0085944,2.9398e-08,0.3,0.2,0
0.025493,0.019137,0.0077399,9.1797e-05,0.00078317,0.0025369,0,0,0.076524,-0.0076051,0,0.055813,0,0,0,0.0085049,-0.00067321,0.00078317,16.78,0.0028716,0.0085435,2.8916e-08,0.32,0.2,0
0.027013,0.020414,0.0076236,0.00018856,0.00078122,0.0026028,0,0,0.075266,-0.0065192,0,0.05726,0,0,0,0.0084442,-0.00063201,0.00078122,17.498,0.0028645,0.0084586,2.818e-08,0.34,0.2,0
0.028504,0.021658,0.007464,0.00032694,0.00077909,0.0026588,0,0,0.073534,-0.0049737,0,0.058493,0,0,0,0.0083456,-0.00055465,0.00077909,18.344,0.0028567,0.008314,2.6973e-08,0.36,0.2,0
0.029954,0.022845,0.0072739,0.00050534,0.00077793,0.0026853,0,0,0.071456,-0.0029985,0,0.059077,0,0,0,0.0082098,-0.00043059,0.00077793,19.215,0.0028524,0.008104,2.5298e-08,0.38,0.2,0
0.031362,0.02395,0.0070389,0.00062011,0.0007659,0.0026387,0,0,0.069003,-0.0016037,0,0.058051,0,0,0,0.0079843,-0.00032537,0.0007659,19.713,0.0028083,0.0078214,2.2969e-08,0.4,0.2,0
0.032715,0.024938,0.0068977,0.00067699,0.00075747,0.0026209,0,0,0.067543,-0.00088527,0,0.057661,0,0,0,0.0078548,-0.00028004,0.00075747,20.059,0.0027774,0.0076688,2.1741e-08,0.42,0.2,0
0.034064,0.025837,0.0065567,0.00041062,0.00069673,0.0024637,0,0,0.06446,-0.0031473,0,0.054202,0,0,0,0.0074224,-0.00045506,0.00069673,19.36,0.0025547,0.0073694,1.8873e-08,0.44,0.2,0
0.035293,0.026583,0.0070701,0.00042059,0.00074907,0.0028395,0,0,0.069532,-0.0036133,0,0.062469,0,0,0,0.0081176,-0.00062692,0.00074907,20.249,0.0027466,0.0081442,2.5095e-08,0.46,0.2,0
0.036845,0.027366,0.0089517,0.0004449,0.00093966,0.0033225,0,0,0.033904,-0.0014458,0,0.031217,0,0,0,0.010104,-0.00070758,0.00093966,19.583,0.0034454,0.010089,6.5003e-08,0.48,0.2,0
0.037086,0.028141,0.0046659,-0.00045582,0.00042101,0.0016254,0,0,0.010092,-0.0020369,0,0.010256,0,0,0,0.0051533,-0.00094324,0.00042101,18.946,0.0015437,0.0055429,1.7433e-08,0.5,0.2,0
0.03721,0.028861,0.0073839,0.0013354,0.00087193,0.0023879,0,0,0.0071631,0.00050982,0,0.0052534,0,0,0,0.008213,0.0005063,0.00087193,19.147,0.0031971,0.0075305,2.1759e-08,0.52,0.2,0
0.037373,0.02961,0.0086753,0.0012517,0.0009927,0.0022164,0,0,0.0084509,0.0002849,0,0.0048761,0,0,0,0.0092867,0.00064032,0.0009927,15.421,0.0036399,0.0084757,3.109e-08,0.54,0.2,0
0.037548,0.030378,0.0089176,0.0011324,0.001005,0.0020192,0,0,0.0087039,0.00014016,0,0.0044423,0,0,0,0.0094102,0.00063988,0.001005,13.709,0.003685,0.0085936,3.2396e-08,0.56,0.2,0
0.037721,0.031153,0.0086941,0.0010149,0.0009709,0.0017937,0,0,0.0084955,4.8361e-05,0,0.0039462,0,0,0,0.0090924,0.00061654,0.0009709,12.52,0.00356,0.0083044,2.9233e-08,0.58,0.2,0
0.037888,0.031932,0.0082803,0.00089855,0.00091788,0.0016046,0,0,0.0080986,-2.127e-05,0,0.0035302,0,0,0,0.008614,0.00056482,0.00091788,11.749,0.0033656,0.0078786,2.4947e-08,0.6,0.2,0
0.038045,0.032713,0.007718,0.00076644,0.00084844,0.0014497,0,0,0.0075565,-9.0201e-05,0,0.0031894,0,0,0,0.0080082,0.00047622,0.00084844,11.32,0.0031109,0.0073529,2.0241e-08,0.62,0.2,0
0.03819,0.033494,0.0069834,0.0005986,0.0007582,0.0013362,0,0,0.0068477,-0.00017557,0,0.0029397,0,0,0,0.0072518,0.00033023,0.0007582,11.356,0.0027801,0.0067178,1.5358e-08,0.64,0.2,0
0.038319,0.034271,0.0060284,0.00037513,0.00064035,0.0011711,0,0,0.0059268,-0.00029174,0,0.0025764,0,0,0,0.0062613,0.00014213,0.00064035,11.252,0.0023479,0.005886,1.022e-08,0.66,0.2,0
0.038427,0.035029,0.0034084,6.7587e-05,0.0003476,0.00081172,0,0,0.0066158,-0.00075506,0,0.0022562,0,0,0,0.0036062,-0.00013017,0.0003476,8.8062,0.0012745,0.0035218,6.1258e-09,0.68,0.2,0
0.038571,0.035782,0.0050187,-0.00041143,0.00046072,0.00067287,0,0,0.017648,-0.0052278,0,0.00046855,0,0,0,0.005156,-0.0005488,0.00046072,4.457,0.0016893,0.0052798,1.0443e-08,0.7,0.2,0
0.039341,0.036891,0.0035515,-0.0011741,0.00023774,-1.1859e-05,0,0,0.036451,-0.01553,0,-0.0002609,0,0,0,0.0035515,-0.0011742,0.00023774,-0.14378,0.0008717,0.0042016,2.4099e-09,0.72,0.2,0
0.040029,0.038068,0.0035222,-0.00097737,0.00025449,0.00042869,0,0,0.035945,-0.01355,0,0.0094312,0,0,0,0.0035627,-0.0010179,0.00025449,5.3941,0.00093312,0.0040954,2.414e-09,0.74,0.2,0
0.040779,0.039294,0.0037153,-0.00070749,0.00030078,0.00066806,0,0,0.037559,-0.011091,0,0.014697,0,0,0,0.003814,-0.0008062,0.00030078,8.4048,0.0011029,0.0041782,2.8783e-09,0.76,0.2,0
0.041532,0.040541,0.0037741,-0.00043395,0.00033401,0.00085354,0,0,0.037841,-0.0084476,0,0.018778,0,0,0,0.0039406,-0.00060049,0.00033401,11.04,0.0012247,0.0041535,3.0614e-09,0.78,0.2,0
0.042293,0.041757,0.0038326,-0.00021379,0.00036188,0.00093668,0,0,0.038178,-0.0063324,0,0.020607,0,0,0,0.0040389,-0.0004201,0.00036188,12.421,0.0013269,0.004124,3.1702e-09,0.8,0.2,0
0.043059,0.042917,0.0038759,-8.9304e-05,0.00037866,0.00098068,0,0,0.03847,-0.0051477,0,0.021575,0,0,0,0.0041052,-0.00031859,0.00037866,13.159,0.0013884,0.0041197,3.247e-09,0.82,0.2,0
0.043832,0.04401,0.0039141,-1.6839e-05,0.00038973,0.0010089,0,0,0.038769,-0.0044723,0,0.022196,0,0,0,0.004158,-0.00026066,0.00038973,13.586,0.001429,0.004132,3.3227e-09,0.84,0.2,0
0.04461,0.04503,0.0039387,3.0733e-05,0.00039694,0.0010289,0,0,0.038959,-0.0040283,0,0.022635,0,0,0,0.004193,-0.0002236,0.00039694,13.885,0.0014555,0.0041414,3.3735e-09,0.86,0.2,0
0.04539,0.045978,0.0039494,6.6372e-05,0.00040157,0.0010409,0,0,0.039026,-0.0036872,0,0.022899,0,0,0,0.0042108,-0.00019504,0.00040157,14.098,0.0014724,0.0041399,3.3903e-09,0.88,0.2,0
0.046171,0.046851,0.0039484,9.9765e-05,0.00040481,0.0010448,0,0,0.038979,-0.0033555,0,0.022986,0,0,0,0.0042137,-0.0001656,0.00040481,14.25,0.0014843,0.0041238,3.3706e-09,0.9,0.2,0
0.046949,0.047646,0.0039368,0.00013847,0.00040752,0.0010407,0,0,0.038822,-0.0029595,0,0.022896,0,0,0,0.0042032,-0.00012799,0.00040752,14.361,0.0014942,0.0040898,3.3113e-09,0.92,0.2,0
0.047724,0.048361,0.0039152,0.00018812,0.00041033,0.0010283,0,0,0.038554,-0.0024444,0,0.022623,0,0,0,0.0041801,-7.678e-05,0.00041033,14.445,0.0015045,0.0040354,3.21e-09,0.94,0.2,0
0.048491,0.048993,0.0038846,0.00025208,0.00041367,0.0010075,0,0,0.03818,-0.0017775,0,0.022165,0,0,0,0.0041453,-8.6411e-06,0.00041367,14.509,0.0015168,0.0039597,3.0668e-09,0.96,0.2,0
0.049251,0.049541,0.0038466,0.00033111,0.00041777,0.00097836,0,0,0.037717,-0.00095327,0,0.021524,0,0,0,0.0041006,7.718e-05,0.00041777,14.55,0.0015318,0.0038643,2.8863e-09,0.98,0.2,0
0.05,0.05,0.0038318,0.00042575,0.00042575,0.001044,0,0,0.037466,-1.7114e-16,0,0.022968,0,0,0,0.0041263,0.00013123,0.00042575,15.755,0.0015611,0.0038563,2.8874e-09,1,0.2,0
0,0,0.0079802,0.00088669,0.00088669,0.0021102,0,0,0.078029,-3.2526e-19,0,0.046425,0,0,0,0.0085605,0.00030639,0.00088669,15.376,0.0032512,0.0079798,2.5633e-08,0,0.22,0
0.0015606,0.0009285,0.0079855,0.00085219,0.00088377,0.0020845,0,0,0.078119,-0.00034736,0,0.045859,0,0,0,0.00855,0.00028772,0.00088377,15.152,0.0032405,0.0079809,2.5618e-08,0.02,0.22,0
0.0031248,0.0019035,0.0079998,0.00079878,0.00087986,0.0021153,0,0,0.078319,-0.00089178,0,0.046538,0,0,0,0.0085752,0.00022337,0.00087986,15.217,0.0032261,0.0080437,2.613e-08,0.04,0.22,0
0.0046933,0.0029255,0.0080153,0.0007277,0.0008743,0.0021483,0,0,0.078551,-0.0016126,0,0.047262,0,0,0,0.0086014,0.00014155,0.0008743,15.261,0.0032057,0.0081183,2.6727e-08,0.06,0.22,0
0.0062668,0.0039933,0.0080307,0.00064277,0.00086735,0.0021798,0,0,0.078797,-0.0024704,0,0.047955,0,0,0,0.0086259,4.758e-05,0.00086735,15.272,0.0031803,0.0081992,2.7358e-08,0.08,0.22,0
0.0078452,0.0051039,0.0080446,0.00054877,0.00085934,0.0022079,0,0,0.079038,-0.0034163,0,0.048574,0,0,0,0.0086466,-5.324e-05,0.00085934,15.251,0.0031509,0.0082814,2.7979e-08,0.1,0.22,0
0.0094283,0.0062537,0.0080557,0.00045061,0.00085063,0.0022323,0,0,0.079256,-0.0044002,0,0.049111,0,0,0,0.0086625,-0.00015622,0.00085063,15.208,0.003119,0.0083609,2.8556e-08,0.12,0.22,0
0.011015,0.0074384,0.008063,0.00035282,0.00084158,0.0022536,0,0,0.079435,-0.0053763,0,0.049579,0,0,0,0.0086734,-0.00025757,0.00084158,15.155,0.0030858,0.0084352,2.9069e-08,0.14,0.22,0
0.012606,0.0086536,0.0080662,0.00025932,0.00083255,0.0022733,0,0,0.07957,-0.0063055,0,0.050013,0,0,0,0.0086799,-0.0003544,0.00083255,15.108,0.0030527,0.0085032,2.9513e-08,0.16,0.22,0
0.014198,0.009895,0.0080654,0.0001734,0.00082388,0.0022932,0,0,0.079657,-0.0071553,0,0.05045,0,0,0,0.0086833,-0.00044456,0.00082388,15.081,0.0030209,0.0085644,2.9892e-08,0.18,0.22,0
0.015792,0.011158,0.0080611,9.7859e-05,0.0008159,0.0023152,0,0,0.079698,-0.0078985,0,0.050935,0,0,0,0.0086853,-0.00052634,0.0008159,15.088,0.0029916,0.0086193,3.0217e-08,0.2,0.22,0
0.017386,0.01244,0.008054,3.5263e-05,0.00080893,0.0023413,0,0,0.079696,-0.0085103,0,0.051509,0,0,0,0.0086876,-0.00059829,0.00080893,15.142,0.0029661,0.0086684,3.0502e-08,0.22,0.22,0
0.01898,0.013735,0.0080447,-1.1849e-05,0.00080329,0.0023733,0,0,0.079656,-0.0089665,0,0.052212,0,0,0,0.0086918,-0.00065898,0.00080329,15.252,0.0029454,0.0087122,3.0763e-08,0.24,0.22,0
0.020572,0.015041,0.0080336,-4.0736e-05,0.00079929,0.0024129,0,0,0.079578,-0.0092403,0,0.053084,0,0,0,0.0086998,-0.00070686,0.00079929,15.433,0.0029307,0.0087513,3.1014e-08,0.26,0.22,0
0.022163,0.016353,0.0080209,-4.8224e-05,0.00079727,0.0024621,0,0,0.07946,-0.0093004,0,0.054165,0,0,0,0.0087128,-0.00074012,0.00079727,15.697,0.0029233,0.0087857,3.1265e-08,0.28,0.22,0
0.023751,0.017666,0.0080056,-3.0393e-05,0.00079753,0.0025226,0,0,0.079289,-0.0091071,0,0.055497,0,0,0,0.0087319,-0.00075663,0.00079753,16.061,0.0029243,0.0088148,3.1523e-08,0.3,0.22,0
0.025334,0.018975,0.0079851,1.7972e-05,0.0008003,0.0025967,0,0,0.079032,-0.0086056,0,0.057127,0,0,0,0.0087566,-0.00075362,0.0008003,16.549,0.0029344,0.0088364,3.1774e-08,0.32,0.22,0
0.026912,0.020273,0.0079508,0.00010448,0.00080553,0.0026856,0,0,0.078598,-0.0077116,0,0.059083,0,0,0,0.008782,-0.00072669,0.00080553,17.197,0.0029536,0.0088427,3.1948e-08,0.34,0.22,0
0.028479,0.021548,0.0078793,0.00024108,0.00081204,0.0027886,0,0,0.07774,-0.0062805,0,0.06135,0,0,0,0.008789,-0.00066867,0.00081204,18.068,0.0029775,0.0088112,3.1815e-08,0.36,0.22,0
0.030022,0.022782,0.0077086,0.00044664,0.00081553,0.0028648,0,0,0.075824,-0.0040577,0,0.063025,0,0,0,0.0087027,-0.00054743,0.00081553,19.136,0.0029903,0.0086496,3.0472e-08,0.38,0.22,0
0.031511,0.023916,0.0075755,0.00075978,0.00083353,0.0029035,0,0,0.074162,-0.0008112,0,0.063876,0,0,0,0.0086447,-0.00030937,0.00083353,20.215,0.0030563,0.0084408,2.8987e-08,0.4,0.22,0
0.032988,0.024936,0.0071767,0.00065369,0.00078304,0.0026821,0,0,0.07033,-0.0014228,0,0.059006,0,0,0,0.0081378,-0.00030748,0.00078304,19.716,0.0028711,0.0079563,2.4238e-08,0.42,0.22,0
0.034325,0.025738,0.0076673,0.00065885,0.00083262,0.0030053,0,0,0.075182,-0.0019115,0,0.066117,0,0,0,0.0087796,-0.00045338,0.00083262,20.309,0.0030529,0.0086618,3.0912e-08,0.44,0.22,0
0.035995,0.026556,0.0097132,0.00090192,0.0010615,0.0032462,0,0,0.036533,-0.00061317,0,0.031282,0,0,0,0.01079,-0.00017521,0.0010615,18.801,0.0038922,0.010404,7.3928e-08,0.46,0.22,0
0.036256,0.027348,0.0050889,6.868e-05,0.00051576,0.0013035,0,0,0.010894,-0.00089145,0,0.0074334,0,0,0,0.0054124,-0.00025476,0.00051576,15.538,0.0018911,0.0053239,1.8608e-08,0.48,0.22,0
0.036388,0.028115,0.0075357,-1.6154e-05,0.00075195,0.0016563,0,0,0.0074621,-0.00084492,0,0.0036439,0,0,0,0.007883,-0.00036346,0.00075195,11.842,0.0027572,0.0077492,2.2239e-08,0.5,0.22,0
0.036554,0.028871,0.0082537,0.0010908,0.00093445,0.0019397,0,0,0.0080512,0.00017199,0,0.0042674,0,0,0,0.0087453,0.00059925,0.00093445,14.22,0.0034263,0.0079837,2.598e-08,0.52,0.22,0
0.036711,0.02962,0.0081243,0.0013592,0.00094835,0.0020234,0,0,0.0078935,0.00045197,0,0.0044514,0,0,0,0.0086833,0.00080026,0.00094835,15.444,0.0034773,0.00781,2.4437e-08,0.54,0.22,0
0.03687,0.030384,0.0082415,0.0012741,0.00095156,0.0020991,0,0,0.0080189,0.00035485,0,0.004618,0,0,0,0.008825,0.00069062,0.00095156,15.536,0.0034891,0.0080071,2.6272e-08,0.56,0.22,0
0.037031,0.031157,0.0081864,0.0011559,0.00093423,0.0020616,0,0,0.0079774,0.00024382,0,0.0045356,0,0,0,0.0087464,0.00059592,0.00093423,15.195,0.0034255,0.0079867,2.6007e-08,0.58,0.22,0
0.037189,0.031934,0.0079597,0.0010177,0.00089774,0.0019976,0,0,0.0077682,0.00013192,0,0.0043947,0,0,0,0.0084935,0.00048389,0.00089774,14.96,0.0032917,0.0078109,2.4244e-08,0.6,0.22,0
0.037342,0.032713,0.0076314,0.00085384,0.00084852,0.0019486,0,0,0.0074612,5.8465e-06,0,0.0042869,0,0,0,0.0081517,0.00033356,0.00084852,14.95,0.0031112,0.0075738,2.1966e-08,0.62,0.22,0
0.037488,0.033492,0.0072755,0.00065364,0.00079291,0.0019222,0,0,0.0071308,-0.0001532,0,0.0042289,0,0,0,0.007793,0.0001361,0.00079291,15.069,0.0029073,0.0073505,1.985e-08,0.64,0.22,0
0.037627,0.034264,0.0069964,0.00039704,0.00073934,0.0019036,0,0,0.0068827,-0.00037653,0,0.0041879,0,0,0,0.0075061,-0.00011269,0.00073934,14.991,0.0027109,0.0072305,1.8509e-08,0.66,0.22,0
0.037763,0.035023,0.006482,0.0003779,0.00068599,0.0019319,0,0,0.0063756,-0.00033889,0,0.0042501,0,0,0,0.007042,-0.00018214,0.00068599,16.167,0.0025153,0.0068316,1.5487e-08,0.68,0.22,0
0.037882,0.035762,0.0039624,0.00025349,0.00042158,0.0011515,0,0,0.0078599,-0.00062149,0,0.004262,0,0,0,0.0042952,-7.9318e-05,0.00042158,13.637,0.0015458,0.0041468,9.8988e-09,0.7,0.22,0
0.038058,0.036528,0.0060785,-0.0006106,0.00054679,0.00099354,0,0,0.021198,-0.0069077,0,0.0020175,0,0,0,0.0062876,-0.00081972,0.00054679,5.7767,0.0020049,0.0065414,1.9759e-08,0.72,0.22,0
0.038978,0.037756,0.0041976,-0.0014715,0.0002726,9.7485e-05,0,0,0.043175,-0.019186,0,0.0021447,0,0,0,0.0041993,-0.0014732,0.0002726,0.98486,0.00099955,0.0050321,3.988e-09,0.74,0.22,0
0.039785,0.039048,0.0040911,-0.00099919,0.0003092,0.00060125,0,0,0.041601,-0.014392,0,0.013228,0,0,0,0.0041612,-0.0010692,0.0003092,6.6458,0.0011337,0.0046955,3.8128e-09,0.76,0.22,0
0.040642,0.040356,0.0042455,-0.00052582,0.00037197,0.00078952,0,0,0.042609,-0.0098756,0,0.017369,0,0,0,0.0043728,-0.00065306,0.00037197,9.1558,0.0013639,0.0045998,4.1738e-09,0.78,0.22,0
0.04149,0.041622,0.0042733,-0.00026115,0.00040121,0.00089236,0,0,0.042593,-0.007286,0,0.019632,0,0,0,0.0044426,-0.00043044,0.00040121,10.742,0.0014711,0.004515,4.1916e-09,0.8,0.22,0
0.042346,0.042807,0.0043234,-0.00013224,0.00041911,0.0009475,0,0,0.042947,-0.0060649,0,0.020845,0,0,0,0.0045165,-0.00032536,0.00041911,11.52,0.0015367,0.0045159,4.2997e-09,0.82,0.22,0
0.043208,0.043913,0.004352,-4.7623e-05,0.00043044,0.00099055,0,0,0.043137,-0.0052587,0,0.021792,0,0,0,0.0045647,-0.00026036,0.00043044,12.121,0.0015783,0.0045195,4.37e-09,0.84,0.22,0
0.044071,0.044944,0.0043606,9.9043e-06,0.00043705,0.0010223,0,0,0.043159,-0.0046986,0,0.022491,0,0,0,0.0045888,-0.00021834,0.00043705,12.586,0.0016025,0.0045153,4.3941e-09,0.86,0.22,0
0.044934,0.045899,0.0043584,5.3887e-05,0.00044122,0.0010438,0,0,0.043088,-0.0042607,0,0.022964,0,0,0,0.0045981,-0.00018589,0.00044122,12.937,0.0016178,0.0045033,4.3855e-09,0.88,0.22,0
0.045795,0.046779,0.0043474,9.5059e-05,0.00044425,0.001057,0,0,0.042935,-0.003841,0,0.023254,0,0,0,0.0045956,-0.00015319,0.00044425,13.217,0.0016289,0.0044801,4.3427e-09,0.9,0.22,0
0.046651,0.047583,0.0043278,0.00014193,0.00044697,0.0010621,0,0,0.042689,-0.0033554,0,0.023367,0,0,0,0.0045819,-0.00011216,0.00044697,13.454,0.0016389,0.0044409,4.2588e-09,0.92,0.22,0
0.047502,0.048309,0.0042994,0.00020031,0.00044997,0.0010587,0,0,0.042343,-0.0027462,0,0.02329,0,0,0,0.0045566,-5.6963e-05,0.00044997,13.659,0.0016499,0.0043822,4.1277e-09,0.94,0.22,0
0.048345,0.048956,0.0042627,0.00027343,0.00045361,0.0010458,0,0,0.0419,-0.001982,0,0.023007,0,0,0,0.0045202,1.591e-05,0.00045361,13.834,0.0016632,0.0043022,3.9473e-09,0.96,0.22,0
0.049178,0.049521,0.0042192,0.00036194,0.00045812,0.0010225,0,0,0.041372,-0.001058,0,0.022496,0,0,0,0.0044735,0.00010763,0.00045812,13.966,0.0016798,0.0042016,3.7203e-09,0.98,0.22,0
0.05,0.05,0.0042024,0.00046693,0.00046693,0.0010892,0,0,0.04109,-2.7105e-19,0,0.023962,0,0,0,0.0044967,0.00017255,0.00046693,15.124,0.0017121,0.0041848,3.7012e-09,1,0.22,0
0,0,0.0078114,0.00086793,0.00086793,0.002092,0,0,0.076378,-2.7105e-20,0,0.046025,0,0,0,0.008393,0.00028632,0.00086793,15.537,0.0031824,0.0078321,2.4216e-08,0,0.24,0
0.0015276,0.0009205,0.0078188,0.00082342,0.00086422,0.0020683,0,0,0.0765,-0.0004488,0,0.045503,0,0,0,0.0083846,0.00025764,0.00086422,15.299,0.0031688,0.0078413,2.4263e-08,0.02,0.24,0
0.00306,0.0018841,0.007839,0.00076577,0.00086048,0.0020973,0,0,0.076764,-0.0010418,0,0.046142,0,0,0,0.0084142,0.00019063,0.00086048,15.335,0.0031551,0.0079099,2.4804e-08,0.04,0.24,0
0.0045981,0.0028917,0.0078611,0.00069453,0.00085556,0.0021292,0,0,0.077061,-0.0017713,0,0.046842,0,0,0,0.0084459,0.00010968,0.00085556,15.359,0.0031371,0.0079894,2.5424e-08,0.06,0.24,0
0.0061424,0.0039425,0.0078844,0.00061205,0.00084965,0.0021607,0,0,0.077383,-0.0026136,0,0.047536,0,0,0,0.0084779,1.8512e-05,0.00084965,15.36,0.0031154,0.008076,2.6089e-08,0.08,0.24,0
0.0076934,0.0050345,0.0079083,0.00052161,0.00084299,0.0021901,0,0,0.077718,-0.0035351,0,0.048182,0,0,0,0.0085088,-7.8921e-05,0.00084299,15.334,0.0030909,0.0081659,2.6768e-08,0.1,0.24,0
0.0092512,0.0061649,0.0079318,0.00042691,0.00083587,0.0022167,0,0,0.078055,-0.0044985,0,0.048767,0,0,0,0.0085376,-0.0001789,0.00083587,15.286,0.0030649,0.008256,2.7436e-08,0.12,0.24,0
0.010816,0.0073301,0.0079544,0.0003316,0.0008286,0.0022406,0,0,0.078384,-0.0054671,0,0.049294,0,0,0,0.0085642,-0.00027823,0.0008286,15.225,0.0030382,0.0083443,2.8077e-08,0.14,0.24,0
0.012386,0.0085266,0.007976,0.00023903,0.0008215,0.002263,0,0,0.078699,-0.0064072,0,0.049786,0,0,0,0.0085893,-0.00037425,0.0008215,15.163,0.0030122,0.0084295,2.8687e-08,0.16,0.24,0
0.013964,0.0097506,0.0079968,0.00015225,0.0008149,0.0022851,0,0,0.079,-0.0072892,0,0.050272,0,0,0,0.0086139,-0.00046486,0.0008149,15.113,0.002988,0.0085113,2.9268e-08,0.18,0.24,0
0.015546,0.010999,0.0080173,7.3998e-05,0.00080913,0.0023087,0,0,0.07929,-0.0080865,0,0.050791,0,0,0,0.0086396,-0.00054826,0.00080913,15.084,0.0029668,0.00859,2.9832e-08,0.2,0.24,0
0.017135,0.012267,0.0080386,6.8568e-06,0.00080455,0.0023354,0,0,0.079575,-0.0087746,0,0.05138,0,0,0,0.0086683,-0.00062286,0.00080455,15.09,0.00295,0.0086661,3.0392e-08,0.22,0.24,0
0.018729,0.013552,0.0080618,-4.6586e-05,0.00080152,0.0023671,0,0,0.079863,-0.0093292,0,0.052077,0,0,0,0.0087023,-0.00068705,0.00080152,15.14,0.0029389,0.0087406,3.097e-08,0.24,0.24,0
0.02033,0.014851,0.0080884,-8.3574e-05,0.00080048,0.0024056,0,0,0.080167,-0.0097246,0,0.052923,0,0,0,0.0087439,-0.00073912,0.00080048,15.244,0.0029351,0.0088147,3.1589e-08,0.26,0.24,0
0.021936,0.01616,0.0081202,-0.00010101,0.00080191,0.0024526,0,0,0.080501,-0.0099322,0,0.053957,0,0,0,0.0087962,-0.00077709,0.00080191,15.411,0.0029403,0.0088896,3.2277e-08,0.28,0.24,0
0.02355,0.017476,0.0081597,-9.5245e-05,0.00080644,0.0025103,0,0,0.080885,-0.0099186,0,0.055227,0,0,0,0.0088631,-0.00079869,0.00080644,15.654,0.0029569,0.0089676,3.3074e-08,0.3,0.24,0
0.025172,0.018792,0.0082102,-6.164e-05,0.00081486,0.0025815,0,0,0.081349,-0.0096415,0,0.056793,0,0,0,0.0089498,-0.00080117,0.00081486,15.986,0.0029878,0.0090518,3.4035e-08,0.32,0.24,0
0.026804,0.020105,0.0082756,6.4436e-06,0.00082821,0.0026711,0,0,0.081921,-0.0090394,0,0.058763,0,0,0,0.0090634,-0.00078131,0.00082821,16.432,0.0030367,0.0091467,3.5236e-08,0.34,0.24,0
0.028449,0.021406,0.0083566,0.00012108,0.00084777,0.0027857,0,0,0.082597,-0.0079935,0,0.061285,0,0,0,0.0092104,-0.00073267,0.00084777,17.039,0.0031085,0.0092546,3.6739e-08,0.36,0.24,0
0.030108,0.022682,0.0084051,0.00030283,0.00087079,0.0029501,0,0,0.082877,-0.0062476,0,0.064901,0,0,0,0.0093654,-0.00065747,0.00087079,18.031,0.0031929,0.0093528,3.8265e-08,0.38,0.24,0
0.031764,0.023918,0.0080095,0.00061447,0.0008624,0.0030076,0,0,0.078618,-0.0027273,0,0.066168,0,0,0,0.0090783,-0.00045429,0.0008624,19.563,0.0031621,0.0089472,3.4116e-08,0.4,0.24,0
0.033252,0.024881,0.0085301,0.0012027,0.00097328,0.0033437,0,0,0.083125,0.0025233,0,0.073562,0,0,0,0.0098266,-9.3773e-05,0.00097328,21.193,0.0035687,0.0094322,4.1245e-08,0.42,0.24,0
0.035089,0.025761,0.010893,0.0013852,0.0012278,0.0033071,0,0,0.040373,0.00055301,0,0.033255,0,0,0,0.01195,0.00032763,0.0012278,18.221,0.0045018,0.011203,9.43e-08,0.44,0.24,0
0.035382,0.026551,0.0057472,0.00038828,0.00061354,0.001234,0,0,0.012241,-0.00036202,0,0.006681,0,0,0,0.00602,0.00011539,0.00061354,13.605,0.0022497,0.005672,2.3857e-08,0.46,0.24,0
0.03553,0.02733,0.0083135,0.00031119,0.00086246,0.0016888,0,0,0.0081961,-0.00060641,0,0.0037154,0,0,0,0.0086553,-3.063e-05,0.00086246,11.442,0.0031624,0.0082756,2.7969e-08,0.48,0.24,0
0.035709,0.028108,0.0087636,0.00050523,0.00092689,0.0019873,0,0,0.0086204,-0.00046382,0,0.004372,0,0,0,0.0092169,5.1913e-05,0.00092689,12.85,0.0033986,0.0087604,3.3371e-08,0.5,0.24,0
0.035875,0.028868,0.0083677,0.00077573,0.00091434,0.0018702,0,0,0.0081987,-0.00015248,0,0.0041145,0,0,0,0.0088034,0.00034001,0.00091434,13.114,0.0033526,0.0081913,2.7761e-08,0.52,0.24,0
0.036037,0.029628,0.0082354,0.0011751,0.00094105,0.0020203,0,0,0.0080238,0.00025748,0,0.0044446,0,0,0,0.0087726,0.00063791,0.00094105,14.891,0.0034505,0.0079874,2.6045e-08,0.54,0.24,0
0.036196,0.030392,0.0080913,0.0012484,0.00093398,0.0021451,0,0,0.0078731,0.00034591,0,0.0047193,0,0,0,0.0087082,0.00063159,0.00093398,16.043,0.0034246,0.0079297,2.5484e-08,0.56,0.24,0
0.036352,0.031163,0.0079914,0.0011799,0.00091713,0.002216,0,0,0.0077817,0.00028906,0,0.0048753,0,0,0,0.0086489,0.0005224,0.00091713,16.526,0.0033628,0.0079365,2.5461e-08,0.58,0.24,0
0.036507,0.031938,0.0078563,0.0010506,0.0008907,0.0022354,0,0,0.0076622,0.00017592,0,0.0049178,0,0,0,0.0085249,0.00038207,0.0008907,16.651,0.0032659,0.0079008,2.4976e-08,0.6,0.24,0
0.036659,0.032714,0.0076936,0.00087641,0.000857,0.0022315,0,0,0.0075202,2.1357e-05,0,0.0049092,0,0,0,0.008359,0.00021095,0.000857,16.606,0.0031423,0.007845,2.4231e-08,0.62,0.24,0
0.036808,0.033488,0.0075414,0.00066089,0.00082023,0.002207,0,0,0.0073933,-0.00017528,0,0.0048554,0,0,0,0.0081885,1.3823e-05,0.00082023,16.34,0.0030075,0.0078028,2.3523e-08,0.64,0.24,0
0.036955,0.034256,0.0074061,0.00045366,0.00078598,0.002155,0,0,0.0072821,-0.00036555,0,0.0047409,0,0,0,0.0080199,-0.0001601,0.00078598,15.898,0.0028819,0.0077503,2.2714e-08,0.66,0.24,0
0.037099,0.035015,0.0073886,0.00041927,0.00078079,0.0020864,0,0,0.0072686,-0.00039767,0,0.0045901,0,0,0,0.0079655,-0.00015759,0.00078079,15.455,0.0028629,0.0076969,2.225e-08,0.68,0.24,0
0.037245,0.035764,0.0071872,0.00068103,0.00078682,0.0021972,0,0,0.0070404,-0.00011638,0,0.0048338,0,0,0,0.0078597,8.5378e-06,0.00078682,17.018,0.002885,0.0074924,2.0818e-08,0.7,0.24,0
0.037381,0.036502,0.0046566,0.00028904,0.00049456,0.0013682,0,0,0.0094003,-0.00080845,0,0.0057167,0,0,0,0.0050514,-0.00010573,0.00049456,14.851,0.0018134,0.004885,1.5763e-08,0.72,0.24,0
0.037595,0.0373,0.0073387,-0.0011508,0.00061879,0.0012834,0,0,0.025698,-0.0091238,0,0.0041573,0,0,0,0.0075807,-0.0013928,0.00061879,6.3363,0.0022689,0.008162,3.6425e-08,0.74,0.24,0
0.038708,0.038719,0.0050192,-0.0015872,0.0003432,0.00032056,0,0,0.051436,-0.021234,0,0.0070523,0,0,0,0.0050347,-0.0016027,0.0003432,2.7715,0.0012584,0.0059098,6.8561e-09,0.76,0.24,0
0.039653,0.040146,0.00478,-0.00058274,0.00041972,0.00077382,0,0,0.047963,-0.011027,0,0.017024,0,0,0,0.0048894,-0.00069217,0.00041972,8.0489,0.001539,0.005117,5.8012e-09,0.78,0.24,0
0.040627,0.041466,0.0048842,-0.00034267,0.00045415,0.00089294,0,0,0.048731,-0.0087651,0,0.019645,0,0,0,0.0050326,-0.00049101,0.00045415,9.4319,0.0016652,0.0051169,6.097e-09,0.8,0.24,0
0.041602,0.042675,0.0048777,-0.00018613,0.00046916,0.00095438,0,0,0.048494,-0.0072081,0,0.020996,0,0,0,0.0050516,-0.00036003,0.00046916,10.327,0.0017202,0.0050484,6.0116e-09,0.82,0.24,0
0.042567,0.043799,0.0048428,-8.4471e-05,0.00047583,0.0010035,0,0,0.048037,-0.0061634,0,0.022077,0,0,0,0.0050393,-0.00028101,0.00047583,11.081,0.0017447,0.0049852,5.8718e-09,0.84,0.24,0
0.043523,0.044842,0.0048127,-1.6361e-05,0.00047963,0.0010363,0,0,0.047664,-0.0054559,0,0.0228,0,0,0,0.0050257,-0.00022937,0.00047963,11.615,0.0017587,0.0049389,5.7599e-09,0.86,0.24,0
0.044473,0.045808,0.004786,3.426e-05,0.00048202,0.0010614,0,0,0.047343,-0.0049254,0,0.02335,0,0,0,0.0050123,-0.00019204,0.00048202,12.036,0.0017674,0.0049022,5.6667e-09,0.88,0.24,0
0.045417,0.046697,0.004758,8.2066e-05,0.00048401,0.0010805,0,0,0.047014,-0.0044214,0,0.023772,0,0,0,0.0049956,-0.00015555,0.00048401,12.402,0.0017747,0.0048631,5.5639e-09,0.9,0.24,0
0.046354,0.047511,0.0047251,0.00013675,0.00048619,0.001093,0,0,0.046628,-0.0038438,0,0.024046,0,0,0,0.0049722,-0.00011031,0.00048619,12.737,0.0017827,0.0048121,5.4276e-09,0.92,0.24,0
0.047282,0.048251,0.0046857,0.00020425,0.00048899,0.0010971,0,0,0.046164,-0.0031322,0,0.024137,0,0,0,0.0049399,-4.9929e-05,0.00048899,13.044,0.001793,0.0047434,5.2435e-09,0.94,0.24,0
0.0482,0.048914,0.0046397,0.00028773,0.00049274,0.0010911,0,0,0.045616,-0.0022551,0,0.024005,0,0,0,0.0048979,2.9478e-05,0.00049274,13.316,0.0018067,0.0046541,5.0052e-09,0.96,0.24,0
0.049107,0.049498,0.004588,0.00038806,0.00049761,0.0010732,0,0,0.044994,-0.001205,0,0.02361,0,0,0,0.0048463,0.00012973,0.00049761,13.534,0.0018246,0.0045438,4.7119e-09,0.98,0.24,0
0.05,0.05,0.0045681,0.00050757,0.00050757,0.0011402,0,0,0.044666,1.8659e-16,0,0.025084,0,0,0,0.0048664,0.00020933,0.00050757,14.659,0.0018611,0.0045153,4.6587e-09,1,0.24,0
0,0,0.007653,0.00085034,0.00085034,0.0020694,0,0,0.07483,1.1655e-18,0,0.045527,0,0,0,0.0082331,0.00027027,0.00085034,15.659,0.0031179,0.0076892,2.2902e-08,0,0.26,0
0.0014966,0.00091055,0.0076624,0.00079681,0.00084592,0.0020467,0,0,0.074981,-0.00054017,0,0.045028,0,0,0,0.0082262,0.00023296,0.00084592,15.402,0.0031017,0.0077051,2.2994e-08,0.02,0.26,0
0.0029992,0.0018618,0.0076877,0.0007348,0.00084225,0.0020737,0,0,0.0753,-0.001182,0,0.045622,0,0,0,0.0082592,0.00016329,0.00084225,15.408,0.0030883,0.0077787,2.3554e-08,0.04,0.26,0
0.0045086,0.0028546,0.0077153,0.00066262,0.0008378,0.0021036,0,0,0.075653,-0.0019269,0,0.046278,0,0,0,0.0082951,8.2867e-05,0.0008378,15.409,0.0030719,0.007862,2.4184e-08,0.06,0.26,0
0.0060254,0.0038887,0.0077453,0.00058154,0.00083268,0.0021336,0,0,0.076038,-0.0027625,0,0.04694,0,0,0,0.0083326,-5.7907e-06,0.00083268,15.391,0.0030532,0.0079524,2.4864e-08,0.08,0.26,0
0.0075501,0.0049625,0.0077771,0.00049374,0.00082709,0.0021622,0,0,0.076451,-0.0036669,0,0.047569,0,0,0,0.0083707,-9.98e-05,0.00082709,15.35,0.0030327,0.0080472,2.5571e-08,0.1,0.26,0
0.0090834,0.0060738,0.0078106,0.0004019,0.00082126,0.0021885,0,0,0.076883,-0.0046128,0,0.048147,0,0,0,0.0084088,-0.00019628,0.00082126,15.287,0.0030113,0.0081441,2.6289e-08,0.12,0.26,0
0.010625,0.0072197,0.0078456,0.00030891,0.00081545,0.0022124,0,0,0.077331,-0.0055719,0,0.048674,0,0,0,0.008447,-0.00029257,0.00081545,15.209,0.00299,0.0082417,2.7008e-08,0.14,0.26,0
0.012177,0.0083973,0.007882,0.00021758,0.00080996,0.0022346,0,0,0.077792,-0.0065161,0,0.049161,0,0,0,0.0084859,-0.00038635,0.00080996,15.123,0.0029698,0.0083387,2.7725e-08,0.16,0.26,0
0.013737,0.0096034,0.0079203,0.00013061,0.00080509,0.002256,0,0,0.078267,-0.0074192,0,0.049633,0,0,0,0.0085265,-0.0004756,0.00080509,15.041,0.002952,0.008435,2.8442e-08,0.18,0.26,0
0.015307,0.010835,0.0079612,5.0576e-05,0.00080118,0.002278,0,0,0.07876,-0.0082566,0,0.050117,0,0,0,0.0085703,-0.00055853,0.00080118,14.97,0.0029377,0.0085307,2.9172e-08,0.2,0.26,0
0.016888,0.012089,0.008006,-1.9993e-05,0.0007986,0.0023021,0,0,0.079281,-0.0090045,0,0.050646,0,0,0,0.0086194,-0.00063341,0.0007986,14.921,0.0029282,0.0086264,2.993e-08,0.22,0.26,0
0.018479,0.013362,0.0080561,-7.8478e-05,0.00079776,0.0023296,0,0,0.079842,-0.0096387,0,0.051251,0,0,0,0.008676,-0.00069838,0.00079776,14.901,0.0029251,0.0087231,3.0737e-08,0.24,0.26,0
0.020081,0.014652,0.0081137,-0.00012204,0.00079917,0.0023619,0,0,0.08046,-0.010133,0,0.051962,0,0,0,0.008743,-0.00075132,0.00079917,14.919,0.0029303,0.0088219,3.1622e-08,0.26,0.26,0
0.021697,0.015956,0.0081818,-0.00014749,0.00080344,0.0024002,0,0,0.081162,-0.01046,0,0.052805,0,0,0,0.008824,-0.00078964,0.00080344,14.978,0.0029459,0.0089244,3.2619e-08,0.28,0.26,0
0.023328,0.017269,0.0082652,-0.00015117,0.0008114,0.0024453,0,0,0.081992,-0.010588,0,0.053797,0,0,0,0.0089241,-0.00081005,0.0008114,15.08,0.0029751,0.0090332,3.3782e-08,0.3,0.26,0
0.024977,0.01859,0.0083718,-0.00012874,0.00082431,0.0024978,0,0,0.083022,-0.010484,0,0.054951,0,0,0,0.0090514,-0.00080836,0.00082431,15.221,0.0030225,0.0091533,3.5201e-08,0.32,0.26,0
0.026649,0.019911,0.0085172,-7.4551e-05,0.00084426,0.0025582,0,0,0.084402,-0.010107,0,0.05628,0,0,0,0.0092212,-0.00077855,0.00084426,15.387,0.0030956,0.0092952,3.7045e-08,0.34,0.26,0
0.028353,0.021228,0.0087331,2.002e-05,0.00087531,0.0026292,0,0,0.086435,-0.0094082,0,0.057843,0,0,0,0.009465,-0.00071188,0.00087531,15.556,0.0032095,0.0094834,3.97e-08,0.36,0.26,0
0.030106,0.022533,0.0091287,0.00018303,0.00093117,0.0027125,0,0,0.090172,-0.0082296,0,0.059674,0,0,0,0.0098869,-0.00057518,0.00093117,15.617,0.0034143,0.0097961,4.4458e-08,0.38,0.26,0
0.03196,0.023807,0.010107,0.00047413,0.0010581,0.0028392,0,0,0.099534,-0.0064234,0,0.062462,0,0,0,0.010881,-0.00030044,0.0010581,15.26,0.0038796,0.010568,5.7257e-08,0.4,0.26,0
0.034087,0.025037,0.01393,0.0023215,0.0016252,0.0046295,0,0,0.048353,0.0032561,0,0.043123,0,0,0,0.015575,0.00067639,0.0016252,20.237,0.0059589,0.014451,2.2097e-07,0.42,0.26,0
0.034474,0.025766,0.0072981,0.00084258,0.00081407,0.0012137,0,0,0.015833,0.0001492,0,0.0052531,0,0,0,0.00752,0.00062077,0.00081407,9.4848,0.0029849,0.0068048,4.2268e-08,0.44,0.26,0
0.034651,0.02654,0.0095249,0.00072121,0.0010246,0.0019026,0,0,0.0093503,-0.00033374,0,0.0041857,0,0,0,0.0099185,0.00032763,0.0010246,11.688,0.0037569,0.009262,4.003e-08,0.46,0.26,0
0.034848,0.027324,0.0095438,0.0005987,0.0010142,0.0023096,0,0,0.0093825,-0.0004571,0,0.005081,0,0,0,0.010105,3.7586e-05,0.0010142,13.656,0.0037189,0.0096162,4.4086e-08,0.48,0.26,0
0.035026,0.028096,0.0089111,0.00049913,0.00094102,0.00214,0,0,0.0087671,-0.00048608,0,0.0047079,0,0,0,0.0094242,-1.3969e-05,0.00094102,13.483,0.0034504,0.0089988,3.6009e-08,0.5,0.26,0
0.035199,0.028865,0.0086167,0.00077739,0.00093941,0.0021485,0,0,0.008445,-0.00017822,0,0.0047266,0,0,0,0.0091669,0.00022719,0.00093941,14.364,0.0034445,0.0086057,3.1978e-08,0.52,0.26,0
0.035364,0.02963,0.0083242,0.0010113,0.00093355,0.0021769,0,0,0.0081297,8.5553e-05,0,0.0047891,0,0,0,0.0089231,0.00041237,0.00093355,15.384,0.003423,0.0082625,2.8582e-08,0.54,0.26,0
0.035524,0.030398,0.0081294,0.0011455,0.00092749,0.0022649,0,0,0.0079221,0.00023982,0,0.0049828,0,0,0,0.0087995,0.0004753,0.00092749,16.484,0.0034008,0.0081076,2.7085e-08,0.56,0.26,0
0.035681,0.031168,0.0079846,0.0011373,0.00091219,0.002338,0,0,0.0077796,0.00024764,0,0.0051437,0,0,0,0.0087067,0.00041514,0.00091219,17.165,0.0033447,0.0080546,2.6494e-08,0.58,0.26,0
0.035835,0.031941,0.0078735,0.0010404,0.00089139,0.002377,0,0,0.0076803,0.00016389,0,0.0052295,0,0,0,0.008619,0.00029483,0.00089139,17.414,0.0032684,0.0080426,2.6223e-08,0.6,0.26,0
0.035988,0.032714,0.0077781,0.00088755,0.00086657,0.0023771,0,0,0.0076027,2.3078e-05,0,0.0052296,0,0,0,0.0085186,0.00014709,0.00086657,17.302,0.0031774,0.008036,2.5933e-08,0.62,0.26,0
0.036139,0.033485,0.0076964,0.00070853,0.0008405,0.0023351,0,0,0.0075415,-0.00014516,0,0.0051372,0,0,0,0.0084049,6.5704e-08,0.0008405,16.878,0.0030818,0.0080177,2.5493e-08,0.64,0.26,0
0.03629,0.03425,0.0076392,0.00056251,0.00082017,0.0022477,0,0,0.007501,-0.00028343,0,0.0049449,0,0,0,0.0082928,-9.1027e-05,0.00082017,16.212,0.0030073,0.0079674,2.4834e-08,0.66,0.26,0
0.036439,0.035007,0.0076074,0.00050795,0.00081154,0.0021455,0,0,0.0074755,-0.00033395,0,0.0047201,0,0,0,0.0082055,-9.0067e-05,0.00081154,15.575,0.0029756,0.0078835,2.4058e-08,0.68,0.26,0
0.036589,0.035757,0.007775,0.00059389,0.00083689,0.0020613,0,0,0.0076319,-0.00026729,0,0.0045349,0,0,0,0.0083246,4.4273e-05,0.00083689,14.93,0.0030686,0.0079139,2.4597e-08,0.7,0.26,0
0.036745,0.036506,0.0080594,0.00085243,0.00089118,0.0021453,0,0,0.007885,-4.2621e-05,0,0.0047197,0,0,0,0.0086496,0.00026217,0.00089118,15.384,0.0032677,0.0080913,2.6653e-08,0.72,0.26,0
0.036904,0.037254,0.0061913,0.00028136,0.00064727,0.001692,0,0,0.013247,-0.0014367,0,0.009427,0,0,0,0.0066438,-0.0001711,0.00064727,15.949,0.0023733,0.0064477,3.325e-08,0.74,0.26,0
0.037222,0.038199,0.010251,-0.0028704,0.00073806,0.00073854,0,0,0.033158,-0.012666,0,0.0054241,0,0,0,0.010292,-0.0029119,0.00073806,3.2928,0.0027062,0.01181,1.0494e-07,0.76,0.26,0
0.038576,0.039915,0.0063098,-0.00059892,0.00057109,0.0012109,0,0,0.063126,-0.01287,0,0.026641,0,0,0,0.0065159,-0.00080502,0.00057109,9.6592,0.002094,0.0067391,1.3536e-08,0.78,0.26,0
0.039747,0.041272,0.0057046,-0.00039127,0.00053133,0.0010249,0,0,0.056905,-0.010149,0,0.022548,0,0,0,0.0058722,-0.00055898,0.00053133,9.2929,0.0019482,0.0059613,9.6652e-09,0.8,0.26,0
0.040852,0.042519,0.0054716,-0.00022057,0.0005251,0.0010495,0,0,0.054411,-0.0082024,0,0.023088,0,0,0,0.0056589,-0.0004079,0.0005251,10.12,0.0019254,0.0056583,8.4578e-09,0.82,0.26,0
0.041923,0.043667,0.0053481,-0.00010756,0.00052406,0.0010613,0,0,0.053065,-0.0069478,0,0.02335,0,0,0,0.0055473,-0.00030676,0.00052406,10.63,0.0019215,0.0054861,7.8286e-09,0.84,0.26,0
0.042975,0.044726,0.0052739,-3.9961e-05,0.0005234,0.0010779,0,0,0.052256,-0.0061969,0,0.023714,0,0,0,0.0054843,-0.00025029,0.0005234,11.041,0.0019191,0.0053895,7.4848e-09,0.86,0.26,0
0.044013,0.045702,0.0052213,1.1269e-05,0.00052325,0.0010988,0,0,0.051678,-0.0056318,0,0.024173,0,0,0,0.0054435,-0.00021098,0.00052325,11.435,0.0019186,0.0053255,7.2624e-09,0.88,0.26,0
0.045042,0.046602,0.0051733,6.3137e-05,0.00052364,0.0011202,0,0,0.051146,-0.0050656,0,0.024644,0,0,0,0.0054081,-0.00017164,0.00052364,11.837,0.00192,0.0052666,7.0638e-09,0.9,0.26,0
0.046059,0.047429,0.0051235,0.0001248,0.00052483,0.0011374,0,0,0.050585,-0.0044003,0,0.025024,0,0,0,0.0053701,-0.00012185,0.00052483,12.235,0.0019244,0.0051989,6.842e-09,0.92,0.26,0
0.047065,0.048184,0.0050698,0.00020151,0.00052713,0.001147,0,0,0.049969,-0.0035818,0,0.025234,0,0,0,0.0053265,-5.5209e-05,0.00052713,12.616,0.0019328,0.0051154,6.5756e-09,0.94,0.26,0
0.048058,0.048866,0.0050117,0.00029621,0.00053079,0.0011463,0,0,0.04929,-0.0025804,0,0.025218,0,0,0,0.0052756,3.2328e-05,0.00053079,12.964,0.0019462,0.0050126,6.2535e-09,0.96,0.26,0
0.049037,0.049473,0.0049496,0.00041011,0.00053597,0.0011325,0,0,0.04855,-0.0013844,0,0.024914,0,0,0,0.0052164,0.00014327,0.00053597,13.258,0.0019652,0.0048886,5.8701e-09,0.98,0.26,0
0.05,0.05,0.004926,0.00054733,0.00054733,0.0011987,0,0,0.048165,-4.9223e-17,0,0.026372,0,0,0,0.0052327,0.00024064,0.00054733,14.351,0.0020069,0.004846,5.7659e-09,1,0.26,0
0,0,0.0075012,0.00083346,0.00083346,0.0020429,0,0,0.073345,8.1315e-19,0,0.044945,0,0,0,0.0080773,0.00025731,0.00083346,15.75,0.003056,0.0075485,2.1657e-08,0,0.28,0
0.0014669,0.00089889,0.0075121,0.00077225,0.00082843,0.0020205,0,0,0.07352,-0.00061797,0,0.044451,0,0,0,0.0080714,0.00021294,0.00082843,15.473,0.0030376,0.0075695,2.1779e-08,0.02,0.28,0
0.0029408,0.0018368,0.0075417,0.00070629,0.0008248,0.0020453,0,0,0.073886,-0.0013035,0,0.044997,0,0,0,0.0081069,0.00014102,0.0008248,15.449,0.0030243,0.007647,2.2348e-08,0.04,0.28,0
0.0044223,0.0028146,0.0075738,0.00063299,0.00082068,0.0020726,0,0,0.074285,-0.0020646,0,0.045597,0,0,0,0.0081456,6.119e-05,0.00082068,15.423,0.0030092,0.0077327,2.2977e-08,0.06,0.28,0
0.0059122,0.003832,0.0076089,0.00055283,0.00081617,0.0021002,0,0,0.07472,-0.0028968,0,0.046204,0,0,0,0.0081867,-2.4951e-05,0.00081617,15.382,0.0029926,0.007825,2.3652e-08,0.08,0.28,0
0.0074111,0.0048879,0.007647,0.00046717,0.00081142,0.0021264,0,0,0.075191,-0.0037867,0,0.046782,0,0,0,0.0082295,-0.00011535,0.00081142,15.32,0.0029752,0.0079223,2.4363e-08,0.1,0.28,0
0.0089198,0.0059804,0.0076882,0.00037792,0.00080661,0.0021506,0,0,0.075697,-0.0047155,0,0.047313,0,0,0,0.0082739,-0.00020781,0.00080661,15.236,0.0029576,0.0080228,2.5098e-08,0.12,0.28,0
0.010439,0.0071072,0.0077325,0.0002873,0.00080198,0.0021723,0,0,0.076235,-0.0056615,0,0.047791,0,0,0,0.0083199,-0.00030018,0.00080198,15.133,0.0029406,0.0081253,2.585e-08,0.14,0.28,0
0.011969,0.0082659,0.0077802,0.00019762,0.00079778,0.002192,0,0,0.076806,-0.0066018,0,0.048224,0,0,0,0.0083682,-0.00039045,0.00079778,15.018,0.0029252,0.0082292,2.6621e-08,0.16,0.28,0
0.013511,0.0094538,0.0078318,0.00011122,0.00079431,0.0022103,0,0,0.077413,-0.0075139,0,0.048627,0,0,0,0.0084198,-0.00047677,0.00079431,14.897,0.0029125,0.0083341,2.7413e-08,0.18,0.28,0
0.015066,0.010668,0.0078884,3.0492e-05,0.00079189,0.0022282,0,0,0.078062,-0.0083754,0,0.04902,0,0,0,0.0084762,-0.00055735,0.00079189,14.779,0.0029036,0.0084402,2.8239e-08,0.2,0.28,0
0.016634,0.011907,0.007951,-4.2108e-05,0.00079089,0.0022468,0,0,0.078762,-0.009163,0,0.049429,0,0,0,0.0085393,-0.00063035,0.00079089,14.672,0.0029,0.0085481,2.9113e-08,0.22,0.28,0
0.018216,0.013167,0.0080214,-0.00010388,0.00079175,0.0022671,0,0,0.079526,-0.0098519,0,0.049876,0,0,0,0.0086111,-0.00069364,0.00079175,14.582,0.0029031,0.0086582,3.0055e-08,0.24,0.28,0
0.019815,0.014446,0.0081015,-0.00015173,0.00079497,0.00229,0,0,0.080372,-0.010414,0,0.050381,0,0,0,0.0086943,-0.00074457,0.00079497,14.514,0.0029149,0.0087711,3.1087e-08,0.26,0.28,0
0.021431,0.015742,0.0081942,-0.00018195,0.00080122,0.0023158,0,0,0.081323,-0.010815,0,0.050947,0,0,0,0.0087918,-0.00077958,0.00080122,14.47,0.0029378,0.0088871,3.2238e-08,0.28,0.28,0
0.023068,0.017052,0.0083037,-0.00019003,0.00081137,0.0023435,0,0,0.082416,-0.011015,0,0.051557,0,0,0,0.0089074,-0.00079371,0.00081137,14.445,0.002975,0.0090065,3.354e-08,0.3,0.28,0
0.024728,0.018373,0.008437,-0.00017031,0.00082667,0.0023703,0,0,0.083714,-0.010967,0,0.052147,0,0,0,0.0090466,-0.00077989,0.00082667,14.422,0.0030311,0.0091299,3.5041e-08,0.32,0.28,0
0.026416,0.019701,0.0086065,-0.0001155,0.0008491,0.0023902,0,0,0.085332,-0.010611,0,0.052585,0,0,0,0.0092186,-0.00072757,0.0008491,14.363,0.0031134,0.0092591,3.6816e-08,0.34,0.28,0
0.028141,0.02103,0.0088364,-1.3652e-05,0.00088227,0.0023909,0,0,0.087495,-0.0098552,0,0.0526,0,0,0,0.009441,-0.00061826,0.00088227,14.191,0.003235,0.0093992,3.9009e-08,0.36,0.28,0
0.029916,0.022353,0.0091498,0.00015477,0.00093045,0.0023453,0,0,0.090413,-0.0085326,0,0.051596,0,0,0,0.0097245,-0.00041999,0.00093045,13.77,0.0034117,0.0095412,4.1614e-08,0.38,0.28,0
0.031758,0.023661,0.0094038,0.00047182,0.00098756,0.0022986,0,0,0.092579,-0.0056732,0,0.050569,0,0,0,0.0099606,-8.4994e-05,0.00098756,13.617,0.0036211,0.0095546,4.2901e-08,0.4,0.28,0
0.033619,0.025057,0.0090657,0.0012587,0.0010324,0.0028638,0,0,0.050724,0.00045251,0,0.025517,0,0,0,0.010092,0.00023281,0.0010324,17.806,0.0037856,0.00949,4.2759e-08,0.42,0.28,0
0.033786,0.025765,0.0095477,0.0013464,0.0010894,0.0021081,0,0,0.0093041,0.00028266,0,0.0046378,0,0,0,0.010058,0.00083625,0.0010894,13.603,0.0039945,0.0090977,3.8573e-08,0.44,0.28,0
0.033991,0.026538,0.0099597,0.00092761,0.0010887,0.0027934,0,0,0.0097581,-0.00017723,0,0.0061455,0,0,0,0.010754,0.0001335,0.0010887,15.87,0.003992,0.010176,5.2521e-08,0.46,0.28,0
0.034177,0.027312,0.0093023,0.00058099,0.00098833,0.0025939,0,0,0.0091454,-0.00044808,0,0.0057065,0,0,0,0.010016,-0.00013216,0.00098833,15.373,0.0036239,0.0096364,4.3871e-08,0.48,0.28,0
0.034357,0.028088,0.0089755,0.00065053,0.0009626,0.0025176,0,0,0.0088141,-0.00034328,0,0.0055387,0,0,0,0.0096776,-5.1614e-05,0.0009626,15.584,0.0035295,0.0092639,3.9186e-08,0.5,0.28,0
0.034529,0.028861,0.0086363,0.0007865,0.00094228,0.0024192,0,0,0.0084635,-0.00017136,0,0.0053221,0,0,0,0.009322,0.00010086,0.00094228,15.824,0.003455,0.0088305,3.4285e-08,0.52,0.28,0
0.034696,0.029631,0.0083817,0.00096357,0.00093453,0.0023994,0,0,0.0081919,3.1941e-05,0,0.0052786,0,0,0,0.0090901,0.00025515,0.00093453,16.449,0.0034266,0.0085157,3.1036e-08,0.54,0.28,0
0.034857,0.030402,0.0081805,0.0010703,0.00092508,0.0024202,0,0,0.007981,0.00015975,0,0.0053244,0,0,0,0.0089261,0.00032471,0.00092508,17.123,0.003392,0.0083175,2.9034e-08,0.56,0.28,0
0.035015,0.031173,0.0080371,0.0010882,0.00091252,0.0024565,0,0,0.007837,0.00019323,0,0.0054043,0,0,0,0.0088177,0.0003075,0.00091252,17.631,0.0033459,0.0082244,2.8051e-08,0.58,0.28,0
0.035171,0.031944,0.0079338,0.0010255,0.00089593,0.0024767,0,0,0.0077416,0.00014257,0,0.0054488,0,0,0,0.00873,0.00022935,0.00089593,17.821,0.0032851,0.0081877,2.7562e-08,0.6,0.28,0
0.035325,0.032715,0.0078556,0.00091113,0.00087667,0.0024646,0,0,0.0076768,3.7906e-05,0,0.0054221,0,0,0,0.0086413,0.00012535,0.00087667,17.684,0.0032145,0.0081663,2.7174e-08,0.62,0.28,0
0.035478,0.033482,0.007788,0.00078005,0.00085681,0.002412,0,0,0.0076243,-8.4432e-05,0,0.0053063,0,0,0,0.0085379,3.0158e-05,0.00085681,17.271,0.0031416,0.008126,2.6599e-08,0.64,0.28,0
0.03563,0.034245,0.0077143,0.00067345,0.00083877,0.0023215,0,0,0.0075631,-0.00018186,0,0.0051074,0,0,0,0.0084108,-2.3105e-05,0.00083877,16.701,0.0030755,0.0080377,2.5639e-08,0.66,0.28,0
0.03578,0.035002,0.0076211,0.00063772,0.00082588,0.0022034,0,0,0.0074748,-0.00020698,0,0.0048475,0,0,0,0.0082582,6.286e-07,0.00082588,16.127,0.0030282,0.0078774,2.418e-08,0.68,0.28,0
0.035929,0.035753,0.0074655,0.00068348,0.0008149,0.0020733,0,0,0.0073157,-0.00014456,0,0.0045612,0,0,0,0.0080491,9.9901e-05,0.0008149,15.721,0.002988,0.0076169,2.2024e-08,0.7,0.28,0
0.036073,0.0365,0.0072866,0.00076821,0.00080548,0.0019714,0,0,0.0071292,-4.0996e-05,0,0.004337,0,0,0,0.0078364,0.00021839,0.00080548,15.584,0.0029534,0.0073421,1.989e-08,0.72,0.28,0
0.036214,0.03726,0.0064601,0.00075348,0.00072136,0.0023233,0,0,0.0063126,3.533e-05,0,0.0051114,0,0,0,0.0072864,-7.2789e-05,0.00072136,19.577,0.002645,0.006996,1.6824e-08,0.74,0.28,0
0.036325,0.038079,0.0059078,-0.0021748,0.00037331,0.0012993,0,0,0.035789,-0.0050961,0,0.020207,0,0,0,0.0061667,-0.0024336,0.00037331,9.5909,0.0013688,0.0077374,9.324e-09,0.76,0.28,0
0.037645,0.039631,0.0065085,-0.00050125,0.00060072,0.0014986,0,0,0.064985,-0.012122,0,0.03297,0,0,0,0.0068154,-0.0008082,0.00060072,11.575,0.0022027,0.0070259,1.5426e-08,0.78,0.28,0
0.038925,0.04106,0.0062362,-0.00034968,0.00058865,0.00132,0,0,0.062122,-0.010322,0,0.02904,0,0,0,0.0064909,-0.00060439,0.00058865,10.922,0.0021584,0.0065803,1.3028e-08,0.8,0.28,0
0.04013,0.042347,0.0059621,-0.0001828,0.00057793,0.0011968,0,0,0.059226,-0.008368,0,0.02633,0,0,0,0.006187,-0.00040766,0.00057793,10.641,0.0021191,0.0061613,1.0983e-08,0.82,0.28,0
0.041294,0.043521,0.0058116,-0.00010395,0.00057076,0.0011497,0,0,0.057649,-0.0074218,0,0.025293,0,0,0,0.0060272,-0.00031953,0.00057076,10.621,0.0020928,0.0059517,1.0016e-08,0.84,0.28,0
0.042436,0.044595,0.0057247,-5.7076e-05,0.00056676,0.0011424,0,0,0.056737,-0.0068622,0,0.025134,0,0,0,0.0059422,-0.00027463,0.00056676,10.782,0.0020781,0.0058418,9.527e-09,0.86,0.28,0
0.043563,0.045582,0.0056536,-1.2346e-05,0.00056413,0.0011578,0,0,0.055984,-0.0063412,0,0.025471,0,0,0,0.005881,-0.00023979,0.00056413,11.114,0.0020685,0.0057611,9.1793e-09,0.88,0.28,0
0.044675,0.046494,0.0055846,4.0989e-05,0.00056256,0.0011793,0,0,0.055243,-0.0057373,0,0.025945,0,0,0,0.0058251,-0.00019947,0.00056256,11.524,0.0020627,0.005682,8.853e-09,0.9,0.28,0
0.045773,0.047336,0.0055153,0.00010872,0.0005624,0.0011986,0,0,0.054482,-0.0049905,0,0.026369,0,0,0,0.0057691,-0.00014508,0.0005624,11.956,0.0020621,0.0055941,8.5082e-09,0.92,0.28,0
0.046855,0.048108,0.0054449,0.00019442,0.00056393,0.0012109,0,0,0.05369,-0.0040645,0,0.026639,0,0,0,0.0057107,-7.1375e-05,0.00056393,12.381,0.0020677,0.005492,8.1252e-09,0.94,0.28,0
0.04792,0.048811,0.0053728,0.0003006,0.00056734,0.0012131,0,0,0.05286,-0.0029342,0,0.026687,0,0,0,0.005648,2.5412e-05,0.00056734,12.781,0.0020803,0.0053722,7.6904e-09,0.96,0.28,0
0.048969,0.049443,0.0052989,0.00042893,0.00057278,0.0012021,0,0,0.051987,-0.0015824,0,0.026446,0,0,0,0.0055794,0.00014838,0.00057278,13.137,0.0021002,0.0052318,7.1919e-09,0.98,0.28,0
0.05,0.05,0.0052711,0.00058567,0.00058567,0.001266,0,0,0.051539,-2.2812e-16,0,0.027853,0,0,0,0.0055913,0.00026546,0.00058567,14.194,0.0021475,0.0051731,7.0184e-09,1,0.28,0
0,0,0.0073526,0.00081695,0.00081695,0.0020132,0,0,0.071892,6.5052e-19,0,0.044292,0,0,0,0.0079229,0.00024656,0.00081695,15.818,0.0029955,0.0074077,2.046e-08,0,0.3,0
0.0014378,0.00088583,0.0073647,0.00074962,0.00081143,0.0019905,0,0,0.072086,-0.00067985,0,0.043792,0,0,0,0.0079174,0.00019684,0.00081143,15.52,0.0029752,0.0074324,2.0601e-08,0.02,0.3,0
0.0028834,0.0018096,0.0073976,0.00068049,0.0008078,0.0020132,0,0,0.072487,-0.0014005,0,0.044289,0,0,0,0.0079547,0.00012335,0.0008078,15.47,0.002962,0.0075125,2.1168e-08,0.04,0.3,0
0.0043373,0.002772,0.0074331,0.0006063,0.00080394,0.0020375,0,0,0.072921,-0.002174,0,0.044825,0,0,0,0.007995,4.4428e-05,0.00080394,15.417,0.0029478,0.0075993,2.1782e-08,0.06,0.3,0
0.0058003,0.0037728,0.007472,0.00052702,0.0007999,0.0020619,0,0,0.073393,-0.0030017,0,0.045361,0,0,0,0.008038,-3.8986e-05,0.0007999,15.35,0.002933,0.0076919,2.2439e-08,0.08,0.3,0
0.007273,0.004811,0.0075145,0.00044339,0.00079579,0.0020848,0,0,0.073906,-0.0038764,0,0.045865,0,0,0,0.0080834,-0.00012549,0.00079579,15.263,0.0029179,0.0077892,2.3131e-08,0.1,0.3,0
0.0087565,0.0058851,0.0075611,0.00035673,0.00079178,0.0021054,0,0,0.074462,-0.0047855,0,0.046319,0,0,0,0.0081312,-0.00021344,0.00079178,15.153,0.0029032,0.0078903,2.3854e-08,0.12,0.3,0
0.010252,0.0069933,0.0076119,0.00026871,0.00078806,0.0021235,0,0,0.075062,-0.0057128,0,0.046716,0,0,0,0.0081817,-0.00030112,0.00078806,15.021,0.0028896,0.0079941,2.4604e-08,0.14,0.3,0
0.011759,0.0081332,0.0076675,0.00018121,0.00078487,0.002139,0,0,0.075708,-0.0066402,0,0.047057,0,0,0,0.0082355,-0.00038682,0.00078487,14.873,0.0028778,0.0081003,2.5383e-08,0.16,0.3,0
0.01328,0.0093029,0.0077284,9.625e-05,0.00078247,0.0021523,0,0,0.076405,-0.0075484,0,0.047351,0,0,0,0.0082935,-0.00046887,0.00078247,14.712,0.002869,0.0082086,2.6196e-08,0.18,0.3,0
0.014815,0.0105,0.0077957,1.5987e-05,0.00078117,0.0021642,0,0,0.07716,-0.008417,0,0.047613,0,0,0,0.0083572,-0.00054555,0.00078117,14.545,0.0028643,0.0083191,2.7053e-08,0.2,0.3,0
0.016366,0.011722,0.0078704,-5.7182e-05,0.00078132,0.0021756,0,0,0.07798,-0.0092236,0,0.047862,0,0,0,0.0084282,-0.00061497,0.00078132,14.38,0.0028648,0.0084322,2.7967e-08,0.22,0.3,0
0.017934,0.012968,0.0079539,-0.00012046,0.00078335,0.0021871,0,0,0.078877,-0.0099419,0,0.048116,0,0,0,0.0085083,-0.00067481,0.00078335,14.223,0.0028723,0.0085478,2.8955e-08,0.24,0.3,0
0.019521,0.014236,0.0080477,-0.00017038,0.00078773,0.0021994,0,0,0.07986,-0.010539,0,0.048386,0,0,0,0.0085993,-0.00072198,0.00078773,14.079,0.0028884,0.0086656,3.003e-08,0.26,0.3,0
0.021129,0.015523,0.0081532,-0.00020243,0.00079507,0.0022123,0,0,0.080939,-0.010972,0,0.048671,0,0,0,0.0087028,-0.00075203,0.00079507,13.951,0.0029153,0.008784,3.1201e-08,0.28,0.3,0
0.022759,0.016829,0.0082717,-0.00021053,0.00080611,0.0022243,0,0,0.082121,-0.011183,0,0.048936,0,0,0,0.0088196,-0.00075844,0.00080611,13.838,0.0029558,0.0088995,3.2462e-08,0.3,0.3,0
0.024414,0.018151,0.0084041,-0.00018636,0.00082177,0.0022315,0,0,0.083405,-0.011089,0,0.049092,0,0,0,0.0089491,-0.00073142,0.00082177,13.726,0.0030132,0.009005,3.3773e-08,0.32,0.3,0
0.026095,0.019487,0.0085495,-0.00011822,0.00084313,0.0022257,0,0,0.08477,-0.010575,0,0.048966,0,0,0,0.0090877,-0.00065633,0.00084313,13.592,0.0030915,0.0090875,3.5033e-08,0.34,0.3,0
0.027804,0.020834,0.0086977,1.0961e-05,0.00087087,0.0021945,0,0,0.086095,-0.009459,0,0.048278,0,0,0,0.0092206,-0.00051193,0.00087087,13.402,0.0031932,0.0091201,3.596e-08,0.36,0.3,0
0.029539,0.022191,0.0087995,0.00023202,0.00090316,0.002137,0,0,0.08686,-0.0073825,0,0.047015,0,0,0,0.009303,-0.00027144,0.00090316,13.257,0.0033116,0.0090445,3.5848e-08,0.38,0.3,0
0.031279,0.02358,0.0088188,0.00060939,0.00094282,0.0020829,0,0,0.086636,-0.0036677,0,0.045825,0,0,0,0.0093171,0.00011114,0.00094282,13.453,0.003457,0.0088195,3.418e-08,0.4,0.3,0
0.033004,0.025055,0.0088447,0.000803,0.00096477,0.0021822,0,0,0.047491,-0.00032354,0,0.024127,0,0,0,0.0094015,0.00024614,0.00096477,14.204,0.0035375,0.00882,3.4451e-08,0.42,0.3,0
0.033178,0.025778,0.0088523,0.0012704,0.0010123,0.0027573,0,0,0.008624,0.00028396,0,0.0060661,0,0,0,0.009749,0.0003737,0.0010123,18.015,0.0037116,0.0090729,3.7718e-08,0.44,0.3,0
0.033349,0.026533,0.0088691,0.00084572,0.00097149,0.0028889,0,0,0.0086874,-0.00013835,0,0.0063557,0,0,0,0.0098011,-8.6228e-05,0.00097149,17.879,0.0035621,0.0094032,4.0886e-08,0.46,0.3,0
0.033526,0.027306,0.0089196,0.00076662,0.00096862,0.0029028,0,0,0.0087461,-0.0002222,0,0.0063862,0,0,0,0.0098475,-0.00016131,0.00096862,17.727,0.0035516,0.0094944,4.1865e-08,0.48,0.3,0
0.033699,0.028082,0.0087363,0.00076638,0.00095026,0.0027639,0,0,0.0085646,-0.00020228,0,0.0060806,0,0,0,0.009601,-9.8316e-05,0.00095026,17.372,0.0034843,0.0092198,3.8502e-08,0.5,0.3,0
0.033869,0.028858,0.0085478,0.00086681,0.00094146,0.0026574,0,0,0.008367,-8.212e-05,0,0.0058464,0,0,0,0.0093776,3.704e-05,0.00094146,17.341,0.003452,0.0089228,3.5225e-08,0.52,0.3,0
0.034034,0.029632,0.0083636,0.0009733,0.00093369,0.0025901,0,0,0.0081729,4.358e-05,0,0.0056983,0,0,0,0.0091809,0.00015593,0.00093369,17.514,0.0034235,0.0086623,3.2478e-08,0.54,0.3,0
0.034195,0.030404,0.0082116,0.0010486,0.00092601,0.0025674,0,0,0.0080141,0.0001348,0,0.0056482,0,0,0,0.0090367,0.00022342,0.00092601,17.817,0.0033954,0.0084839,3.0638e-08,0.56,0.3,0
0.034354,0.031176,0.0080924,0.0010654,0.00091579,0.0025649,0,0,0.0078943,0.0001646,0,0.0056429,0,0,0,0.0089291,0.0002288,0.00091579,18.065,0.0033579,0.0083779,2.9518e-08,0.58,0.3,0
0.034511,0.031947,0.0080023,0.0010254,0.00090277,0.00256,0,0,0.0078095,0.00013492,0,0.005632,0,0,0,0.0088408,0.00018688,0.00090277,18.137,0.0033102,0.0083192,2.8833e-08,0.6,0.3,0
0.034667,0.032716,0.0079294,0.0009452,0.00088746,0.0025352,0,0,0.0077461,6.3515e-05,0,0.0055774,0,0,0,0.0087526,0.000122,0.00088746,17.989,0.003254,0.0082745,2.8259e-08,0.62,0.3,0
0.034821,0.033481,0.0078577,0.00085115,0.00087089,0.0024838,0,0,0.0076855,-2.1715e-05,0,0.0054644,0,0,0,0.0086489,5.9966e-05,0.00087089,17.668,0.0031933,0.0082136,2.7526e-08,0.64,0.3,0
0.034974,0.034243,0.0077658,0.00077359,0.00085394,0.0024115,0,0,0.007603,-8.8385e-05,0,0.0053054,0,0,0,0.0085168,2.2545e-05,0.00085394,17.299,0.0031311,0.0081106,2.6433e-08,0.66,0.3,0
0.035125,0.034999,0.0076133,0.00073596,0.00083493,0.0023409,0,0,0.0074563,-0.00010886,0,0.0051499,0,0,0,0.0083345,1.4813e-05,0.00083493,17.122,0.0030614,0.0079414,2.48e-08,0.68,0.3,0
0.035272,0.035752,0.0073017,0.00074882,0.00080506,0.0023159,0,0,0.0071463,-6.1855e-05,0,0.0050949,0,0,0,0.0080376,1.2986e-05,0.00080506,17.627,0.0029519,0.0076593,2.2248e-08,0.7,0.3,0
0.035411,0.036504,0.0065989,0.0007958,0.00073947,0.0023565,0,0,0.0064454,6.1963e-05,0,0.0051842,0,0,0,0.0074353,-4.0548e-05,0.00073947,19.541,0.0027114,0.0071179,1.7774e-08,0.72,0.3,0
0.03553,0.037256,0.0063195,0.00058952,0.0006909,0.002263,0,0,0.0061914,-0.00011152,0,0.0049787,0,0,0,0.0071054,-0.00019645,0.0006909,19.152,0.0025333,0.0069011,1.5943e-08,0.74,0.3,0
0.035659,0.037995,0.006265,-0.0013379,0.00049272,0.0018996,0,0,0.034583,-0.0036611,0,0.021825,0,0,0,0.0067205,-0.0017933,0.00049272,13.577,0.0018066,0.0077021,1.4362e-08,0.76,0.3,0
0.036914,0.03943,0.0063681,-0.00027854,0.00060895,0.0016577,0,0,0.063351,-0.0097625,0,0.03647,0,0,0,0.0067586,-0.00066904,0.00060895,13.255,0.0022328,0.0068783,1.4787e-08,0.78,0.3,0
0.038193,0.040859,0.0063733,-0.00014186,0.00062315,0.0014497,0,0,0.063252,-0.0084151,0,0.031894,0,0,0,0.0066814,-0.0004499,0.00062315,11.995,0.0022849,0.0066599,1.3853e-08,0.8,0.3,0
0.039444,0.042184,0.0062888,-9.0648e-05,0.00061982,0.0013068,0,0,0.062359,-0.0078151,0,0.02875,0,0,0,0.0065461,-0.00034797,0.00061982,11.139,0.0022727,0.0064648,1.2834e-08,0.82,0.3,0
0.040687,0.04337,0.0062403,-9.0209e-05,0.00061501,0.0012339,0,0,0.061878,-0.0077574,0,0.027145,0,0,0,0.0064723,-0.0003222,0.00061501,10.648,0.002255,0.0063777,1.2359e-08,0.84,0.3,0
0.041919,0.044451,0.006167,-7.1172e-05,0.00060958,0.0012256,0,0,0.061132,-0.0074883,0,0.026964,0,0,0,0.0063992,-0.00030334,0.00060958,10.726,0.0022351,0.0062959,1.1914e-08,0.86,0.3,0
0.043132,0.045449,0.0060761,-3.5166e-05,0.00060409,0.0012406,0,0,0.060192,-0.0070318,0,0.027292,0,0,0,0.0063183,-0.0002774,0.00060409,11.049,0.002215,0.0062021,1.1423e-08,0.88,0.3,0
0.044326,0.046373,0.0059826,1.8777e-05,0.00060014,0.0012607,0,0,0.059207,-0.006395,0,0.027737,0,0,0,0.0062382,-0.00023679,0.00060014,11.459,0.0022005,0.0060997,1.092e-08,0.9,0.3,0
0.045501,0.04723,0.0058912,9.1916e-05,0.00059832,0.0012787,0,0,0.058222,-0.0055704,0,0.02813,0,0,0,0.0061607,-0.00017749,0.00059832,11.898,0.0021938,0.005988,1.0406e-08,0.92,0.3,0
0.046655,0.048022,0.0058026,0.00018602,0.00059886,0.0012902,0,0,0.057241,-0.0045413,0,0.028385,0,0,0,0.0060848,-9.6199e-05,0.00059886,12.338,0.0021958,0.0058644,9.8696e-09,0.94,0.3,0
0.04779,0.048749,0.0057158,0.00030314,0.00060189,0.0012926,0,0,0.056253,-0.0032863,0,0.028437,0,0,0,0.0060086,1.0295e-05,0.00060189,12.765,0.0022069,0.0057255,9.2935e-09,0.96,0.3,0
0.048905,0.049409,0.0056295,0.00044557,0.00060751,0.0012827,0,0,0.055242,-0.0017814,0,0.02822,0,0,0,0.0059296,0.00014554,0.00060751,13.165,0.0022275,0.0055674,8.6577e-09,0.98,0.3,0
0.05,0.05,0.0055973,0.00062192,0.00062192,0.0013426,0,0,0.054729,-6.8522e-17,0,0.029537,0,0,0,0.0059365,0.00028276,0.00062192,14.178,0.0022804,0.005492,8.3984e-09,1,0.3,0
0,0,0.0072047,0.00080053,0.00080053,0.0019811,0,0,0.070446,-5.421e-20,0,0.043585,0,0,0,0.0077681,0.00023721,0.00080053,15.873,0.0029353,0.0072656,1.93e-08,0,0.32,0
0.0014089,0.0008717,0.0072177,0.00072879,0.00079465,0.0019577,0,0,0.070654,-0.00072449,0,0.04307,0,0,0,0.0077626,0.00018389,0.00079465,15.554,0.0029137,0.0072926,1.9448e-08,0.02,0.32,0
0.0028261,0.0017808,0.0072529,0.00065747,0.00079104,0.0019782,0,0,0.071081,-0.0014692,0,0.04352,0,0,0,0.0078007,0.00010965,0.00079104,15.479,0.0029005,0.0073741,2.0002e-08,0.04,0.32,0
0.0042521,0.0027276,0.0072907,0.00058294,0.00078737,0.0019995,0,0,0.071537,-0.0022487,0,0.04399,0,0,0,0.0078415,3.2132e-05,0.00078737,15.401,0.002887,0.0074605,2.0592e-08,0.06,0.32,0
0.0056876,0.0037119,0.007332,0.0005048,0.00078368,0.0020202,0,0,0.072031,-0.0030677,0,0.044445,0,0,0,0.007885,-4.8226e-05,0.00078368,15.309,0.0028735,0.0075517,2.1217e-08,0.08,0.32,0
0.0071334,0.0047328,0.0073773,0.00042337,0.00078006,0.0020392,0,0,0.072569,-0.0039236,0,0.044863,0,0,0,0.0079311,-0.00013051,0.00078006,15.196,0.0028602,0.0076471,2.1874e-08,0.1,0.32,0
0.0085904,0.0057889,0.007427,0.00033953,0.00077665,0.0020556,0,0,0.073154,-0.0048084,0,0.045223,0,0,0,0.00798,-0.0002135,0.00077665,15.058,0.0028477,0.007746,2.2561e-08,0.12,0.32,0
0.01006,0.0068787,0.0074816,0.00025451,0.00077361,0.0020689,0,0,0.073788,-0.0057101,0,0.045516,0,0,0,0.008032,-0.00029585,0.00077361,14.896,0.0028366,0.0078479,2.3278e-08,0.14,0.32,0
0.011542,0.0080003,0.0075417,0.00016982,0.00077115,0.0020791,0,0,0.074476,-0.0066146,0,0.045741,0,0,0,0.0080876,-0.00037613,0.00077115,14.713,0.0028275,0.0079524,2.4028e-08,0.16,0.32,0
0.013039,0.0091519,0.0076079,8.7183e-05,0.00076951,0.0020864,0,0,0.075223,-0.0075056,0,0.045901,0,0,0,0.008148,-0.00045286,0.00076951,14.512,0.0028215,0.0080595,2.4815e-08,0.18,0.32,0
0.014551,0.010332,0.0076812,8.5215e-06,0.00076897,0.0020913,0,0,0.076035,-0.008365,0,0.046009,0,0,0,0.0082142,-0.00052447,0.00076897,14.298,0.0028196,0.0081691,2.5649e-08,0.2,0.32,0
0.01608,0.011538,0.0077625,-6.3891e-05,0.00076987,0.0020945,0,0,0.076919,-0.0091713,0,0.046078,0,0,0,0.0082878,-0.00058915,0.00076987,14.079,0.0028228,0.0082815,2.6542e-08,0.22,0.32,0
0.017628,0.012769,0.0078528,-0.00012724,0.00077256,0.0020967,0,0,0.077883,-0.0098978,0,0.046127,0,0,0,0.0083702,-0.00064458,0.00077256,13.861,0.0028327,0.0083964,2.7505e-08,0.24,0.32,0
0.019195,0.014024,0.0079528,-0.00017782,0.0007775,0.0020987,0,0,0.078928,-0.010509,0,0.046171,0,0,0,0.0084626,-0.00068757,0.0007775,13.652,0.0028508,0.0085127,2.8545e-08,0.26,0.32,0
0.020785,0.015303,0.0080622,-0.00021044,0.00078518,0.0021009,0,0,0.080048,-0.010952,0,0.04622,0,0,0,0.0085652,-0.0007134,0.00078518,13.463,0.002879,0.0086275,2.9656e-08,0.28,0.32,0
0.022397,0.016605,0.0081793,-0.00021765,0.00079616,0.002103,0,0,0.081214,-0.011152,0,0.046267,0,0,0,0.0086765,-0.00071491,0.00079616,13.303,0.0029192,0.0087345,3.08e-08,0.3,0.32,0
0.024033,0.01793,0.0082985,-0.00018861,0.00081099,0.0021033,0,0,0.082363,-0.010996,0,0.046272,0,0,0,0.0087911,-0.00068124,0.00081099,13.182,0.0029736,0.0088214,3.1883e-08,0.32,0.32,0
0.025692,0.019278,0.0084086,-0.00010798,0.00083006,0.0020982,0,0,0.083364,-0.010318,0,0.046159,0,0,0,0.0088974,-0.00059682,0.00083006,13.115,0.0030435,0.0088673,3.2706e-08,0.34,0.32,0
0.027368,0.020652,0.0084874,4.4406e-05,0.00085318,0.0020862,0,0,0.083976,-0.0088965,0,0.045897,0,0,0,0.0089748,-0.00044296,0.00085318,13.149,0.0031283,0.0088412,3.2937e-08,0.36,0.32,0
0.029051,0.022058,0.0085139,0.00029072,0.00088046,0.0020771,0,0,0.083968,-0.0064872,0,0.045696,0,0,0,0.0090088,-0.00020415,0.00088046,13.401,0.0032284,0.0087214,3.2301e-08,0.38,0.32,0
0.030727,0.023514,0.0084904,0.00060129,0.00090916,0.0020974,0,0,0.083393,-0.0033866,0,0.046143,0,0,0,0.0090133,7.8339e-05,0.00090916,14,0.0033336,0.0085499,3.108e-08,0.4,0.32,0
0.032386,0.025044,0.0084198,0.0004802,0.00089,0.0022644,0,0,0.045632,-0.0008196,0,0.025358,0,0,0,0.0090213,-0.00012127,0.00089,14.817,0.0032633,0.0086876,3.197e-08,0.42,0.32,0
0.032552,0.025776,0.00842,0.00065197,0.0009072,0.0026024,0,0,0.0082641,-0.00028075,0,0.0057253,0,0,0,0.0092113,-0.00013929,0.0009072,16.912,0.0033264,0.0088737,3.421e-08,0.44,0.32,0
0.032717,0.026532,0.008445,0.00085626,0.00093013,0.0029183,0,0,0.0082664,-8.1256e-05,0,0.0064203,0,0,0,0.0094375,-0.00013621,0.00093013,18.782,0.0034105,0.0090876,3.6762e-08,0.46,0.32,0
0.032883,0.027303,0.0084693,0.00085993,0.00093292,0.0029639,0,0,0.00829,-8.0292e-05,0,0.0065206,0,0,0,0.0094875,-0.00015828,0.00093292,18.959,0.0034207,0.0091491,3.7454e-08,0.48,0.32,0
0.033049,0.02808,0.0084653,0.00090423,0.00093695,0.0028935,0,0,0.0082811,-3.5986e-05,0,0.0063658,0,0,0,0.0094455,-7.6016e-05,0.00093695,18.715,0.0034355,0.0090576,3.6561e-08,0.5,0.32,0
0.033214,0.028857,0.0083999,0.00095923,0.00093591,0.0027928,0,0,0.0082103,2.5649e-05,0,0.0061442,0,0,0,0.0093315,2.7589e-05,0.00093591,18.448,0.0034317,0.0088846,3.4754e-08,0.52,0.32,0
0.033377,0.029633,0.008315,0.0010197,0.00093348,0.0027196,0,0,0.0081197,9.4889e-05,0,0.005983,0,0,0,0.0092173,0.00011752,0.00093348,18.353,0.0034228,0.0087204,3.3056e-08,0.54,0.32,0
0.033538,0.030407,0.0082262,0.0010615,0.00092877,0.0026769,0,0,0.0080272,0.00014604,0,0.0058891,0,0,0,0.0091158,0.00017189,0.00092877,18.384,0.0034055,0.0085906,3.1709e-08,0.56,0.32,0
0.033698,0.031179,0.0081452,0.0010703,0.00092156,0.002653,0,0,0.0079461,0.00016363,0,0.0058366,0,0,0,0.0090296,0.000186,0.00092156,18.434,0.003379,0.0084997,3.0743e-08,0.58,0.32,0
0.033856,0.031949,0.0080748,0.0010415,0.00091164,0.0026312,0,0,0.0078795,0.00014289,0,0.0057887,0,0,0,0.0089502,0.00016613,0.00091164,18.402,0.0033427,0.0084361,3.0025e-08,0.6,0.32,0
0.034013,0.032717,0.0080108,0.00098324,0.0008994,0.0025998,0,0,0.0078225,9.2226e-05,0,0.0057196,0,0,0,0.008868,0.00012601,0.0008994,18.249,0.0032978,0.0083821,2.938e-08,0.62,0.32,0
0.034169,0.033481,0.0079433,0.00091165,0.0008855,0.0025555,0,0,0.0077636,2.8773e-05,0,0.0056222,0,0,0,0.0087739,8.1015e-05,0.0008855,18.006,0.0032468,0.0083199,2.8648e-08,0.64,0.32,0
0.034324,0.034242,0.0078609,0.0008437,0.00087046,0.0025069,0,0,0.0076895,-2.9438e-05,0,0.0055151,0,0,0,0.0086644,4.0155e-05,0.00087046,17.773,0.0031917,0.0082405,2.7759e-08,0.66,0.32,0
0.034477,0.034998,0.0077558,0.00078486,0.00085407,0.0024806,0,0,0.007592,-7.6137e-05,0,0.0054573,0,0,0,0.0085485,-7.7474e-06,0.00085407,17.72,0.0031316,0.0081595,2.6854e-08,0.68,0.32,0
0.034628,0.03575,0.007638,0.0007135,0.00083515,0.0025377,0,0,0.0074831,-0.00013381,0,0.0055829,0,0,0,0.0084684,-0.00011693,0.00083515,18.12,0.0030622,0.0081511,2.654e-08,0.7,0.32,0
0.034776,0.036503,0.0074875,0.00053824,0.00080258,0.0027752,0,0,0.0073535,-0.00029077,0,0.0061055,0,0,0,0.0084598,-0.00043403,0.00080258,19.307,0.0029428,0.0083445,2.7646e-08,0.72,0.32,0
0.034922,0.037255,0.0062731,0.00010472,0.00063778,0.0026038,0,0,0.0061989,-0.00058636,0,0.0057284,0,0,0,0.0072253,-0.00084743,0.00063778,20.086,0.0023385,0.0074421,1.836e-08,0.74,0.32,0
0.035024,0.037932,0.005689,0.00028731,0.00059763,0.0023718,0,0,0.032964,-0.00062064,0,0.022409,0,0,0,0.0066229,-0.00064666,0.00059763,20.232,0.0021913,0.0067556,1.3584e-08,0.76,0.32,0
0.03624,0.039241,0.0060666,-0.00044851,0.00056181,0.00094144,0,0,0.060553,-0.011114,0,0.020712,0,0,0,0.0061999,-0.00058182,0.00056181,8.0597,0.00206,0.0062884,1.1361e-08,0.78,0.32,0
0.037446,0.040723,0.0063918,5.12e-05,0.0006443,0.0013682,0,0,0.063222,-0.0065241,0,0.0301,0,0,0,0.0066744,-0.00023142,0.0006443,11.671,0.0023624,0.0065123,1.3324e-08,0.8,0.32,0
0.038769,0.042034,0.0067269,-5.2844e-05,0.00066741,0.0013413,0,0,0.066655,-0.0079228,0,0.029509,0,0,0,0.0069826,-0.00030856,0.00066741,10.794,0.0024472,0.0068555,1.5423e-08,0.82,0.32,0
0.040112,0.043211,0.0067245,-8.7155e-05,0.00066373,0.0013295,0,0,0.066668,-0.0082597,0,0.02925,0,0,0,0.0069748,-0.00033746,0.00066373,10.662,0.0024337,0.0068666,1.5443e-08,0.84,0.32,0
0.041436,0.044295,0.0066083,-8.4841e-05,0.00065235,0.0013392,0,0,0.065516,-0.008109,0,0.029462,0,0,0,0.0068663,-0.00034284,0.00065235,10.905,0.0023919,0.0067667,1.4759e-08,0.86,0.32,0
0.042733,0.045301,0.0064786,-5.3993e-05,0.00064246,0.0013526,0,0,0.064198,-0.007661,0,0.029757,0,0,0,0.0067476,-0.00032298,0.00064246,11.247,0.0023557,0.0066407,1.3975e-08,0.88,0.32,0
0.044004,0.046239,0.0063548,9.0214e-07,0.00063557,0.0013668,0,0,0.062911,-0.0069813,0,0.03007,0,0,0,0.0066363,-0.00028065,0.00063557,11.639,0.0023304,0.0065074,1.3212e-08,0.9,0.32,0
0.045249,0.047113,0.0062399,7.8627e-05,0.00063185,0.0013786,0,0,0.061689,-0.0060855,0,0.030329,0,0,0,0.0065343,-0.00021577,0.00063185,12.054,0.0023168,0.0063687,1.2478e-08,0.92,0.32,0
0.046471,0.047926,0.0061331,0.00017981,0.00063129,0.0013853,0,0,0.06052,-0.0049662,0,0.030477,0,0,0,0.0064396,-0.00012677,0.00063129,12.479,0.0023147,0.0062221,1.1755e-08,0.94,0.32,0
0.04767,0.048679,0.0060321,0.00030635,0.00063385,0.0013847,0,0,0.059381,-0.0036025,0,0.030464,0,0,0,0.0063494,-1.0941e-05,0.00063385,12.906,0.0023241,0.0060637,1.1016e-08,0.96,0.32,0
0.048847,0.049372,0.0059344,0.00046122,0.00063956,0.0013741,0,0,0.058243,-0.0019618,0,0.03023,0,0,0,0.00626,0.00013562,0.00063956,13.331,0.0023451,0.0058886,1.0229e-08,0.98,0.32,0
0.05,0.05,0.0058981,0.00065534,0.00065534,0.001428,0,0,0.05767,7.0256e-17,0,0.031415,0,0,0,0.0062618,0.00029164,0.00065534,14.29,0.0024029,0.0057969,9.8721e-09,1,0.32,0
0,0,0.007056,0.000784,0.000784,0.0019474,0,0,0.068992,-8.1315e-19,0,0.042843,0,0,0,0.0076115,0.00022855,0.000784,15.92,0.0028747,0.0071215,1.8169e-08,0,0.34,0
0.0013798,0.00085685,0.0070695,0.00070958,0.00077791,0.0019231,0,0,0.069207,-0.00075159,0,0.042307,0,0,0,0.0076057,0.00017332,0.00077791,15.582,0.0028523,0.0071493,1.8316e-08,0.02,0.34,0
0.0027683,0.0017509,0.007106,0.0006372,0.00077432,0.0019415,0,0,0.069648,-0.0015083,0,0.042713,0,0,0,0.007644,9.9228e-05,0.00077432,15.488,0.0028392,0.0072309,1.8848e-08,0.04,0.34,0
0.0041658,0.0026821,0.007145,0.00056303,0.0007708,0.0019598,0,0,0.070116,-0.0022855,0,0.043116,0,0,0,0.0076843,2.3675e-05,0.0007708,15.387,0.0028263,0.0073158,1.9404e-08,0.06,0.34,0
0.0055729,0.0036501,0.0071873,0.00048649,0.00076738,0.0019769,0,0,0.070619,-0.0030898,0,0.043491,0,0,0,0.007727,-5.3255e-05,0.00076738,15.271,0.0028137,0.0074041,1.9986e-08,0.08,0.34,0
0.0069905,0.0046541,0.0072336,0.00040762,0.00076412,0.0019916,0,0,0.071164,-0.0039215,0,0.043816,0,0,0,0.0077722,-0.00013099,0.00076412,15.133,0.0028018,0.0074958,2.0595e-08,0.1,0.34,0
0.0084195,0.0056928,0.0072844,0.00032697,0.00076114,0.0020034,0,0,0.071756,-0.0047759,0,0.044074,0,0,0,0.00782,-0.00020866,0.00076114,14.969,0.0027908,0.0075904,2.123e-08,0.12,0.34,0
0.0098608,0.0067649,0.0073403,0.00024546,0.00075857,0.0020116,0,0,0.072399,-0.0056443,0,0.044255,0,0,0,0.0078709,-0.0002852,0.00075857,14.778,0.0027814,0.0076876,2.1891e-08,0.14,0.34,0
0.011315,0.0078686,0.0074018,0.00016427,0.00075661,0.002016,0,0,0.073097,-0.0065157,0,0.044353,0,0,0,0.0079255,-0.00035942,0.00075661,14.561,0.0027742,0.0077871,2.2582e-08,0.16,0.34,0
0.012785,0.0090026,0.0074696,8.4821e-05,0.00075544,0.0020168,0,0,0.073856,-0.0073768,0,0.04437,0,0,0,0.0079845,-0.00043008,0.00075544,14.322,0.00277,0.0078889,2.3308e-08,0.18,0.34,0
0.01427,0.010165,0.0075446,8.8024e-06,0.00075534,0.0020143,0,0,0.074682,-0.0082119,0,0.044314,0,0,0,0.0080492,-0.00049582,0.00075534,14.064,0.0027696,0.0079932,2.4077e-08,0.2,0.34,0
0.015772,0.011355,0.0076276,-6.1748e-05,0.00075658,0.0020091,0,0,0.075581,-0.0090016,0,0.044199,0,0,0,0.0081208,-0.00055503,0.00075658,13.795,0.0027741,0.0081001,2.49e-08,0.22,0.34,0
0.017293,0.012572,0.0077193,-0.00012421,0.0007595,0.0020021,0,0,0.076557,-0.0097208,0,0.044046,0,0,0,0.0082007,-0.0006057,0.0007595,13.523,0.0027849,0.0082094,2.5787e-08,0.24,0.34,0
0.018834,0.013815,0.0078199,-0.00017499,0.00076449,0.0019947,0,0,0.077609,-0.010334,0,0.043883,0,0,0,0.0082899,-0.00064503,0.00076449,13.259,0.0028031,0.0083202,2.6743e-08,0.26,0.34,0
0.020397,0.015085,0.0079284,-0.00020893,0.00077195,0.0019886,0,0,0.078721,-0.01079,0,0.043749,0,0,0,0.0083884,-0.00066889,0.00077195,13.024,0.0028305,0.0084297,2.776e-08,0.28,0.34,0
0.021983,0.016383,0.0080414,-0.00021831,0.00078231,0.0019859,0,0,0.07985,-0.011007,0,0.043691,0,0,0,0.0084941,-0.00067099,0.00078231,12.841,0.0028685,0.0085318,2.8802e-08,0.3,0.34,0
0.023591,0.017711,0.008151,-0.00019164,0.00079594,0.0019895,0,0,0.080906,-0.010863,0,0.04377,0,0,0,0.0086012,-0.0006418,0.00079594,12.749,0.0029184,0.0086146,2.9774e-08,0.32,0.34,0
0.025219,0.019074,0.0082428,-0.00011252,0.00081303,0.0020029,0,0,0.081728,-0.010181,0,0.044063,0,0,0,0.0086981,-0.00056782,0.00081303,12.807,0.0029811,0.0086585,3.05e-08,0.34,0.34,0
0.02686,0.020478,0.0082992,3.8161e-05,0.00083373,0.0020305,0,0,0.08212,-0.0087513,0,0.044672,0,0,0,0.0087713,-0.00043395,0.00083373,13.089,0.003057,0.0086414,3.0751e-08,0.36,0.34,0
0.028504,0.021932,0.0083081,0.00026578,0.00085739,0.0020779,0,0,0.081958,-0.0065077,0,0.045714,0,0,0,0.0088133,-0.00023937,0.00085739,13.664,0.0031438,0.0085571,3.0407e-08,0.38,0.34,0
0.030139,0.023444,0.0082735,0.00053625,0.00088098,0.0021443,0,0,0.081318,-0.003792,0,0.047174,0,0,0,0.008828,-1.8271e-05,0.00088098,14.499,0.0032303,0.0084327,2.9621e-08,0.4,0.34,0
0.031757,0.025022,0.0082012,0.00017629,0.00083775,0.0023087,0,0,0.044506,-0.0013229,0,0.026293,0,0,0,0.008818,-0.0004405,0.00083775,14.955,0.0030717,0.0087024,3.1019e-08,0.42,0.34,0
0.031919,0.025766,0.008166,0.00024475,0.00084108,0.0026286,0,0,0.0080574,-0.00065596,0,0.005783,0,0,0,0.0089589,-0.00054817,0.00084108,16.786,0.0030839,0.0088942,3.3184e-08,0.44,0.34,0
0.032079,0.026529,0.008159,0.00070246,0.00088615,0.0028705,0,0,0.0080002,-0.00020206,0,0.0063152,0,0,0,0.0091361,-0.00027458,0.00088615,18.797,0.0032492,0.0088873,3.3988e-08,0.46,0.34,0
0.032239,0.027303,0.0081994,0.00092445,0.00091238,0.0029385,0,0,0.0080157,1.3271e-05,0,0.0064648,0,0,0,0.009238,-0.00011422,0.00091238,19.467,0.0033454,0.0088836,3.4391e-08,0.48,0.34,0
0.0324,0.028081,0.0082534,0.0010041,0.00092574,0.0028965,0,0,0.0080604,8.6142e-05,0,0.0063723,0,0,0,0.0092685,-1.1099e-05,0.00092574,19.314,0.0033944,0.0088485,3.4241e-08,0.5,0.34,0
0.032561,0.028859,0.0082868,0.0010407,0.00093275,0.0028314,0,0,0.0080895,0.00011878,0,0.0062291,0,0,0,0.0092619,6.5589e-05,0.00093275,19.004,0.0034201,0.0087949,3.3797e-08,0.52,0.34,0
0.032723,0.029635,0.0082837,0.0010676,0.00093513,0.0027782,0,0,0.0080834,0.0001457,0,0.0061121,0,0,0,0.0092294,0.00012188,0.00093513,18.798,0.0034288,0.0087294,3.3166e-08,0.54,0.34,0
0.032885,0.03041,0.0082531,0.0010875,0.00093406,0.0027427,0,0,0.0080509,0.00016881,0,0.0060339,0,0,0,0.0091824,0.00015824,0.00093406,18.717,0.0034249,0.0086623,3.2482e-08,0.56,0.34,0
0.033045,0.031183,0.0082083,0.0010901,0.00092984,0.0027158,0,0,0.0080063,0.00017631,0,0.0059748,0,0,0,0.0091261,0.0001723,0.00092984,18.673,0.0034094,0.0086001,3.1816e-08,0.58,0.34,0
0.033205,0.031953,0.0081596,0.0010678,0.00092273,0.0026883,0,0,0.0079605,0.00015953,0,0.0059143,0,0,0,0.0090634,0.00016388,0.00092273,18.584,0.0033833,0.0085454,3.1199e-08,0.6,0.34,0
0.033364,0.032719,0.0081097,0.0010209,0.00091307,0.0026555,0,0,0.0079163,0.00011865,0,0.005842,0,0,0,0.0089941,0.00013655,0.00091307,18.42,0.0033479,0.008496,3.0611e-08,0.62,0.34,0
0.033522,0.033482,0.0080562,0.00095818,0.00090144,0.0026182,0,0,0.0078703,6.2412e-05,0,0.0057601,0,0,0,0.0089175,9.6903e-05,0.00090144,18.209,0.0033053,0.0084471,3.0011e-08,0.64,0.34,0
0.033679,0.034241,0.0079985,0.0008889,0.00088873,0.0025819,0,0,0.0078207,1.7881e-07,0,0.0056801,0,0,0,0.0088371,5.0213e-05,0.00088873,17.996,0.0032587,0.0083991,2.9411e-08,0.66,0.34,0
0.033835,0.034996,0.0079617,0.00080912,0.00087708,0.0025541,0,0,0.0077931,-7.4758e-05,0,0.0056191,0,0,0,0.0087801,-9.2921e-06,0.00087708,17.767,0.003216,0.0083815,2.9103e-08,0.68,0.34,0
0.03399,0.035746,0.00805,0.00067135,0.00087213,0.0025405,0,0,0.0078956,-0.00022086,0,0.0055891,0,0,0,0.0088401,-0.00011877,0.00087213,17.276,0.0031978,0.0085068,3.0175e-08,0.7,0.34,0
0.03415,0.036492,0.0086239,0.00038762,0.00090115,0.0025442,0,0,0.008495,-0.00056489,0,0.0055973,0,0,0,0.0093464,-0.00033493,0.00090115,15.854,0.0033042,0.0091263,3.6637e-08,0.72,0.34,0
0.03433,0.037232,0.010591,-4.8451e-05,0.0010543,0.002635,0,0,0.01049,-0.001213,0,0.0057969,0,0,0,0.011208,-0.00066527,0.0010543,13.175,0.0038656,0.011114,6.4845e-08,0.74,0.34,0
0.03457,0.03797,0.0083773,0.0015126,0.00098899,0.0027186,0,0,0.016705,0.0014287,0,0.018601,0,0,0,0.0093782,0.00051168,0.00098899,23.226,0.0036263,0.0086502,7.9226e-08,0.76,0.34,0
0.034951,0.038985,0.012739,8.5063e-05,0.0012824,0.0020036,0,0,0.040244,-0.0054083,0,0.010382,0,0,0,0.013064,-0.0002403,0.0012824,7.6184,0.0047022,0.012613,1.7664e-07,0.78,0.34,0
0.036603,0.040598,0.00805,6.5056e-05,0.00081151,0.00163,0,0,0.079624,-0.008211,0,0.03586,0,0,0,0.00837,-0.00025487,0.00081151,11.104,0.0029755,0.0081442,2.6147e-08,0.8,0.34,0
0.038136,0.041867,0.0075534,-4.1136e-05,0.00075123,0.0014976,0,0,0.074824,-0.008716,0,0.032947,0,0,0,0.0078381,-0.00032578,0.00075123,10.762,0.0027545,0.0076822,2.175e-08,0.82,0.34,0
0.039596,0.043039,0.0072406,-8.3503e-05,0.00071571,0.0015068,0,0,0.071774,-0.0087913,0,0.033148,0,0,0,0.0075384,-0.00038136,0.00071571,11.182,0.0026243,0.0074322,1.9546e-08,0.84,0.34,0
0.041007,0.044127,0.0070174,-8.8777e-05,0.00069286,0.0015002,0,0,0.06957,-0.0085981,0,0.033004,0,0,0,0.0073212,-0.0003925,0.00069286,11.445,0.0025405,0.0072323,1.7963e-08,0.86,0.34,0
0.042379,0.045142,0.0068382,-6.1614e-05,0.00067766,0.0014974,0,0,0.067766,-0.008132,0,0.032943,0,0,0,0.0071491,-0.00037257,0.00067766,11.732,0.0024847,0.0070555,1.6699e-08,0.88,0.34,0
0.043718,0.046094,0.0066843,-6.8016e-06,0.00066775,0.0014972,0,0,0.066182,-0.0074201,0,0.032938,0,0,0,0.0070041,-0.00032652,0.00066775,12.054,0.0024484,0.0068875,1.5608e-08,0.9,0.34,0
0.045026,0.046986,0.0065485,7.3586e-05,0.00066221,0.001497,0,0,0.064749,-0.0064749,0,0.032934,0,0,0,0.0068779,-0.00025576,0.00066221,12.408,0.0024281,0.0067218,1.4623e-08,0.92,0.34,0
0.046308,0.047823,0.0064262,0.00017953,0.00066057,0.0014946,0,0,0.063422,-0.0052915,0,0.032881,0,0,0,0.0067654,-0.00015966,0.00066057,12.786,0.0024221,0.0065536,1.3696e-08,0.94,0.34,0
0.047563,0.048605,0.0063135,0.00031283,0.00066263,0.0014879,0,0,0.06216,-0.0038478,0,0.032735,0,0,0,0.0066622,-3.5858e-05,0.00066263,13.189,0.0024297,0.0063776,1.2785e-08,0.96,0.34,0
0.048794,0.049331,0.0062064,0.00047709,0.00066835,0.0014748,0,0,0.060919,-0.0021039,0,0.032445,0,0,0,0.0065638,0.00011975,0.00066835,13.62,0.0024506,0.006188,1.1847e-08,0.98,0.34,0
0.05,0.05,0.0061668,0.0006852,0.0006852,0.0015209,0,0,0.060298,-2.6671e-17,0,0.03346,0,0,0,0.0065605,0.00029149,0.0006852,14.513,0.0025124,0.0060817,1.139e-08,1,0.34,0
0,0,0.0069052,0.00076724,0.00076724,0.0019128,0,0,0.067517,-1.1384e-18,0,0.042082,0,0,0,0.0074525,0.00021994,0.00076724,15.967,0.0028132,0.006975,1.7067e-08,0,0.36,0
0.0013503,0.00084164,0.0069188,0.00069181,0.00076106,0.0018874,0,0,0.067735,-0.00076178,0,0.041524,0,0,0,0.0074462,0.00016439,0.00076106,15.612,0.0027906,0.0070026,1.7205e-08,0.02,0.36,0
0.0027094,0.0017205,0.0069557,0.00061949,0.00075752,0.0019041,0,0,0.06818,-0.0015183,0,0.041889,0,0,0,0.0074839,9.1341e-05,0.00075752,15.503,0.0027776,0.007083,1.7707e-08,0.04,0.36,0
0.0040776,0.0026362,0.0069948,0.00054648,0.00075412,0.0019196,0,0,0.068647,-0.0022841,0,0.042231,0,0,0,0.0075229,1.8301e-05,0.00075412,15.384,0.0027651,0.0071651,1.8223e-08,0.06,0.36,0
0.0054553,0.0035883,0.0070369,0.00047209,0.0007509,0.0019331,0,0,0.069146,-0.0030669,0,0.042529,0,0,0,0.0075638,-5.4853e-05,0.0007509,15.248,0.0027533,0.0072495,1.8755e-08,0.08,0.36,0
0.0068434,0.0045759,0.0070827,0.00039623,0.00074789,0.0019438,0,0,0.069683,-0.0038683,0,0.042764,0,0,0,0.0076067,-0.00012779,0.00074789,15.087,0.0027423,0.007336,1.9306e-08,0.1,0.36,0
0.0082426,0.0055979,0.0071327,0.00031924,0.0007452,0.001951,0,0,0.070263,-0.0046856,0,0.042922,0,0,0,0.0076518,-0.00019987,0.0007452,14.9,0.0027324,0.0074244,1.9876e-08,0.12,0.36,0
0.0096539,0.006653,0.0071875,0.00024177,0.00074293,0.0019541,0,0,0.070891,-0.0055128,0,0.042991,0,0,0,0.0076996,-0.00027027,0.00074293,14.683,0.0027241,0.0075147,2.0465e-08,0.14,0.36,0
0.011078,0.0077397,0.0072476,0.00016475,0.00074124,0.0019529,0,0,0.07157,-0.0063414,0,0.042964,0,0,0,0.0077504,-0.00033802,0.00074124,14.437,0.0027179,0.0076065,2.1077e-08,0.16,0.36,0
0.012517,0.0088568,0.0073137,8.9328e-05,0.00074031,0.0019473,0,0,0.072308,-0.0071608,0,0.04284,0,0,0,0.0078052,-0.00040211,0.00074031,14.164,0.0027145,0.0076999,2.1717e-08,0.18,0.36,0
0.013971,0.010003,0.0073865,1.6892e-05,0.00074034,0.0019375,0,0,0.073108,-0.007958,0,0.042625,0,0,0,0.0078648,-0.00046143,0.00074034,13.868,0.0027146,0.0077952,2.2391e-08,0.2,0.36,0
0.015441,0.011178,0.0074668,-5.0867e-05,0.0007416,0.0019242,0,0,0.073978,-0.0087171,0,0.042332,0,0,0,0.0079307,-0.00051474,0.0007416,13.554,0.0027192,0.0078926,2.311e-08,0.22,0.36,0
0.01693,0.01238,0.0075554,-0.00011177,0.00074436,0.0019085,0,0,0.074921,-0.0094175,0,0.041987,0,0,0,0.0080042,-0.00056055,0.00074436,13.233,0.0027293,0.0079926,2.3884e-08,0.24,0.36,0
0.018438,0.013611,0.0076525,-0.00016285,0.00074897,0.0018923,0,0,0.075939,-0.01003,0,0.04163,0,0,0,0.0080866,-0.0005969,0.00074897,12.919,0.0027462,0.0080949,2.4724e-08,0.26,0.36,0
0.019967,0.014871,0.0077577,-0.00019985,0.00075578,0.0018786,0,0,0.077021,-0.010512,0,0.041329,0,0,0,0.0081789,-0.00062105,0.00075578,12.637,0.0027712,0.0081987,2.5634e-08,0.28,0.36,0
0.021519,0.016164,0.0078684,-0.0002164,0.0007652,0.0018723,0,0,0.078135,-0.010798,0,0.04119,0,0,0,0.0082809,-0.00062894,0.0007652,12.426,0.0028057,0.0083011,2.6606e-08,0.3,0.36,0
0.023093,0.017495,0.0079785,-0.00020288,0.00077757,0.0018808,0,0,0.079211,-0.010785,0,0.041378,0,0,0,0.0083902,-0.00061455,0.00077757,12.346,0.0028511,0.0083957,2.7599e-08,0.32,0.36,0
0.024687,0.018871,0.0080762,-0.00014513,0.00079311,0.0019143,0,0,0.080114,-0.010321,0,0.042114,0,0,0,0.0085001,-0.00056901,0.00079311,12.486,0.0029081,0.0084706,2.8513e-08,0.34,0.36,0
0.026297,0.020302,0.0081438,-2.3973e-05,0.00081198,0.0019821,0,0,0.08065,-0.0091955,0,0.043607,0,0,0,0.0085994,-0.00047958,0.00081198,12.945,0.0029773,0.008507,2.9178e-08,0.36,0.36,0
0.027913,0.021798,0.0081653,0.00017551,0.00083408,0.0020825,0,0,0.080643,-0.0072443,0,0.045816,0,0,0,0.0086755,-0.00033472,0.00083408,13.767,0.0030583,0.0084864,2.9393e-08,0.38,0.36,0
0.029523,0.023363,0.0081374,0.00043862,0.0008576,0.0021937,0,0,0.080078,-0.0046087,0,0.048261,0,0,0,0.0087186,-0.00014257,0.0008576,14.839,0.0031445,0.0084058,2.9053e-08,0.4,0.36,0
0.031116,0.024991,0.00805,-0.00014715,0.00079028,0.0023826,0,0,0.043836,-0.0018749,0,0.027305,0,0,0,0.0086926,-0.00078979,0.00079028,15.119,0.0028977,0.0088206,3.0725e-08,0.42,0.36,0
0.031276,0.02575,0.0079955,-7.2576e-05,0.00079229,0.0026682,0,0,0.0079235,-0.00095135,0,0.0058701,0,0,0,0.008798,-0.00087516,0.00079229,16.741,0.0029051,0.0089567,3.2634e-08,0.44,0.36,0
0.031433,0.026524,0.0079786,0.00063048,0.00086091,0.0028404,0,0,0.0078294,-0.00025347,0,0.0062488,0,0,0,0.0089485,-0.00033942,0.00086091,18.854,0.0031566,0.0087497,3.2231e-08,0.46,0.36,0
0.031589,0.027304,0.0080482,0.00096718,0.00090153,0.0028449,0,0,0.0078613,7.2214e-05,0,0.0062587,0,0,0,0.0090495,-3.4181e-05,0.00090153,19.391,0.0033056,0.0086539,3.1977e-08,0.48,0.36,0
0.031748,0.028084,0.008165,0.00106,0.0009225,0.0028155,0,0,0.0079667,0.00015128,0,0.0061942,0,0,0,0.0091454,7.9587e-05,0.0009225,19.199,0.0033825,0.0086751,3.2466e-08,0.5,0.36,0
0.031908,0.028862,0.0082663,0.0010791,0.00093454,0.0027941,0,0,0.008065,0.00015897,0,0.006147,0,0,0,0.0092248,0.00012063,0.00093454,18.933,0.0034266,0.0087257,3.3122e-08,0.52,0.36,0
0.03207,0.029639,0.0083158,0.0010909,0.00094068,0.002784,0,0,0.0081127,0.00016528,0,0.0061248,0,0,0,0.0092641,0.00014264,0.00094068,18.81,0.0034491,0.0087498,3.3442e-08,0.54,0.36,0
0.032233,0.030414,0.0083198,0.0011059,0.00094257,0.0027746,0,0,0.008115,0.00017961,0,0.0061042,0,0,0,0.0092635,0.00016214,0.00094257,18.784,0.0034561,0.0087373,3.3338e-08,0.56,0.36,0
0.032395,0.031186,0.0082973,0.0011131,0.00094104,0.0027579,0,0,0.0080918,0.00018927,0,0.0060673,0,0,0,0.0092339,0.00017651,0.00094104,18.758,0.0034505,0.0087003,3.2945e-08,0.58,0.36,0
0.032556,0.031956,0.0082646,0.0010992,0.00093638,0.0027308,0,0,0.008061,0.00017907,0,0.0060078,0,0,0,0.0091867,0.00017708,0.00093638,18.658,0.0034334,0.008655,3.2435e-08,0.6,0.36,0
0.032717,0.032722,0.0082305,0.0010579,0.00092884,0.0026971,0,0,0.0080318,0.00014198,0,0.0059336,0,0,0,0.0091315,0.00015691,0.00092884,18.473,0.0034057,0.0086146,3.1947e-08,0.62,0.36,0
0.032878,0.033484,0.008195,0.0009936,0.00091886,0.0026637,0,0,0.0080038,8.2218e-05,0,0.0058602,0,0,0,0.0090732,0.00011542,0.00091886,18.247,0.0033692,0.0085843,3.1531e-08,0.64,0.36,0
0.033037,0.034242,0.0081546,0.00091832,0.00090729,0.0026345,0,0,0.0079721,1.2127e-05,0,0.0057959,0,0,0,0.0090121,6.0814e-05,0.00090729,18.03,0.0033267,0.0085595,3.1149e-08,0.66,0.36,0
0.033196,0.034994,0.0081116,0.00083742,0.0008949,0.0025935,0,0,0.0079383,-6.3228e-05,0,0.0057058,0,0,0,0.0089415,7.4111e-06,0.0008949,17.746,0.0032813,0.0085251,3.0662e-08,0.68,0.36,0
0.033355,0.035742,0.0081048,0.00073704,0.00088418,0.00249,0,0,0.0079427,-0.00016185,0,0.0054781,0,0,0,0.0088674,-2.5564e-05,0.00088418,17.028,0.003242,0.0084748,3.005e-08,0.7,0.36,0
0.033514,0.03648,0.0081575,0.0005358,0.00086933,0.0021977,0,0,0.008017,-0.00036688,0,0.004835,0,0,0,0.0087458,-5.2505e-05,0.00086933,14.986,0.0031875,0.0083755,2.8947e-08,0.72,0.36,0
0.033676,0.037207,0.0079084,0.00025585,0.00081643,0.0021417,0,0,0.0078012,-0.00061664,0,0.0047116,0,0,0,0.008467,-0.00030274,0.00081643,14.618,0.0029936,0.0082672,2.7236e-08,0.74,0.36,0
0.033826,0.03798,0.0054009,0.00022168,0.00056226,0.0016301,0,0,0.011163,-0.0014964,0,0.010016,0,0,0,0.0058808,-0.0002582,0.00056226,18.244,0.0020616,0.00578,2.3384e-08,0.76,0.36,0
0.034086,0.038951,0.010057,0.00057152,0.0010628,0.0026463,0,0,0.040535,0.0023579,0,0.034518,0,0,0,0.01088,-0.00025112,0.0010628,16.419,0.0038971,0.010539,6.7869e-08,0.78,0.36,0
0.035999,0.040395,0.009014,0.00022473,0.00092387,0.0021951,0,0,0.088991,-0.0076905,0,0.048291,0,0,0,0.0095317,-0.00029297,0.00092387,13.271,0.0033875,0.0092763,3.8629e-08,0.8,0.36,0
0.037645,0.041686,0.0080351,4.5001e-05,0.00080801,0.0018926,0,0,0.079498,-0.0083931,0,0.041637,0,0,0,0.0084607,-0.00038062,0.00080801,12.674,0.0029627,0.008311,2.7462e-08,0.82,0.36,0
0.039179,0.042859,0.0075906,-4.4149e-05,0.00075465,0.0017604,0,0,0.075196,-0.0087868,0,0.038728,0,0,0,0.007977,-0.00043049,0.00075465,12.378,0.002767,0.007882,2.3244e-08,0.84,0.36,0
0.040653,0.043951,0.0073285,-6.7665e-05,0.00072609,0.0017008,0,0,0.072627,-0.0087313,0,0.037418,0,0,0,0.0077009,-0.00044003,0.00072609,12.349,0.0026623,0.007625,2.0985e-08,0.86,0.36,0
0.042084,0.044976,0.0071253,-4.971e-05,0.00070756,0.0016678,0,0,0.070595,-0.0083299,0,0.036691,0,0,0,0.007494,-0.00041843,0.00070756,12.467,0.0025944,0.0074138,1.9312e-08,0.88,0.36,0
0.043477,0.045942,0.0069542,1.356e-06,0.00069556,0.0016461,0,0,0.068845,-0.0076362,0,0.036215,0,0,0,0.0073242,-0.00036869,0.00069556,12.669,0.0025504,0.0072199,1.7921e-08,0.9,0.36,0
0.044838,0.046854,0.0068052,8.111e-05,0.00068863,0.0016294,0,0,0.067282,-0.0066828,0,0.035848,0,0,0,0.0071793,-0.00029295,0.00068863,12.929,0.002525,0.007033,1.6699e-08,0.92,0.36,0
0.046168,0.047714,0.0066728,0.00018844,0.00068613,0.0016145,0,0,0.065854,-0.0054745,0,0.03552,0,0,0,0.0070526,-0.00019132,0.00068613,13.236,0.0025158,0.0068475,1.5581e-08,0.94,0.36,0
0.047472,0.048525,0.0065525,0.00032485,0.00068773,0.0015994,0,0,0.064512,-0.0039917,0,0.035187,0,0,0,0.0069392,-6.1892e-05,0.00068773,13.594,0.0025217,0.006658,1.4513e-08,0.96,0.36,0
0.048749,0.049287,0.0064394,0.00049424,0.00069336,0.0015823,0,0,0.063206,-0.0021903,0,0.034811,0,0,0,0.0068343,9.9343e-05,0.00069336,14.013,0.0025423,0.0064584,1.3442e-08,0.98,0.36,0
0.05,0.05,0.0063977,0.00071085,0.00071085,0.0016192,0,0,0.062555,-2.8092e-16,0,0.035623,0,0,0,0.0068264,0.00028212,0.00071085,14.83,0.0026065,0.0063408,1.2892e-08,1,0.36,0
0,0,0.0067516,0.00075018,0.00075018,0.0018781,0,0,0.066016,-1.4095e-18,0,0.041319,0,0,0,0.007291,0.00021089,0.00075018,16.021,0.0027507,0.0068264,1.5995e-08,0,0.38,0
0.0013203,0.00082638,0.0067651,0.00067527,0.00074404,0.0018517,0,0,0.066232,-0.00075651,0,0.040738,0,0,0,0.007284,0.00015642,0.00074404,15.653,0.0027281,0.0068527,1.6118e-08,0.02,0.38,0
0.0026493,0.0016901,0.0068015,0.00060408,0.00074056,0.0018668,0,0,0.06667,-0.0015012,0,0.041069,0,0,0,0.0073204,8.5212e-05,0.00074056,15.533,0.0027154,0.0069308,1.6584e-08,0.04,0.38,0
0.0039871,0.0025907,0.0068397,0.00053298,0.00073727,0.0018799,0,0,0.067127,-0.0022472,0,0.041357,0,0,0,0.0073576,1.5165e-05,0.00073727,15.4,0.0027033,0.0070093,1.7055e-08,0.06,0.38,0
0.0053344,0.0035275,0.0068806,0.00046133,0.00073419,0.0018903,0,0,0.06761,-0.0030014,0,0.041586,0,0,0,0.0073958,-5.3943e-05,0.00073419,15.248,0.002692,0.0070886,1.7534e-08,0.08,0.38,0
0.0066915,0.0044994,0.0069245,0.00038896,0.00073135,0.0018973,0,0,0.068125,-0.0037663,0,0.041742,0,0,0,0.0074354,-0.00012192,0.00073135,15.07,0.0026816,0.0071689,1.8022e-08,0.1,0.38,0
0.0080594,0.0055054,0.0069721,0.00031608,0.00072882,0.0019004,0,0,0.068677,-0.0045402,0,0.041809,0,0,0,0.0074765,-0.0001883,0.00072882,14.864,0.0026723,0.0072499,1.852e-08,0.12,0.38,0
0.0094386,0.0065443,0.0070239,0.00024317,0.0007267,0.0018989,0,0,0.069269,-0.0053189,0,0.041777,0,0,0,0.0075194,-0.00025241,0.0007267,14.627,0.0026646,0.0073315,1.9028e-08,0.14,0.38,0
0.01083,0.007615,0.0070802,0.00017095,0.00072511,0.0018926,0,0,0.069905,-0.0060958,0,0.041636,0,0,0,0.0075646,-0.0003135,0.00072511,14.358,0.0026587,0.0074135,1.9549e-08,0.16,0.38,0
0.012235,0.0087162,0.0071416,0.0001003,0.00072419,0.0018811,0,0,0.070591,-0.0068627,0,0.041385,0,0,0,0.0076126,-0.00037075,0.00072419,14.058,0.0026554,0.0074961,2.0087e-08,0.18,0.38,0
0.013654,0.009847,0.0072088,3.2305e-05,0.00072411,0.0018648,0,0,0.071332,-0.0076099,0,0.041026,0,0,0,0.0076645,-0.00042333,0.00072411,13.73,0.0026551,0.0075795,2.0646e-08,0.2,0.38,0
0.015088,0.011007,0.0072827,-3.1789e-05,0.00072509,0.0018441,0,0,0.072133,-0.0083256,0,0.040571,0,0,0,0.0077213,-0.00047043,0.00072509,13.38,0.0026586,0.0076642,2.1238e-08,0.22,0.38,0
0.016539,0.012195,0.007364,-9.0438e-05,0.00072735,0.0018203,0,0,0.073003,-0.0089957,0,0.040045,0,0,0,0.0077847,-0.00051117,0.00072735,13.015,0.002667,0.0077512,2.1874e-08,0.24,0.38,0
0.018008,0.013414,0.0074537,-0.00014168,0.0007312,0.0017953,0,0,0.073948,-0.0096017,0,0.039497,0,0,0,0.0078567,-0.00054466,0.0007312,12.651,0.0026811,0.0078417,2.2572e-08,0.26,0.38,0
0.019497,0.014665,0.0075527,-0.00018288,0.00073698,0.001773,0,0,0.074973,-0.010119,0,0.039007,0,0,0,0.0079397,-0.00056991,0.00073698,12.314,0.0027023,0.0079373,2.3353e-08,0.28,0.38,0
0.021007,0.015951,0.0076614,-0.0002103,0.00074511,0.0017597,0,0,0.076079,-0.010509,0,0.038714,0,0,0,0.0080368,-0.00058578,0.00074511,12.045,0.0027321,0.0080402,2.4248e-08,0.3,0.38,0
0.02254,0.01728,0.007779,-0.00021838,0.00075606,0.0017656,0,0,0.077252,-0.010719,0,0.038844,0,0,0,0.0081514,-0.00059084,0.00075606,11.912,0.0027722,0.0081527,2.5289e-08,0.32,0.38,0
0.024097,0.018661,0.0079014,-0.00019805,0.00077033,0.0018066,0,0,0.078441,-0.010652,0,0.039745,0,0,0,0.0082861,-0.00058275,0.00077033,12.021,0.0028245,0.0082757,2.6505e-08,0.34,0.38,0
0.025678,0.02011,0.0080116,-0.00013344,0.00078782,0.0019012,0,0,0.079462,-0.010134,0,0.041826,0,0,0,0.0084335,-0.00055534,0.00078782,12.512,0.0028887,0.0083982,2.7817e-08,0.36,0.38,0
0.027276,0.021642,0.0080777,1.5428e-05,0.00080932,0.002056,0,0,0.079953,-0.0087328,0,0.045232,0,0,0,0.0085718,-0.0004786,0.00080932,13.511,0.0029675,0.0084801,2.89e-08,0.38,0.38,0
0.028876,0.02326,0.0080776,0.00028865,0.00083663,0.0022336,0,0,0.079651,-0.0060277,0,0.049139,0,0,0,0.0086727,-0.0003064,0.00083663,14.918,0.0030676,0.0084656,2.9254e-08,0.4,0.38,0
0.030462,0.024947,0.0079504,-0.00055578,0.00073946,0.0024656,0,0,0.043612,-0.0025905,0,0.028401,0,0,0,0.0086154,-0.0012208,0.00073946,15.141,0.0027113,0.0090531,3.0723e-08,0.42,0.38,0
0.03062,0.025728,0.0078896,-0.00025471,0.00076349,0.0027457,0,0,0.0078387,-0.00112,0,0.0060406,0,0,0,0.0087288,-0.0010939,0.00076349,16.995,0.0027995,0.0090383,3.2588e-08,0.44,0.38,0
0.030775,0.026519,0.007899,0.00073648,0.00086354,0.0027438,0,0,0.007739,-0.00013977,0,0.0060364,0,0,0,0.0088293,-0.0001938,0.00086354,18.729,0.0031663,0.0085436,3.0381e-08,0.46,0.38,0
0.03093,0.027306,0.0080396,0.0010023,0.00090419,0.0026823,0,0,0.007849,0.00010787,0,0.005901,0,0,0,0.0089454,9.6482e-05,0.00090419,18.659,0.0033153,0.008474,3.0297e-08,0.48,0.38,0
0.031089,0.028087,0.0082474,0.00105,0.00092974,0.0026784,0,0,0.0080495,0.00013226,0,0.0058925,0,0,0,0.0091348,0.00016264,0.00092974,18.329,0.003409,0.0086142,3.1954e-08,0.5,0.38,0
0.031252,0.028865,0.0083806,0.001055,0.00094356,0.0027229,0,0,0.0081808,0.00012258,0,0.0059903,0,0,0,0.0092818,0.00015381,0.00094356,18.313,0.0034597,0.0087599,3.3579e-08,0.52,0.38,0
0.031416,0.029642,0.0084376,0.0010724,0.00095099,0.0027688,0,0,0.0082352,0.00013351,0,0.0060914,0,0,0,0.0093623,0.0001476,0.00095099,18.469,0.003487,0.0088405,3.4499e-08,0.54,0.38,0
0.031581,0.030417,0.0084419,0.001105,0.00095469,0.0027943,0,0,0.008236,0.00016535,0,0.0061474,0,0,0,0.0093849,0.00016201,0.00095469,18.648,0.0035005,0.0088532,3.4678e-08,0.56,0.38,0
0.031746,0.03119,0.0084196,0.0011341,0.00095537,0.002791,0,0,0.0082106,0.00019658,0,0.0061402,0,0,0,0.0093659,0.00018778,0.00095537,18.729,0.003503,0.0088194,3.4334e-08,0.58,0.38,0
0.03191,0.03196,0.0083918,0.001137,0.00095288,0.0027626,0,0,0.0081828,0.00020255,0,0.0060777,0,0,0,0.009324,0.00020481,0.00095288,18.646,0.0034939,0.0087691,3.3784e-08,0.6,0.38,0
0.032073,0.032725,0.0083709,0.0010996,0.00094705,0.0027218,0,0,0.0081663,0.00016781,0,0.0059879,0,0,0,0.0092768,0.00019369,0.00094705,18.41,0.0034725,0.0087309,3.3325e-08,0.62,0.38,0
0.032236,0.033486,0.0083581,0.0010244,0.00093825,0.0026863,0,0,0.0081618,9.4772e-05,0,0.0059099,0,0,0,0.0092368,0.0001457,0.00093825,18.113,0.0034402,0.0087219,3.3129e-08,0.64,0.38,0
0.0324,0.034242,0.0083371,0.0009306,0.00092677,0.0026671,0,0,0.0081513,4.2176e-06,0,0.0058676,0,0,0,0.0091975,7.0145e-05,0.00092677,17.881,0.0033981,0.0087307,3.3072e-08,0.66,0.38,0
0.032563,0.034993,0.0082742,0.00085617,0.00091303,0.0026578,0,0,0.0080973,-6.2553e-05,0,0.0058471,0,0,0,0.0091281,2.2263e-06,0.00091303,17.812,0.0033478,0.0087063,3.2647e-08,0.68,0.38,0
0.032724,0.03574,0.0080684,0.00082438,0.00088927,0.0025969,0,0,0.007897,-7.1384e-05,0,0.0057133,0,0,0,0.0089032,-1.0412e-05,0.00088927,17.82,0.0032607,0.0084995,3.0348e-08,0.7,0.38,0
0.032878,0.036478,0.0075545,0.00088058,0.00084351,0.002465,0,0,0.0073821,4.0776e-05,0,0.005423,0,0,0,0.0083663,6.8866e-05,0.00084351,18.227,0.0030929,0.0079385,2.4871e-08,0.72,0.38,0
0.033019,0.037208,0.0067281,0.00078181,0.00075099,0.0021842,0,0,0.0065748,3.3907e-05,0,0.0048053,0,0,0,0.0074442,6.5725e-05,0.00075099,18.151,0.0027536,0.0070608,1.7506e-08,0.74,0.38,0
0.033141,0.03793,0.006468,-0.00056234,0.00059057,0.0017745,0,0,0.037087,-0.0023058,0,0.017496,0,0,0,0.0068965,-0.00099082,0.00059057,13.206,0.0021654,0.0072781,1.5339e-08,0.76,0.38,0
0.034502,0.039161,0.0068595,0.0013088,0.00081684,0.0026893,0,0,0.06647,0.0054119,0,0.059164,0,0,0,0.0079487,0.00021962,0.00081684,22.049,0.0029951,0.0074485,2.0765e-08,0.78,0.38,0
0.0358,0.04029,0.0072211,0.00056712,0.00077883,0.0022641,0,0,0.070865,-0.0023288,0,0.04981,0,0,0,0.0079184,-0.00013018,0.00077883,17.118,0.0028557,0.0076348,2.1768e-08,0.8,0.38,0
0.037337,0.041531,0.007798,0.00018986,0.00079879,0.0021556,0,0,0.076992,-0.0066982,0,0.047424,0,0,0,0.0083663,-0.00037844,0.00079879,14.769,0.0029289,0.0082196,2.656e-08,0.82,0.38,0
0.03888,0.042688,0.007707,3.8711e-05,0.00077457,0.0019936,0,0,0.076256,-0.0080944,0,0.043858,0,0,0,0.0081943,-0.00044859,0.00077457,13.736,0.0028401,0.0081008,2.5218e-08,0.84,0.38,0
0.040387,0.043777,0.0075137,-1.752e-05,0.00074962,0.0019051,0,0,0.074405,-0.0084385,0,0.041912,0,0,0,0.0079682,-0.000472,0.00074962,13.418,0.0027486,0.0079005,2.3299e-08,0.86,0.38,0
0.041856,0.044809,0.0073248,-1.4606e-05,0.00073102,0.0018469,0,0,0.072531,-0.0082019,0,0.040632,0,0,0,0.0077633,-0.00045316,0.00073102,13.358,0.0026804,0.0076931,2.1528e-08,0.88,0.38,0
0.043289,0.045788,0.0071538,2.8607e-05,0.00071824,0.0018038,0,0,0.070791,-0.007586,0,0.039683,0,0,0,0.0075844,-0.000402,0.00071824,13.427,0.0026336,0.0074894,1.9958e-08,0.9,0.38,0
0.044688,0.046719,0.0070019,0.00010399,0.00071059,0.0017691,0,0,0.069205,-0.0066726,0,0.038921,0,0,0,0.0074292,-0.00032328,0.00071059,13.578,0.0026055,0.0072907,1.8562e-08,0.92,0.38,0
0.046057,0.047604,0.0068665,0.00020883,0.00070753,0.0017401,0,0,0.067748,-0.0054857,0,0.038282,0,0,0,0.0072938,-0.00021853,0.00070753,13.799,0.0025943,0.0070948,1.7293e-08,0.94,0.38,0
0.047398,0.048445,0.0067437,0.00034402,0.00070877,0.0017151,0,0,0.066384,-0.0040122,0,0.037732,0,0,0,0.0071743,-8.6636e-05,0.00070877,14.095,0.0025988,0.0068978,1.6103e-08,0.96,0.38,0
0.048712,0.049243,0.0066287,0.00051343,0.00071422,0.0016932,0,0,0.06506,-0.0022086,0,0.03725,0,0,0,0.0070662,7.592e-05,0.00071422,14.488,0.0026188,0.0066941,1.4935e-08,0.98,0.38,0
0.05,0.05,0.0065864,0.00073182,0.00073182,0.00172,0,0,0.0644,7.3726e-18,0,0.037841,0,0,0,0.0070543,0.00026389,0.00073182,15.219,0.0026834,0.006569,1.431e-08,1,0.38,0
0,0,0.0065952,0.0007328,0.0007328,0.001844,0,0,0.064486,-1.4908e-18,0,0.040569,0,0,0,0.007127,0.00020099,0.0007328,16.087,0.0026869,0.006676,1.4955e-08,0,0.4,0
0.0012897,0.00081138,0.0066082,0.00065971,0.00072679,0.0018167,0,0,0.064696,-0.00073796,0,0.039967,0,0,0,0.0071192,0.00014878,0.00072679,15.708,0.0026649,0.0067001,1.5061e-08,0.02,0.4,0
0.0025878,0.0016604,0.0066434,0.00059059,0.0007234,0.0018305,0,0,0.06512,-0.0014609,0,0.040271,0,0,0,0.0071539,8.007e-05,0.0007234,15.584,0.0026525,0.0067751,1.5488e-08,0.04,0.4,0
0.0038945,0.0025463,0.00668,0.0005221,0.00072021,0.0018416,0,0,0.065558,-0.0021793,0,0.040515,0,0,0,0.0071887,1.3376e-05,0.00072021,15.442,0.0026408,0.0068493,1.5912e-08,0.06,0.4,0
0.0052101,0.0034683,0.0067186,0.0004537,0.00071723,0.0018495,0,0,0.066015,-0.0028989,0,0.040688,0,0,0,0.0072238,-5.1536e-05,0.00071723,15.279,0.0026298,0.0069231,1.6336e-08,0.08,0.4,0
0.0065351,0.0044253,0.0067596,0.00038524,0.00071449,0.0018535,0,0,0.066497,-0.0036217,0,0.040778,0,0,0,0.0072594,-0.00011454,0.00071449,15.09,0.0026198,0.0069964,1.6759e-08,0.1,0.4,0
0.00787,0.0054163,0.0068035,0.00031687,0.00071203,0.0018532,0,0,0.067006,-0.0043468,0,0.040771,0,0,0,0.0072956,-0.00017526,0.00071203,14.872,0.0026108,0.0070691,1.7183e-08,0.12,0.4,0
0.0092154,0.0064402,0.0068505,0.00024896,0.00070994,0.001848,0,0,0.067546,-0.0050708,0,0.040656,0,0,0,0.0073326,-0.00023314,0.00070994,14.622,0.0026031,0.007141,1.7608e-08,0.14,0.4,0
0.010572,0.0074959,0.0069009,0.00018206,0.0007083,0.0018374,0,0,0.068119,-0.0057886,0,0.040423,0,0,0,0.0073706,-0.00028759,0.0007083,14.338,0.0025971,0.007212,1.8034e-08,0.16,0.4,0
0.01194,0.0085823,0.0069553,0.00011684,0.00070722,0.0018213,0,0,0.068729,-0.0064941,0,0.040068,0,0,0,0.0074101,-0.00033797,0.00070722,14.021,0.0025931,0.007282,1.8462e-08,0.18,0.4,0
0.013321,0.0096987,0.0070142,5.4056e-05,0.00070682,0.0017996,0,0,0.069381,-0.0071804,0,0.039591,0,0,0,0.0074519,-0.0003837,0.00070682,13.672,0.0025917,0.0073513,1.8899e-08,0.2,0.4,0
0.014715,0.010845,0.0070782,-5.4794e-06,0.00070727,0.0017727,0,0,0.07008,-0.0078403,0,0.038999,0,0,0,0.007497,-0.00042432,0.00070727,13.294,0.0025933,0.0074206,1.9351e-08,0.22,0.4,0
0.016124,0.01202,0.0071484,-6.0913e-05,0.00070875,0.0017416,0,0,0.070836,-0.0084663,0,0.038315,0,0,0,0.0075471,-0.00045958,0.00070875,12.894,0.0025987,0.0074912,1.9832e-08,0.24,0.4,0
0.017549,0.013227,0.0072263,-0.00011139,0.00071149,0.0017081,0,0,0.071663,-0.0090517,0,0.037579,0,0,0,0.0076045,-0.00048954,0.00071149,12.483,0.0026088,0.0075653,2.0362e-08,0.26,0.4,0
0.018991,0.014467,0.0073142,-0.0001561,0.00071581,0.0016757,0,0,0.072582,-0.0095909,0,0.036866,0,0,0,0.0076728,-0.00051477,0.00071581,12.082,0.0026246,0.0076469,2.0975e-08,0.28,0.4,0
0.020452,0.015744,0.0074155,-0.00019431,0.00072212,0.0016502,0,0,0.073627,-0.010081,0,0.036304,0,0,0,0.0077579,-0.00053674,0.00072212,11.723,0.0026478,0.0077424,2.1728e-08,0.3,0.4,0
0.021936,0.017066,0.0075361,-0.0002253,0.00073108,0.0016414,0,0,0.074855,-0.01052,0,0.036112,0,0,0,0.007869,-0.00055817,0.00073108,11.463,0.0026806,0.0078622,2.2715e-08,0.32,0.4,0
0.023446,0.018445,0.0076841,-0.00024754,0.00074365,0.001666,0,0,0.076345,-0.010903,0,0.036652,0,0,0,0.0080198,-0.00058327,0.00074365,11.393,0.0027267,0.0080223,2.409e-08,0.34,0.4,0
0.02499,0.019896,0.0078668,-0.00025371,0.00076131,0.001754,0,0,0.07816,-0.011165,0,0.038587,0,0,0,0.0082294,-0.00061636,0.00076131,11.682,0.0027915,0.0082438,2.6086e-08,0.36,0.4,0
0.026573,0.021448,0.0080397,-0.00022037,0.00078194,0.0019387,0,0,0.079836,-0.011025,0,0.042652,0,0,0,0.0084721,-0.00065277,0.00078194,12.573,0.0028671,0.0084989,2.8524e-08,0.38,0.4,0
0.028183,0.023121,0.0081108,1.2842e-05,0.00081236,0.0022178,0,0,0.080283,-0.0087947,0,0.048791,0,0,0,0.0086784,-0.00055475,0.00081236,14.356,0.0029787,0.0086312,3.025e-08,0.4,0.4,0
0.029784,0.024887,0.0080012,-0.0012532,0.0006748,0.002649,0,0,0.044081,-0.0038561,0,0.02998,0,0,0,0.0087106,-0.0019626,0.0006748,15.081,0.0024743,0.0096958,3.2046e-08,0.42,0.4,0
0.029946,0.025705,0.0079239,0.00014004,0.0008064,0.0026179,0,0,0.0078293,-0.00073299,0,0.0057595,0,0,0,0.0087225,-0.00065852,0.0008064,16.963,0.0029568,0.0087411,3.1079e-08,0.44,0.4,0
0.030097,0.026519,0.0079649,0.00088573,0.00088506,0.0025657,0,0,0.0077878,7.3715e-07,0,0.0056446,0,0,0,0.008797,5.3624e-05,0.00088506,17.969,0.0032452,0.0083587,2.8996e-08,0.46,0.4,0
0.030258,0.027308,0.0083584,0.00096783,0.00093262,0.0024692,0,0,0.0081683,3.873e-05,0,0.0054322,0,0,0,0.0091074,0.00021881,0.00093262,16.875,0.0034196,0.0085541,3.1393e-08,0.48,0.4,0
0.030424,0.028089,0.0085591,0.00095867,0.00095177,0.0025541,0,0,0.008368,7.5907e-06,0,0.0056191,0,0,0,0.0093376,0.0001801,0.00095177,16.953,0.0034898,0.0087971,3.406e-08,0.5,0.4,0
0.030593,0.028867,0.0086371,0.00096328,0.00096004,0.0026718,0,0,0.0084447,3.5711e-06,0,0.005878,0,0,0,0.0094757,0.00012468,0.00096004,17.426,0.0035201,0.0089626,3.5895e-08,0.52,0.4,0
0.030762,0.029644,0.0086454,0.0010091,0.00096544,0.0027712,0,0,0.0084479,4.8012e-05,0,0.0060965,0,0,0,0.009545,0.00010945,0.00096544,17.986,0.00354,0.009038,3.6773e-08,0.54,0.4,0
0.03093,0.03042,0.0086156,0.0010844,0.00097,0.0028262,0,0,0.0084101,0.00012585,0,0.0062175,0,0,0,0.0095582,0.00014183,0.00097,18.445,0.0035567,0.0090308,3.6756e-08,0.56,0.4,0
0.031098,0.031194,0.0085717,0.0011561,0.00097279,0.0028303,0,0,0.0083589,0.00020167,0,0.0062266,0,0,0,0.0095285,0.00019935,0.00097279,18.678,0.0035669,0.0089675,3.611e-08,0.58,0.4,0
0.031265,0.031964,0.0085355,0.0011893,0.00097248,0.0027912,0,0,0.0083193,0.00023851,0,0.0061407,0,0,0,0.0094757,0.00024911,0.00097248,18.616,0.0035658,0.008887,3.5245e-08,0.6,0.4,0
0.031431,0.032729,0.0085228,0.0011592,0.0009682,0.0027304,0,0,0.0083101,0.00021011,0,0.006007,0,0,0,0.0094248,0.00025725,0.0009682,18.28,0.0035501,0.0088336,3.463e-08,0.62,0.4,0
0.031597,0.033488,0.0085362,0.0010611,0.00095973,0.0026775,0,0,0.0083341,0.00011145,0,0.0058905,0,0,0,0.0093963,0.00020096,0.00095973,17.808,0.003519,0.0088404,3.4605e-08,0.64,0.4,0
0.031764,0.034242,0.0085648,0.00092871,0.00094935,0.0026658,0,0,0.008377,-2.2707e-05,0,0.0058647,0,0,0,0.0094034,9.0167e-05,0.00094935,17.461,0.003481,0.0089147,3.525e-08,0.66,0.4,0
0.031932,0.034992,0.0085545,0.00081329,0.00093678,0.0027,0,0,0.0083795,-0.00013585,0,0.0059401,0,0,0,0.0094032,-3.5403e-05,0.00093678,17.449,0.0034349,0.008992,3.5875e-08,0.68,0.4,0
0.032099,0.035739,0.008456,0.0008249,0.00092809,0.0028005,0,0,0.0082807,-0.0001135,0,0.0061611,0,0,0,0.0093734,-9.2549e-05,0.00092809,18.139,0.003403,0.0089991,3.5812e-08,0.7,0.4,0
0.032264,0.036482,0.0080746,0.00092176,0.00089963,0.0028279,0,0,0.0078924,2.4334e-05,0,0.0062213,0,0,0,0.0090575,-6.1174e-05,0.00089963,19.167,0.0032987,0.0086783,3.2184e-08,0.72,0.4,0
0.032415,0.037208,0.0079212,0.0010762,0.00089973,0.0027222,0,0,0.0077236,0.0001941,0,0.0059887,0,0,0,0.0088717,0.00012563,0.00089973,19.249,0.003299,0.0083859,2.9419e-08,0.74,0.4,0
0.032572,0.037888,0.0078232,0.00011224,0.00079354,0.0020994,0,0,0.041933,-0.0013626,0,0.020668,0,0,0,0.0083654,-0.00042998,0.00079354,14.081,0.0029097,0.0082705,2.6648e-08,0.76,0.4,0
0.034092,0.039167,0.0077844,0.00077292,0.00085574,0.0018672,0,0,0.076216,-0.00091095,0,0.041078,0,0,0,0.0082507,0.0003067,0.00085574,14.02,0.0031377,0.0076842,2.2902e-08,0.78,0.4,0
0.035621,0.040301,0.0077852,0.00069775,0.00084829,0.0021194,0,0,0.076306,-0.001656,0,0.046627,0,0,0,0.0083706,0.00011231,0.00084829,15.441,0.0031104,0.007916,2.4736e-08,0.8,0.4,0
0.037145,0.041418,0.0077769,0.00031292,0.00080898,0.0021839,0,0,0.076647,-0.0054567,0,0.048046,0,0,0,0.0083689,-0.00027912,0.00080898,15.168,0.0029663,0.0081586,2.6226e-08,0.82,0.4,0
0.038687,0.042535,0.0077516,0.00012663,0.00078783,0.0021598,0,0,0.076602,-0.0072732,0,0.047516,0,0,0,0.0083209,-0.00044266,0.00078783,14.766,0.0028887,0.0082177,2.6361e-08,0.84,0.4,0
0.040209,0.043614,0.0076101,5.115e-05,0.00076613,0.002088,0,0,0.075284,-0.0078648,0,0.045936,0,0,0,0.0081485,-0.00048727,0.00076613,14.459,0.0028091,0.0080823,2.4932e-08,0.86,0.4,0
0.041698,0.044648,0.0074429,4.0985e-05,0.00074839,0.0020198,0,0,0.07364,-0.0077814,0,0.044435,0,0,0,0.0079582,-0.00047428,0.00074839,14.312,0.0027441,0.0078925,2.322e-08,0.88,0.4,0
0.043154,0.045638,0.0072821,7.4924e-05,0.00073571,0.0019598,0,0,0.072011,-0.0072686,0,0.043115,0,0,0,0.0077806,-0.0004235,0.00073571,14.27,0.0026976,0.0076903,2.158e-08,0.9,0.4,0
0.044579,0.046587,0.0071358,0.00014301,0.00072788,0.0019085,0,0,0.070487,-0.0064336,0,0.041986,0,0,0,0.0076228,-0.00034394,0.00072788,14.314,0.0026689,0.0074886,2.0087e-08,0.92,0.4,0
0.045974,0.047495,0.0070042,0.0002416,0.00072458,0.0018654,0,0,0.069076,-0.0053127,0,0.041039,0,0,0,0.0074846,-0.00023883,0.00072458,14.443,0.0026568,0.0072896,1.8729e-08,0.94,0.4,0
0.047342,0.048365,0.0068844,0.00037109,0.00072555,0.0018304,0,0,0.067748,-0.0038991,0,0.040269,0,0,0,0.0073636,-0.00010806,0.00072555,14.669,0.0026604,0.0070916,1.7467e-08,0.96,0.4,0
0.048684,0.049199,0.0067722,0.00053503,0.00073072,0.0018036,0,0,0.066456,-0.0021526,0,0.039679,0,0,0,0.0072562,5.1056e-05,0.00073072,15.021,0.0026793,0.0068904,1.6252e-08,0.98,0.4,0
0.05,0.05,0.0067308,0.00074787,0.00074787,0.00182,0,0,0.065812,3.2147e-16,0,0.04004,0,0,0,0.007241,0.00023772,0.00074787,15.658,0.0027422,0.0067626,1.558e-08,1,0.4,0
0,0,0.0064359,0.0007151,0.0007151,0.0018111,0,0,0.062928,-9.2157e-19,0,0.039843,0,0,0,0.006961,0.00018997,0.0007151,16.17,0.002622,0.0065243,1.3953e-08,0,0.42,0
0.0012586,0.00079686,0.0064483,0.00064488,0.00070932,0.0017829,0,0,0.063129,-0.00070888,0,0.039224,0,0,0,0.0069523,0.00014092,0.00070932,15.784,0.0026008,0.0065457,1.4039e-08,0.02,0.42,0
0.0025252,0.0016317,0.0064817,0.00057858,0.00070603,0.0017958,0,0,0.063533,-0.001402,0,0.039509,0,0,0,0.0069851,7.5178e-05,0.00070603,15.659,0.0025888,0.0066171,1.4426e-08,0.04,0.42,0
0.0037999,0.0025036,0.0065161,0.00051323,0.00070293,0.0018055,0,0,0.063945,-0.0020867,0,0.039721,0,0,0,0.0070173,1.2039e-05,0.00070293,15.514,0.0025774,0.0066866,1.4803e-08,0.06,0.42,0
0.0050829,0.0034115,0.0065517,0.00044849,0.00070002,0.0018115,0,0,0.064369,-0.0027668,0,0.039853,0,0,0,0.0070489,-4.868e-05,0.00070002,15.347,0.0025668,0.0067544,1.5173e-08,0.08,0.42,0
0.0063746,0.0043545,0.006589,0.00038427,0.00069733,0.0018134,0,0,0.064809,-0.0034437,0,0.039895,0,0,0,0.0070801,-0.00010685,0.00069733,15.154,0.0025569,0.0068205,1.5535e-08,0.1,0.42,0
0.0076753,0.0053315,0.0066281,0.00032071,0.00069488,0.0018107,0,0,0.065266,-0.004116,0,0.039835,0,0,0,0.007111,-0.00016214,0.00069488,14.931,0.0025479,0.0068847,1.5888e-08,0.12,0.42,0
0.0089853,0.0063415,0.0066692,0.00025811,0.00069273,0.0018028,0,0,0.065741,-0.0047808,0,0.039662,0,0,0,0.0071414,-0.00021408,0.00069273,14.677,0.00254,0.0069466,1.6231e-08,0.14,0.42,0
0.010305,0.0073834,0.0067124,0.00019691,0.00069093,0.0017894,0,0,0.066236,-0.0054342,0,0.039366,0,0,0,0.0071714,-0.00026216,0.00069093,14.389,0.0025334,0.0070059,1.6564e-08,0.16,0.42,0
0.011635,0.0084564,0.0067579,0.00013759,0.00068955,0.00177,0,0,0.066752,-0.0060716,0,0.038939,0,0,0,0.0072014,-0.0003059,0.00068955,14.067,0.0025284,0.0070624,1.6886e-08,0.18,0.42,0
0.012975,0.0095598,0.0068062,8.0665e-05,0.00068868,0.0017445,0,0,0.067292,-0.0066882,0,0.038379,0,0,0,0.0072317,-0.0003449,0.00068868,13.71,0.0025252,0.0071164,1.7201e-08,0.2,0.42,0
0.014326,0.010693,0.0068576,2.6557e-05,0.00068842,0.0017131,0,0,0.067861,-0.0072805,0,0.037689,0,0,0,0.0072632,-0.000379,0.00068842,13.319,0.0025242,0.0071683,1.7512e-08,0.22,0.42,0
0.015689,0.011857,0.0069132,-2.4464e-05,0.00068888,0.0016765,0,0,0.068468,-0.0078467,0,0.036882,0,0,0,0.0072971,-0.00040834,0.00068888,12.897,0.0025259,0.0072196,1.7832e-08,0.24,0.42,0
0.017065,0.013052,0.0069745,-7.2459e-05,0.0006902,0.0016357,0,0,0.069127,-0.0083893,0,0.035986,0,0,0,0.0073356,-0.00043363,0.0006902,12.451,0.0025307,0.0072728,1.8177e-08,0.26,0.42,0
0.018454,0.014281,0.0070441,-0.00011808,0.00069261,0.0015932,0,0,0.069867,-0.0089175,0,0.035049,0,0,0,0.0073825,-0.00045647,0.00069261,11.992,0.0025396,0.0073323,1.8581e-08,0.28,0.42,0
0.01986,0.015548,0.0071272,-0.00016296,0.00069643,0.0015526,0,0,0.070739,-0.0094533,0,0.034156,0,0,0,0.0074441,-0.00047983,0.00069643,11.535,0.0025536,0.0074062,1.9102e-08,0.3,0.42,0
0.021284,0.016859,0.0072329,-0.00021029,0.00070226,0.0015203,0,0,0.071837,-0.010038,0,0.033446,0,0,0,0.0075315,-0.00050883,0.00070226,11.11,0.002575,0.0075083,1.9847e-08,0.32,0.42,0
0.022733,0.018225,0.0073786,-0.00026514,0.00071134,0.0015079,0,0,0.073339,-0.010741,0,0.033173,0,0,0,0.0076653,-0.00055184,0.00071134,10.765,0.0026082,0.007664,2.1018e-08,0.34,0.42,0
0.024218,0.019664,0.0075974,-0.00033376,0.00072636,0.0015355,0,0,0.075581,-0.011661,0,0.033781,0,0,0,0.0078843,-0.00062067,0.00072636,10.584,0.0026633,0.0079178,2.3027e-08,0.36,0.42,0
0.025757,0.021201,0.0079617,-0.00041267,0.0007549,0.0016751,0,0,0.079274,-0.012843,0,0.036851,0,0,0,0.0082843,-0.00073529,0.0007549,10.902,0.002768,0.0083745,2.6974e-08,0.38,0.42,0
0.027389,0.022908,0.0083316,-0.00048879,0.00078428,0.001965,0,0,0.083021,-0.014004,0,0.043229,0,0,0,0.0087496,-0.00090672,0.00078428,12.008,0.0028757,0.0089317,3.2218e-08,0.4,0.42,0
0.029077,0.024793,0.0075674,-0.0025635,0.00050039,0.0017651,0,0,0.045769,-0.0061278,0,0.027085,0,0,0,0.0079356,-0.0029317,0.00050039,10.204,0.0018348,0.0097854,2.1152e-08,0.42,0.42,0
0.029219,0.025699,0.0082224,0.001085,0.00093075,0.0031071,0,0,0.0080209,0.00016973,0,0.0068356,0,0,0,0.0093855,-7.8028e-05,0.00093075,20.522,0.0034127,0.0090017,3.5881e-08,0.44,0.42,0
0.029398,0.026519,0.0091312,0.00090328,0.0010034,0.0024229,0,0,0.0089405,-0.00011019,0,0.0053304,0,0,0,0.0097916,0.0002428,0.0010034,15.248,0.0036793,0.0091921,3.8971e-08,0.46,0.42,0
0.029577,0.027307,0.0091111,0.0008683,0.00099794,0.0024144,0,0,0.0089245,-0.00014261,0,0.0053118,0,0,0,0.0097663,0.00021315,0.00099794,15.181,0.0036591,0.0091859,3.8832e-08,0.48,0.42,0
0.029755,0.028087,0.0090465,0.00081126,0.00098578,0.0025388,0,0,0.0088668,-0.00019197,0,0.0055854,0,0,0,0.0097663,9.1498e-05,0.00098578,15.828,0.0036145,0.0092601,3.9502e-08,0.5,0.42,0
0.029932,0.028865,0.0089709,0.00082087,0.00097918,0.0026926,0,0,0.0087909,-0.00017413,0,0.0059236,0,0,0,0.0097801,1.166e-05,0.00097918,16.727,0.0035903,0.0093224,4.0104e-08,0.52,0.42,0
0.030107,0.029644,0.0088973,0.00091466,0.00098119,0.002817,0,0,0.0087077,-7.3183e-05,0,0.0061974,0,0,0,0.0097912,2.0681e-05,0.00098119,17.607,0.0035977,0.0093275,4.0193e-08,0.54,0.42,0
0.03028,0.030422,0.0088181,0.0010527,0.00098708,0.0028849,0,0,0.0086141,7.2166e-05,0,0.0063467,0,0,0,0.0097725,9.826e-05,0.00098708,18.306,0.0036193,0.0092619,3.9541e-08,0.56,0.42,0
0.030451,0.031198,0.0087441,0.001186,0.00099302,0.0028856,0,0,0.0085262,0.00021233,0,0.0063483,0,0,0,0.0097199,0.00021032,0.00099302,18.682,0.0036411,0.0091433,3.8291e-08,0.58,0.42,0
0.030621,0.031969,0.0086903,0.0012669,0.00099572,0.0028268,0,0,0.008464,0.00029833,0,0.0062189,0,0,0,0.0096442,0.00031307,0.00099572,18.646,0.003651,0.0090092,3.683e-08,0.6,0.42,0
0.03079,0.032733,0.0086731,0.0012535,0.00099266,0.0027302,0,0,0.0084485,0.00028694,0,0.0060064,0,0,0,0.0095694,0.00035716,0.00099266,18.175,0.0036398,0.0089115,3.5725e-08,0.62,0.42,0
0.030959,0.03349,0.0087098,0.00113,0.00098398,0.0026401,0,0,0.0084984,0.00016062,0,0.0058081,0,0,0,0.0095387,0.0003011,0.00098398,17.431,0.0036079,0.0089158,3.5681e-08,0.64,0.42,0
0.03113,0.034241,0.0087866,0.0009159,0.00097025,0.0025982,0,0,0.008598,-5.9784e-05,0,0.005716,0,0,0,0.0095669,0.00013557,0.00097025,16.717,0.0035576,0.0090429,3.6891e-08,0.66,0.42,0
0.031303,0.034988,0.0089259,0.00074284,0.00096687,0.0026665,0,0,0.0087549,-0.00024644,0,0.0058663,0,0,0,0.0097181,-4.9374e-05,0.00096687,16.547,0.0035452,0.0093011,3.9667e-08,0.68,0.42,0
0.03148,0.035735,0.0090296,0.00063456,0.00096642,0.0027525,0,0,0.0088695,-0.00036505,0,0.0060555,0,0,0,0.0098516,-0.00018742,0.00096642,16.627,0.0035435,0.0095147,4.2054e-08,0.7,0.42,0
0.031658,0.036478,0.009508,0.00090655,0.0010415,0.0029948,0,0,0.0093132,-0.0001484,0,0.0065885,0,0,0,0.010448,-3.3413e-05,0.0010415,17.425,0.0038187,0.0099874,4.9174e-08,0.72,0.42,0
0.031853,0.037215,0.008992,0.0010312,0.0010023,0.0022744,0,0,0.0087887,3.1768e-05,0,0.0050037,0,0,0,0.009596,0.00042721,0.0010023,14.872,0.0036752,0.0088952,3.5639e-08,0.74,0.42,0
0.032009,0.037876,0.008422,0.0010417,0.00094638,0.0027874,0,0,0.04698,0.00019074,0,0.02319,0,0,0,0.0094601,3.6863e-06,0.00094638,17.939,0.0034701,0.0090338,3.6413e-08,0.76,0.42,0
0.033732,0.039125,0.0086641,0.00057638,0.00092405,0.0021517,0,0,0.08514,-0.0038243,0,0.047338,0,0,0,0.0092009,3.9557e-05,0.00092405,14.009,0.0033882,0.0087527,3.3256e-08,0.78,0.42,0
0.035415,0.040224,0.0083646,0.00043963,0.00088042,0.0022185,0,0,0.082325,-0.0048487,0,0.048807,0,0,0,0.0089433,-0.00013915,0.00088042,14.622,0.0032282,0.0086181,3.1328e-08,0.8,0.42,0
0.037025,0.041313,0.0080407,0.00032822,0.00083689,0.0023166,0,0,0.079242,-0.0055954,0,0.050965,0,0,0,0.008683,-0.00031412,0.00083689,15.497,0.0030686,0.0084804,2.9388e-08,0.82,0.42,0
0.038585,0.042397,0.0078186,0.00019472,0.00080133,0.0023127,0,0,0.07719,-0.0066728,0,0.050879,0,0,0,0.0084653,-0.00045198,0.00080133,15.623,0.0029382,0.0083614,2.7763e-08,0.84,0.42,0
0.040112,0.043463,0.0076507,0.00012736,0.00077781,0.0022556,0,0,0.075602,-0.0071549,0,0.049623,0,0,0,0.0082751,-0.00049706,0.00077781,15.474,0.002852,0.0082094,2.612e-08,0.86,0.42,0
0.041609,0.044498,0.0074915,0.00011257,0.00076041,0.0021802,0,0,0.074042,-0.0071262,0,0.047965,0,0,0,0.0080875,-0.00048347,0.00076041,15.29,0.0027882,0.0080217,2.4376e-08,0.88,0.42,0
0.043074,0.045498,0.0073434,0.0001383,0.00074817,0.0021065,0,0,0.072547,-0.0067086,0,0.046343,0,0,0,0.007914,-0.00043235,0.00074817,15.158,0.0027433,0.0078232,2.2715e-08,0.9,0.42,0
0.044511,0.046462,0.0072086,0.00019724,0.00074058,0.0020406,0,0,0.071148,-0.0059768,0,0.044893,0,0,0,0.0077592,-0.0003534,0.00074058,15.101,0.0027155,0.0076247,2.1195e-08,0.92,0.42,0
0.04592,0.047391,0.0070866,0.00028635,0.00073729,0.0019849,0,0,0.069842,-0.0049604,0,0.043668,0,0,0,0.0076235,-0.00025062,0.00073729,15.138,0.0027034,0.0074296,1.9814e-08,0.94,0.42,0
0.047304,0.048289,0.0069749,0.00040588,0.00073808,0.0019407,0,0,0.068605,-0.0036542,0,0.042695,0,0,0,0.0075054,-0.00012462,0.00073808,15.289,0.0027063,0.0072373,1.854e-08,0.96,0.42,0
0.048664,0.049157,0.0068697,0.00055899,0.00074287,0.0019093,0,0,0.067395,-0.0020227,0,0.042005,0,0,0,0.0074024,2.6294e-05,0.00074287,15.589,0.0027239,0.0070452,1.7335e-08,0.98,0.42,0
0.05,0.05,0.0068309,0.00075899,0.00075899,0.0019157,0,0,0.066791,3.4098e-16,0,0.042146,0,0,0,0.0073848,0.0002051,0.00075899,16.126,0.002783,0.0069194,1.6648e-08,1,0.42,0
0,0,0.0062742,0.00069713,0.00069713,0.0017796,0,0,0.061348,-6.2342e-19,0,0.039151,0,0,0,0.0067937,0.00017766,0.00069713,16.273,0.0025562,0.0063722,1.2991e-08,0,0.44,0
0.001227,0.00078302,0.0062859,0.00063051,0.00069164,0.0017508,0,0,0.061537,-0.0006724,0,0.038519,0,0,0,0.006784,0.00013235,0.00069164,15.883,0.002536,0.0063904,1.3058e-08,0.02,0.44,0
0.0024615,0.0016043,0.0063171,0.00056755,0.00068847,0.0017633,0,0,0.061915,-0.0013301,0,0.038793,0,0,0,0.0068148,6.9857e-05,0.00068847,15.762,0.0025244,0.0064579,1.3405e-08,0.04,0.44,0
0.0037036,0.0024629,0.0063488,0.00050573,0.00068545,0.0017721,0,0,0.062297,-0.001977,0,0.038986,0,0,0,0.0068443,1.0294e-05,0.00068545,15.62,0.0025133,0.0065226,1.3739e-08,0.06,0.44,0
0.0049533,0.0033576,0.0063811,0.0004449,0.0006826,0.001777,0,0,0.062684,-0.0026147,0,0.039095,0,0,0,0.0068724,-4.6404e-05,0.0006826,15.455,0.0025029,0.0065847,1.4059e-08,0.08,0.44,0
0.0062109,0.0042875,0.0064141,0.00038508,0.00067992,0.0017777,0,0,0.063076,-0.0032432,0,0.03911,0,0,0,0.0068993,-0.00010007,0.00067992,15.264,0.0024931,0.0066438,1.4364e-08,0.1,0.44,0
0.0074764,0.0052517,0.0064478,0.00032646,0.00067743,0.0017737,0,0,0.063475,-0.0038607,0,0.039022,0,0,0,0.0069247,-0.00015035,0.00067743,15.047,0.0024839,0.0066996,1.4653e-08,0.12,0.44,0
0.0087499,0.006249,0.0064823,0.00026931,0.00067516,0.0017645,0,0,0.063878,-0.0044643,0,0.038819,0,0,0,0.0069484,-0.00019685,0.00067516,14.799,0.0024756,0.0067516,1.4922e-08,0.14,0.44,0
0.010032,0.0072785,0.0065173,0.00021398,0.00067313,0.0017496,0,0,0.064286,-0.0050506,0,0.038492,0,0,0,0.0069704,-0.00023911,0.00067313,14.518,0.0024681,0.0067994,1.517e-08,0.16,0.44,0
0.011321,0.0083395,0.006553,0.00016084,0.00067138,0.0017287,0,0,0.064697,-0.0056159,0,0.038032,0,0,0,0.0069905,-0.00027674,0.00067138,14.204,0.0024617,0.0068426,1.5395e-08,0.18,0.44,0
0.012619,0.0094312,0.0065892,0.00011019,0.00066994,0.0017015,0,0,0.065112,-0.0061573,0,0.037434,0,0,0,0.0070089,-0.00030949,0.00066994,13.855,0.0024565,0.0068811,1.5597e-08,0.2,0.44,0
0.013926,0.010554,0.0066263,6.2188e-05,0.00066885,0.001668,0,0,0.065532,-0.0066733,0,0.036696,0,0,0,0.0070258,-0.00033736,0.00066885,13.47,0.0024524,0.0069152,1.5779e-08,0.22,0.44,0
0.015241,0.011706,0.0066646,1.6715e-05,0.00066813,0.0016284,0,0,0.065961,-0.0071656,0,0.035824,0,0,0,0.007042,-0.00036071,0.00066813,13.05,0.0024498,0.0069457,1.5944e-08,0.24,0.44,0
0.016564,0.012891,0.0067051,-2.6856e-05,0.00066783,0.0015831,0,0,0.066411,-0.0076416,0,0.034828,0,0,0,0.0070589,-0.00038055,0.00066783,12.594,0.0024487,0.0069746,1.6106e-08,0.26,0.44,0
0.017897,0.01411,0.0067499,-6.9989e-05,0.00066799,0.0015332,0,0,0.066901,-0.0081178,0,0.03373,0,0,0,0.0070787,-0.00039882,0.00066799,12.105,0.0024493,0.0070053,1.6285e-08,0.28,0.44,0
0.01924,0.015366,0.0068026,-0.00011551,0.00066871,0.0014801,0,0,0.067473,-0.0086264,0,0.032562,0,0,0,0.007106,-0.00041887,0.00066871,11.583,0.0024519,0.0070443,1.652e-08,0.3,0.44,0
0.020596,0.016665,0.0068703,-0.00016842,0.00067018,0.001426,0,0,0.068201,-0.0092247,0,0.031371,0,0,0,0.0071482,-0.00044634,0.00067018,11.028,0.0024573,0.0071024,1.6878e-08,0.32,0.44,0
0.021968,0.018015,0.0069664,-0.00023705,0.00067294,0.0013735,0,0,0.069228,-0.01001,0,0.030217,0,0,0,0.0072194,-0.00049006,0.00067294,10.437,0.0024674,0.0071988,1.7487e-08,0.34,0.44,0
0.023365,0.01943,0.0071191,-0.00033511,0.0006784,0.0013308,0,0,0.070848,-0.011149,0,0.029278,0,0,0,0.0073496,-0.00056557,0.0006784,9.8248,0.0024875,0.0073723,1.862e-08,0.36,0.44,0
0.024802,0.020935,0.0074081,-0.00048246,0.00069257,0.0012988,0,0,0.073871,-0.012925,0,0.028574,0,0,0,0.0076164,-0.00069075,0.00069257,9.111,0.0025394,0.0077091,2.1e-08,0.38,0.44,0
0.02632,0.022561,0.00819,-0.00070845,0.00074816,0.0015669,0,0,0.08186,-0.016023,0,0.034471,0,0,0,0.0084578,-0.00097629,0.00074816,9.7004,0.0027432,0.008701,2.9403e-08,0.4,0.44,0
0.028077,0.024642,0.013444,-0.0035751,0.00098687,0.0010498,0,0,0.043181,-0.016185,0,0.0075241,0,0,0,0.013508,-0.0036397,0.00098687,3.5638,0.0036185,0.015366,2.3793e-07,0.42,0.44,0
0.028494,0.025712,0.0081292,0.00052089,0.00086501,0.0023158,0,0,0.017375,-0.0016106,0,0.013025,0,0,0,0.0087822,-0.00013208,0.00086501,16.783,0.0031717,0.0084645,7.5375e-08,0.44,0.44,0
0.028702,0.026514,0.010456,0.00127,0.0011726,0.002913,0,0,0.010212,0.0001071,0,0.0064085,0,0,0,0.011302,0.00042411,0.0011726,16.192,0.0042995,0.010523,5.8835e-08,0.46,0.44,0
0.028902,0.027302,0.0098714,0.00083193,0.0010703,0.0026586,0,0,0.0096811,-0.00026224,0,0.0058489,0,0,0,0.010595,0.000108,0.0010703,15.232,0.0039245,0.010041,5.0384e-08,0.48,0.44,0
0.029089,0.028081,0.0094258,0.00066586,0.0010092,0.0026794,0,0,0.0092583,-0.00037764,0,0.0058947,0,0,0,0.01018,-8.8704e-05,0.0010092,15.728,0.0037003,0.0097665,4.5814e-08,0.5,0.44,0
0.029273,0.02886,0.0092464,0.00067028,0.00099167,0.0027838,0,0,0.0090802,-0.00035353,0,0.0061243,0,0,0,0.010071,-0.00015409,0.00099167,16.496,0.0036361,0.0097029,4.4718e-08,0.52,0.44,0
0.029452,0.029641,0.0091163,0.00081184,0.00099281,0.0028975,0,0,0.0089358,-0.00019907,0,0.0063744,0,0,0,0.010027,-9.9162e-05,0.00099281,17.454,0.0036403,0.009627,4.3843e-08,0.54,0.44,0
0.02963,0.030423,0.0090197,0.0010234,0.0010043,0.0029567,0,0,0.008817,2.0957e-05,0,0.0065048,0,0,0,0.0099942,4.886e-05,0.0010043,18.242,0.0036825,0.0095037,4.2588e-08,0.56,0.44,0
0.029805,0.031203,0.0089371,0.0012245,0.0010161,0.0029496,0,0,0.008713,0.00022915,0,0.0064891,0,0,0,0.0099358,0.00022575,0.0010161,18.706,0.0037259,0.00934,4.0837e-08,0.58,0.44,0
0.029979,0.031976,0.0088668,0.0013663,0.0010233,0.0028771,0,0,0.0086278,0.00037733,0,0.0063297,0,0,0,0.0098433,0.00038983,0.0010233,18.747,0.0037522,0.0091532,3.8751e-08,0.6,0.44,0
0.03015,0.03274,0.0088291,0.0014013,0.001023,0.0027474,0,0,0.0085866,0.00041608,0,0.0060443,0,0,0,0.0097348,0.00049554,0.001023,18.246,0.0037511,0.0089872,3.6849e-08,0.62,0.44,0
0.030322,0.033494,0.0088407,0.0012518,0.0010092,0.0025902,0,0,0.0086146,0.00026681,0,0.0056985,0,0,0,0.0096405,0.00045199,0.0010092,17.16,0.0037006,0.008923,3.6008e-08,0.64,0.44,0
0.030495,0.034239,0.008956,0.00095873,0.00099147,0.0025112,0,0,0.0087609,-3.6014e-05,0,0.0055247,0,0,0,0.0096791,0.00023557,0.00099147,16.065,0.0036354,0.0090892,3.7668e-08,0.66,0.44,0
0.030672,0.034982,0.0090619,0.0005843,0.00096462,0.0024827,0,0,0.008907,-0.00041835,0,0.0054619,0,0,0,0.0097355,-8.9231e-05,0.00096462,15.179,0.003537,0.0093425,4.0089e-08,0.68,0.44,0
0.030851,0.035724,0.0095301,0.0006213,0.0010151,0.0026882,0,0,0.0093665,-0.00043322,0,0.0059141,0,0,0,0.010278,-0.000127,0.0010151,15.555,0.0037222,0.009884,4.7367e-08,0.7,0.44,0
0.031047,0.036476,0.0093316,0.00060974,0.00099414,0.0022593,0,0,0.0091712,-0.00042283,0,0.0049704,0,0,0,0.0098821,5.9264e-05,0.00099414,13.694,0.0036452,0.0093904,4.111e-08,0.72,0.44,0
0.031218,0.03721,0.0070424,0.00078626,0.00078286,0.0014026,0,0,0.015268,0.00020821,0,0.0060658,0,0,0,0.0073438,0.00048489,0.00078286,11.195,0.0028705,0.0067154,4.0694e-08,0.74,0.44,0
0.031591,0.037895,0.013424,0.0023078,0.0015732,0.0046824,0,0,0.046538,0.003635,0,0.042893,0,0,0,0.015156,0.00057653,0.0015732,20.969,0.0057684,0.014109,2.0634e-07,0.76,0.44,0
0.033638,0.039014,0.0096481,0.00059536,0.0010243,0.0027881,0,0,0.094861,-0.0047188,0,0.061339,0,0,0,0.010438,-0.00019445,0.0010243,15.816,0.0037559,0.010078,4.9994e-08,0.78,0.44,0
0.035385,0.040108,0.008563,0.00041981,0.00089828,0.0026459,0,0,0.084312,-0.0052632,0,0.05821,0,0,0,0.0093472,-0.00036438,0.00089828,16.509,0.0032937,0.0091459,3.6779e-08,0.8,0.44,0
0.03701,0.041194,0.0080855,0.00033075,0.00084162,0.0025711,0,0,0.079682,-0.0056196,0,0.056565,0,0,0,0.0088605,-0.00044427,0.00084162,16.774,0.0030859,0.0087331,3.1722e-08,0.82,0.44,0
0.038572,0.042269,0.0078139,0.00026244,0.00080763,0.0024998,0,0,0.077069,-0.0059971,0,0.054995,0,0,0,0.0085664,-0.00049008,0.00080763,16.754,0.0029613,0.0084824,2.8888e-08,0.84,0.44,0
0.040093,0.043327,0.0076246,0.00021305,0.00078376,0.002416,0,0,0.075249,-0.0062779,0,0.053152,0,0,0,0.0083426,-0.00050495,0.00078376,16.551,0.0028738,0.0082788,2.6777e-08,0.86,0.44,0
0.041582,0.044363,0.0074742,0.0001982,0.00076724,0.0023256,0,0,0.073777,-0.0062595,0,0.051164,0,0,0,0.008154,-0.00048164,0.00076724,16.295,0.0028132,0.0080839,2.4963e-08,0.88,0.44,0
0.043044,0.04537,0.0073427,0.00021637,0.00075591,0.0022381,0,0,0.072455,-0.0059349,0,0.049239,0,0,0,0.0079873,-0.00042825,0.00075591,16.067,0.0027717,0.0078904,2.3326e-08,0.9,0.44,0
0.04448,0.046348,0.0072246,0.0002647,0.00074893,0.0021597,0,0,0.071233,-0.0053265,0,0.047513,0,0,0,0.0078403,-0.00035099,0.00074893,15.912,0.0027461,0.0077005,2.1847e-08,0.92,0.44,0
0.045893,0.047297,0.0071172,0.00034159,0.00074588,0.0020934,0,0,0.070085,-0.0044472,0,0.046055,0,0,0,0.0077119,-0.00025302,0.00074588,15.857,0.0027349,0.0075154,2.0508e-08,0.94,0.44,0
0.047284,0.048219,0.007018,0.00044745,0.00074655,0.0020416,0,0,0.068987,-0.0032901,0,0.044915,0,0,0,0.0076007,-0.00013524,0.00074655,15.929,0.0027373,0.0073349,1.9284e-08,0.96,0.44,0
0.048653,0.049118,0.0069238,0.0005849,0.00075087,0.0020066,0,0,0.067903,-0.0018257,0,0.044145,0,0,0,0.0075056,3.0964e-06,0.00075087,16.169,0.0027532,0.007158,1.8145e-08,0.98,0.44,0
0.05,0.05,0.006889,0.00076545,0.00076545,0.0020039,0,0,0.067359,1.0517e-16,0,0.044086,0,0,0,0.0074865,0.00016798,0.00076545,16.602,0.0028066,0.0070388,1.7477e-08,1,0.44,0
0,0,0.0061107,0.00067897,0.00067897,0.0017499,0,0,0.059749,-1.1655e-18,0,0.038498,0,0,0,0.0066256,0.00016402,0.00067897,16.398,0.0024895,0.0062202,1.2075e-08,0,0.46,0
0.001195,0.00076997,0.0061215,0.00061635,0.00067379,0.0017208,0,0,0.059925,-0.00063182,0,0.037859,0,0,0,0.0066152,0.00012271,0.00067379,16.006,0.0024706,0.0062352,1.2123e-08,0.02,0.46,0
0.002397,0.0015785,0.0061505,0.000557,0.00067075,0.0017332,0,0,0.060277,-0.0012512,0,0.038129,0,0,0,0.0066439,6.3512e-05,0.00067075,15.893,0.0024594,0.0062988,1.2434e-08,0.04,0.46,0
0.003606,0.0024245,0.0061793,0.00049887,0.00066782,0.0017417,0,0,0.060626,-0.0018584,0,0.038318,0,0,0,0.0066708,7.3607e-06,0.00066782,15.759,0.0024487,0.006359,1.2727e-08,0.06,0.46,0
0.0048221,0.0033069,0.0062081,0.00044203,0.00066501,0.0017464,0,0,0.060973,-0.0024528,0,0.038421,0,0,0,0.0066958,-4.5661e-05,0.00066501,15.603,0.0024384,0.0064157,1.3003e-08,0.08,0.46,0
0.006045,0.0042248,0.0062366,0.00038663,0.00066232,0.0017469,0,0,0.061317,-0.0030326,0,0.038431,0,0,0,0.0067185,-9.5303e-05,0.00066232,15.423,0.0024285,0.0064684,1.3259e-08,0.1,0.46,0
0.0072747,0.0051771,0.0062647,0.00033291,0.00065976,0.0017427,0,0,0.061655,-0.0035954,0,0.03834,0,0,0,0.0067389,-0.00014121,0.00065976,15.219,0.0024191,0.0065166,1.3492e-08,0.12,0.46,0
0.0085112,0.0061629,0.0062923,0.00028114,0.00065734,0.0017336,0,0,0.061984,-0.0041382,0,0.038139,0,0,0,0.0067564,-0.00018298,0.00065734,14.988,0.0024103,0.0065597,1.3698e-08,0.14,0.46,0
0.0097541,0.0071814,0.0063189,0.00023162,0.00065505,0.0017189,0,0,0.062302,-0.0046577,0,0.037816,0,0,0,0.0067707,-0.00022022,0.00065505,14.728,0.0024019,0.006597,1.3875e-08,0.16,0.46,0
0.011003,0.0082318,0.0063443,0.00018463,0.0006529,0.0016984,0,0,0.062606,-0.0051509,0,0.037364,0,0,0,0.0067816,-0.00025262,0.0006529,14.437,0.002394,0.006628,1.4018e-08,0.18,0.46,0
0.012258,0.0093135,0.0063682,0.00014034,0.00065085,0.0016717,0,0,0.062891,-0.0056157,0,0.036777,0,0,0,0.0067886,-0.00028001,0.00065085,14.114,0.0023865,0.0066522,1.4126e-08,0.2,0.46,0
0.013519,0.010426,0.0063903,9.8733e-05,0.0006489,0.0016387,0,0,0.063155,-0.0060519,0,0.036051,0,0,0,0.0067915,-0.00030249,0.0006489,13.758,0.0023793,0.0066694,1.4197e-08,0.22,0.46,0
0.014785,0.01157,0.0064103,5.9481e-05,0.00064698,0.0015993,0,0,0.063397,-0.0064625,0,0.035185,0,0,0,0.0067903,-0.00032053,0.00064698,13.366,0.0023723,0.0066799,1.4232e-08,0.24,0.46,0
0.016055,0.012746,0.0064283,2.1706e-05,0.000645,0.0015536,0,0,0.063617,-0.0068563,0,0.03418,0,0,0,0.0067852,-0.00033518,0.000645,12.937,0.002365,0.0066844,1.4234e-08,0.26,0.46,0
0.017329,0.013956,0.0064446,-1.6307e-05,0.00064283,0.0015019,0,0,0.06382,-0.0072505,0,0.033041,0,0,0,0.0067767,-0.00034835,0.00064283,12.467,0.0023571,0.0066848,1.4212e-08,0.28,0.46,0
0.018608,0.015203,0.0064601,-5.7596e-05,0.00064025,0.001444,0,0,0.064018,-0.0076763,0,0.031769,0,0,0,0.0067657,-0.0003632,0.00064025,11.949,0.0023476,0.0066839,1.4178e-08,0.3,0.46,0
0.01989,0.01649,0.0064761,-0.00010725,0.00063689,0.0013799,0,0,0.064231,-0.0081855,0,0.030357,0,0,0,0.0067536,-0.00038477,0.00063689,11.372,0.0023353,0.0066864,1.4152e-08,0.32,0.46,0
0.021177,0.017825,0.006494,-0.00017381,0.00063202,0.0013087,0,0,0.064482,-0.0088641,0,0.028792,0,0,0,0.0067417,-0.00042147,0.00063202,10.716,0.0023174,0.0066988,1.416e-08,0.34,0.46,0
0.022469,0.019218,0.0065129,-0.0002716,0.00062413,0.0012271,0,0,0.064776,-0.009853,0,0.026996,0,0,0,0.006728,-0.00048671,0.00062413,9.9433,0.0022885,0.0067284,1.4218e-08,0.36,0.46,0
0.023768,0.020684,0.0064938,-0.00043644,0.00060574,0.0011475,0,0,0.064769,-0.011464,0,0.025245,0,0,0,0.0066789,-0.0006215,0.00060574,9.1613,0.002221,0.0067707,1.4192e-08,0.38,0.46,0
0.02506,0.022267,0.0063361,-0.00072899,0.0005607,0.0010095,0,0,0.063529,-0.014187,0,0.02221,0,0,0,0.0064775,-0.00087041,0.0005607,7.9744,0.0020559,0.0067471,1.3414e-08,0.4,0.46,0
0.026309,0.023973,0.0066337,-0.0020331,0.00046006,0.00044402,0,0,0.06791,-0.027425,0,0.0097684,0,0,0,0.0066564,-0.0020558,0.00046006,2.9251,0.0016869,0.0077662,1.5821e-08,0.42,0.46,0
0.027776,0.025657,0.0098303,-0.0013365,0.00084938,0.0018006,0,0,0.034047,-0.011724,0,0.0061292,0,0,0,0.010185,-0.0016916,0.00084938,6.7972,0.0031144,0.010842,8.8242e-08,0.44,0.46,0
0.028064,0.026523,0.006236,0.00052656,0.00067626,0.0019452,0,0,0.01259,-0.00082624,0,0.0084771,0,0,0,0.0068368,-7.4219e-05,0.00067626,16.315,0.0024796,0.0065687,3.8344e-08,0.46,0.46,0
0.028244,0.027297,0.0094463,0.0010998,0.0010546,0.0030726,0,0,0.0092309,4.9689e-05,0,0.0067598,0,0,0,0.010455,9.0663e-05,0.0010546,18.181,0.0038669,0.009918,4.8515e-08,0.48,0.46,0
0.028433,0.028072,0.0094746,0.0006053,0.001008,0.0028339,0,0,0.0093133,-0.00044296,0,0.0062345,0,0,0,0.010303,-0.00022284,0.001008,16.29,0.003696,0.0099673,4.8254e-08,0.5,0.46,0
0.028617,0.028851,0.0092768,0.00053311,0.00098099,0.0028734,0,0,0.0091254,-0.00049267,0,0.0063214,0,0,0,0.010136,-0.00032661,0.00098099,16.657,0.003597,0.0098745,4.654e-08,0.52,0.46,0
0.028798,0.029636,0.009227,0.00073183,0.00099588,0.0029439,0,0,0.0090542,-0.00029046,0,0.0064766,0,0,0,0.010148,-0.00018861,0.00099588,17.362,0.0036516,0.0097977,4.5933e-08,0.54,0.46,0
0.028979,0.030423,0.0092,0.0010081,0.0010208,0.0029806,0,0,0.0089971,-1.3953e-05,0,0.0065574,0,0,0,0.01017,3.8401e-05,0.0010208,18.022,0.003743,0.0096776,4.4936e-08,0.56,0.46,0
0.029158,0.031207,0.0091842,0.0012526,0.0010437,0.0029794,0,0,0.0089546,0.0002298,0,0.0065546,0,0,0,0.010179,0.00025813,0.0010437,18.458,0.0038268,0.009552,4.3742e-08,0.58,0.46,0
0.029337,0.031984,0.0091345,0.001447,0.0010582,0.0029373,0,0,0.0088839,0.00042778,0,0.006462,0,0,0,0.010128,0.00045321,0.0010582,18.693,0.0038799,0.0093872,4.1891e-08,0.6,0.46,0
0.029514,0.03275,0.0090339,0.0015683,0.0010602,0.0028213,0,0,0.008771,0.00055891,0,0.0062069,0,0,0,0.0099802,0.00062204,0.0010602,18.541,0.0038875,0.0091469,3.9001e-08,0.62,0.46,0
0.029688,0.033501,0.0089826,0.0015067,0.0010489,0.00263,0,0,0.008727,0.00050353,0,0.005786,0,0,0,0.0098151,0.00067415,0.0010489,17.565,0.0038461,0.0089595,3.672e-08,0.64,0.46,0
0.029863,0.034239,0.0089152,0.00099298,0.00099082,0.0024077,0,0,0.0087169,2.3759e-06,0,0.0052969,0,0,0,0.0095896,0.00031866,0.00099082,15.646,0.003633,0.0089538,3.6167e-08,0.66,0.46,0
0.030036,0.034971,0.0091568,0.00058853,0.00097453,0.0025389,0,0,0.0090005,-0.00042461,0,0.0055856,0,0,0,0.0098526,-0.00010729,0.00097453,15.326,0.0035733,0.0094655,4.1644e-08,0.68,0.46,0
0.030223,0.035718,0.0084767,0.00022388,0.00087005,0.0022092,0,0,0.0083673,-0.00071079,0,0.0048602,0,0,0,0.0090308,-0.00033029,0.00087005,14.082,0.0031902,0.0088224,3.3078e-08,0.7,0.46,0
0.030371,0.036462,0.0057551,0.00039948,0.00061546,0.0015659,0,0,0.012259,-0.00022906,0,0.0082613,0,0,0,0.0061818,-2.7193e-05,0.00061546,16.39,0.0022567,0.0059139,2.6629e-08,0.72,0.46,0
0.030665,0.037219,0.010944,0.0015802,0.0012524,0.0037392,0,0,0.040558,0.0015608,0,0.036417,0,0,0,0.01227,0.00025413,0.0012524,20.026,0.0045922,0.011552,1.0337e-07,0.74,0.46,0
0.032511,0.038074,0.0085027,0.0013303,0.0009833,0.0034989,0,0,0.082714,0.0038171,0,0.076976,0,0,0,0.0099268,-9.3795e-05,0.0009833,22.147,0.0036055,0.0095278,4.2515e-08,0.76,0.46,0
0.033973,0.038936,0.0077949,0.00077534,0.00085703,0.0030981,0,0,0.076317,-0.00089857,0,0.068158,0,0,0,0.0089667,-0.00039641,0.00085703,20.717,0.0031424,0.0088036,3.2661e-08,0.78,0.46,0
0.035564,0.040013,0.0080229,0.00054451,0.00085674,0.003001,0,0,0.078828,-0.0034346,0,0.066023,0,0,0,0.0090783,-0.00051086,0.00085674,19.375,0.0031414,0.0089837,3.4347e-08,0.8,0.46,0
0.037126,0.041088,0.0078436,0.00043186,0.00082754,0.002813,0,0,0.077176,-0.0043525,0,0.061887,0,0,0,0.0087903,-0.00051486,0.00082754,18.601,0.0030343,0.0087119,3.1259e-08,0.82,0.46,0
0.038651,0.042157,0.0076612,0.00036054,0.00080218,0.0026769,0,0,0.07545,-0.004858,0,0.058893,0,0,0,0.0085376,-0.00051581,0.00080218,18.127,0.0029413,0.0084717,2.8696e-08,0.84,0.46,0
0.040144,0.043212,0.0075143,0.00031597,0.00078302,0.0025583,0,0,0.074044,-0.0051376,0,0.056282,0,0,0,0.0083308,-0.00050061,0.00078302,17.703,0.0028711,0.0082647,2.6652e-08,0.86,0.46,0
0.041612,0.044247,0.0073925,0.00029742,0.00076899,0.0024491,0,0,0.072858,-0.0051872,0,0.05388,0,0,0,0.0081557,-0.00046584,0.00076899,17.31,0.0028196,0.0080753,2.4927e-08,0.88,0.46,0
0.043059,0.04526,0.0072865,0.00030654,0.0007593,0.0023491,0,0,0.071799,-0.0049804,0,0.05168,0,0,0,0.0080034,-0.0004104,0.0007593,16.972,0.0027841,0.0078942,2.3408e-08,0.9,0.46,0
0.044485,0.046249,0.0071906,0.00034262,0.00075332,0.0022608,0,0,0.07081,-0.0045178,0,0.049737,0,0,0,0.0078697,-0.00033642,0.00075332,16.718,0.0027622,0.0077191,2.2044e-08,0.92,0.46,0
0.045891,0.047213,0.0071022,0.00040504,0.00075072,0.0021867,0,0,0.069866,-0.0038025,0,0.048108,0,0,0,0.007753,-0.00024573,0.00075072,16.573,0.0027527,0.0075499,2.0811e-08,0.94,0.46,0
0.047279,0.048157,0.0070191,0.00049423,0.00075133,0.0021295,0,0,0.068945,-0.0028281,0,0.046849,0,0,0,0.0076526,-0.00013927,0.00075133,16.567,0.0027549,0.0073869,1.9691e-08,0.96,0.46,0
0.048649,0.049084,0.006939,0.00061204,0.0007551,0.0020922,0,0,0.068022,-0.0015736,0,0.046027,0,0,0,0.0075682,-1.7193e-05,0.0007551,16.739,0.0027687,0.0072302,1.8668e-08,0.98,0.46,0
0.05,0.05,0.0069092,0.00076769,0.00076769,0.0020817,0,0,0.067557,-1.4561e-16,0,0.045797,0,0,0,0.0075483,0.0001286,0.00076769,17.067,0.0028149,0.0071217,1.8049e-08,1,0.46,0
0,0,0.0059461,0.00066068,0.00066068,0.0017221,0,0,0.058139,-9.4868e-19,0,0.037887,0,0,0,0.0064577,0.00014907,0.00066068,16.545,0.0024225,0.006069,1.1206e-08,0,0.48,0
0.0011628,0.00075775,0.0059561,0.00060214,0.00065582,0.001693,0,0,0.058303,-0.00059047,0,0.037246,0,0,0,0.0064465,0.00011172,0.00065582,16.155,0.0024047,0.006081,1.1238e-08,0.02,0.48,0
0.0023321,0.0015543,0.0059826,0.00054643,0.00065291,0.0017055,0,0,0.058627,-0.0011713,0,0.037521,0,0,0,0.0064734,5.5655e-05,0.00065291,16.053,0.002394,0.006141,1.1516e-08,0.04,0.48,0
0.0035079,0.0023885,0.0060087,0.00049195,0.00065006,0.0017144,0,0,0.058945,-0.0017392,0,0.037718,0,0,0,0.0064981,2.5722e-06,0.00065006,15.931,0.0023836,0.0061972,1.1775e-08,0.06,0.48,0
0.0046899,0.0032595,0.0060339,0.000439,0.00064729,0.0017196,0,0,0.059253,-0.0022912,0,0.037832,0,0,0,0.0065202,-4.7272e-05,0.00064729,15.79,0.0023734,0.0062492,1.2014e-08,0.08,0.48,0
0.005878,0.0041662,0.0060581,0.00038785,0.00064459,0.0017208,0,0,0.059548,-0.0028242,0,0.037859,0,0,0,0.0065395,-9.354e-05,0.00064459,15.628,0.0023635,0.0062965,1.2229e-08,0.1,0.48,0
0.0070718,0.0051078,0.0060808,0.00033879,0.00064196,0.0017178,0,0,0.059828,-0.0033349,0,0.037791,0,0,0,0.0065555,-0.00013584,0.00064196,15.446,0.0023539,0.0063383,1.2417e-08,0.12,0.48,0
0.0082711,0.0060834,0.0061018,0.00029213,0.00063939,0.00171,0,0,0.060086,-0.0038199,0,0.037619,0,0,0,0.0065677,-0.0001738,0.00063939,15.242,0.0023444,0.0063739,1.2573e-08,0.14,0.48,0
0.0094753,0.0070922,0.0061203,0.00024811,0.00063685,0.0016971,0,0,0.060318,-0.0042761,0,0.037336,0,0,0,0.0065755,-0.00020706,0.00063685,15.014,0.0023351,0.0064025,1.2693e-08,0.16,0.48,0
0.010684,0.0081334,0.006136,0.00020694,0.0006343,0.0016788,0,0,0.060519,-0.0047009,0,0.036933,0,0,0,0.0065784,-0.00023539,0.0006343,14.761,0.0023258,0.0064232,1.2774e-08,0.18,0.48,0
0.011896,0.0092066,0.0061482,0.0001687,0.00063169,0.0016548,0,0,0.060682,-0.0050929,0,0.036406,0,0,0,0.0065756,-0.00025872,0.00063169,14.482,0.0023162,0.0064355,1.281e-08,0.2,0.48,0
0.013111,0.010311,0.0061561,0.00013325,0.00062893,0.0016251,0,0,0.060798,-0.0054525,0,0.035751,0,0,0,0.0065665,-0.00027724,0.00062893,14.176,0.0023061,0.0064387,1.2799e-08,0.22,0.48,0
0.014328,0.011448,0.0061588,0.00010015,0.0006259,0.0015894,0,0,0.060862,-0.0057832,0,0.034967,0,0,0,0.0065505,-0.00029149,0.0006259,13.842,0.002295,0.0064325,1.2738e-08,0.24,0.48,0
0.015546,0.012617,0.0061554,6.8433e-05,0.00062239,0.0015479,0,0,0.060864,-0.0060935,0,0.034054,0,0,0,0.0065264,-0.00030258,0.00062239,13.479,0.0022821,0.0064167,1.2624e-08,0.26,0.48,0
0.016762,0.01382,0.0061448,3.6358e-05,0.00061811,0.0015006,0,0,0.060793,-0.0063993,0,0.033012,0,0,0,0.0064935,-0.00031236,0.00061811,13.083,0.0022664,0.0063916,1.2458e-08,0.28,0.48,0
0.017977,0.015059,0.0061267,-1.418e-05,0.00061126,0.001426,0,0,0.06067,-0.0068798,0,0.031372,0,0,0,0.0064417,-0.00032916,0.00061126,12.456,0.0022413,0.0063531,1.2203e-08,0.3,0.48,0
0.019188,0.016337,0.0060857,-6.0413e-05,0.00060253,0.0013961,0,0,0.060315,-0.0072924,0,0.030715,0,0,0,0.006388,-0.00036268,0.00060253,12.216,0.0022093,0.0063235,1.1973e-08,0.32,0.48,0
0.020392,0.01766,0.006044,-0.0001018,0.00059422,0.0013233,0,0,0.059948,-0.0076563,0,0.029112,0,0,0,0.0063168,-0.00037461,0.00059422,11.649,0.0021788,0.0062635,1.1609e-08,0.34,0.48,0
0.021586,0.019036,0.0059645,-0.00019268,0.00057718,0.0012547,0,0,0.05926,-0.0084685,0,0.027603,0,0,0,0.0062103,-0.00043855,0.00057718,11.087,0.0021163,0.0062037,1.1162e-08,0.36,0.48,0
0.022763,0.020476,0.0058541,-0.00034217,0.00055119,0.0011841,0,0,0.058332,-0.009827,0,0.026049,0,0,0,0.0060726,-0.00056073,0.00055119,10.458,0.002021,0.0061532,1.066e-08,0.38,0.48,0
0.023919,0.021994,0.0057712,-0.00067604,0.00050951,0.0010628,0,0,0.057878,-0.013041,0,0.023381,0,0,0,0.0059419,-0.00084671,0.00050951,9.1232,0.0018682,0.0062223,1.0419e-08,0.4,0.48,0
0.025078,0.023545,0.0055215,-0.0012903,0.00042312,0.00083582,0,0,0.056082,-0.018848,0,0.018388,0,0,0,0.0056226,-0.0013914,0.00042312,6.894,0.0015514,0.0063056,9.3727e-09,0.42,0.48,0
0.026163,0.025063,0.0056126,-0.0019142,0.00036984,0.00020223,0,0,0.05767,-0.025124,0,0.0044491,0,0,0,0.005618,-0.0019196,0.00036984,1.5379,0.0013561,0.0066933,9.5468e-09,0.44,0.48,0
0.027384,0.026494,0.0082336,-0.00066629,0.00075674,0.0015218,0,0,0.028351,-0.0090376,0,0.0040817,0,0,0,0.0085757,-0.0010084,0.00075674,6.8589,0.0027747,0.0088492,5.0416e-08,0.46,0.48,0
0.027624,0.027304,0.0053755,0.00048833,0.00058638,0.0017383,0,0,0.010658,-0.00058934,0,0.0069532,0,0,0,0.0059338,-7.0001e-05,0.00058638,16.102,0.0021501,0.0057042,2.5717e-08,0.48,0.48,0
0.027784,0.028063,0.0085964,0.00068537,0.00092818,0.002846,0,0,0.0084351,-0.00026709,0,0.0062612,0,0,0,0.0095139,-0.00023207,0.00092818,17.867,0.0034033,0.0092207,3.8123e-08,0.5,0.48,0
0.027961,0.02884,0.009017,0.00042661,0.00094436,0.0027845,0,0,0.0088799,-0.00056952,0,0.0061258,0,0,0,0.0098406,-0.00039697,0.00094436,16.477,0.0034627,0.0096372,4.2983e-08,0.52,0.48,0
0.02814,0.02963,0.0091568,0.00071056,0.00098674,0.0028045,0,0,0.0089871,-0.00030379,0,0.0061698,0,0,0,0.010003,-0.00013581,0.00098674,16.794,0.003618,0.0096269,4.373e-08,0.54,0.48,0
0.028321,0.030423,0.0093715,0.000988,0.0010359,0.002838,0,0,0.0091691,-5.2741e-05,0,0.0062436,0,0,0,0.010242,0.00011764,0.0010359,17.05,0.0037985,0.0096977,4.5428e-08,0.56,0.48,0
0.028506,0.031212,0.0095714,0.001226,0.0010797,0.0028873,0,0,0.0093408,0.00016091,0,0.0063521,0,0,0,0.010473,0.00032447,0.0010797,17.341,0.0039591,0.0097927,4.7266e-08,0.58,0.48,0
0.028695,0.031993,0.0096519,0.0014356,0.0011087,0.0029527,0,0,0.0093975,0.00035949,0,0.006496,0,0,0,0.010603,0.00048453,0.0011087,17.853,0.0040654,0.0098212,4.7992e-08,0.6,0.48,0
0.028882,0.032762,0.0095108,0.0016237,0.0011134,0.0029829,0,0,0.009237,0.00056127,0,0.0065625,0,0,0,0.010512,0.00062259,0.0011134,18.552,0.0040826,0.0096532,4.5797e-08,0.62,0.48,0
0.029064,0.033514,0.0091361,0.0017701,0.0010906,0.0028608,0,0,0.00885,0.00074741,0,0.0062938,0,0,0,0.010117,0.00078953,0.0010906,18.919,0.0039989,0.0091803,3.9593e-08,0.64,0.48,0
0.029236,0.034239,0.0090818,0.0014511,0.0010533,0.0027247,0,0,0.0088314,0.00043761,0,0.0059944,0,0,0,0.0099548,0.00057808,0.0010533,17.766,0.0038621,0.0091484,3.8967e-08,0.66,0.48,0
0.029417,0.034965,0.0080459,-0.00011245,0.00079334,0.0023406,0,0,0.0079778,-0.00099638,0,0.0051494,0,0,0,0.0086697,-0.00073628,0.00079334,14.924,0.0029089,0.0087421,3.0803e-08,0.68,0.48,0
0.029555,0.035696,0.0053166,7.057e-05,0.00053872,0.0017797,0,0,0.011391,-0.00081472,0,0.009858,0,0,0,0.0058691,-0.00048194,0.00053872,18.874,0.0019753,0.0059072,2.4471e-08,0.7,0.48,0
0.029828,0.036462,0.010211,0.0012143,0.0011425,0.0039689,0,0,0.038403,0.00070422,0,0.037128,0,0,0,0.01172,-0.00029428,0.0011425,21.232,0.0041893,0.011364,9.5934e-08,0.72,0.48,0
0.031587,0.037294,0.0079924,0.00092413,0.00089165,0.003418,0,0,0.078108,0.00035721,0,0.075196,0,0,0,0.0093749,-0.00045832,0.00089165,22.021,0.0032694,0.0092325,3.7522e-08,0.74,0.48,0
0.032952,0.038048,0.0072617,0.00085687,0.00081185,0.0030178,0,0,0.070948,0.00049515,0,0.066392,0,0,0,0.0084596,-0.00034101,0.00081185,21.65,0.0029768,0.0082845,2.7306e-08,0.76,0.48,0
0.034425,0.038978,0.0074866,0.00098516,0.00084717,0.0031713,0,0,0.073033,0.0015179,0,0.069769,0,0,0,0.0087773,-0.00030555,0.00084717,22.146,0.0031063,0.0085648,3.0307e-08,0.78,0.48,0
0.035874,0.03997,0.0074477,0.00072809,0.00081758,0.0030668,0,0,0.072932,-0.00098446,0,0.067469,0,0,0,0.0086369,-0.00046109,0.00081758,21.195,0.0029978,0.0085308,2.9485e-08,0.8,0.48,0
0.037342,0.04102,0.0074659,0.00058144,0.00080473,0.0029395,0,0,0.073273,-0.0024563,0,0.064668,0,0,0,0.0085502,-0.00050285,0.00080473,20.248,0.0029507,0.0084752,2.8774e-08,0.82,0.48,0
0.038805,0.042074,0.0074082,0.00049064,0.00078989,0.0027926,0,0,0.072802,-0.0032917,0,0.061436,0,0,0,0.0083948,-0.00049598,0.00078989,19.458,0.0028962,0.0083227,2.7241e-08,0.84,0.48,0
0.040254,0.043122,0.0073326,0.00043506,0.00077677,0.0026603,0,0,0.072114,-0.0037588,0,0.058527,0,0,0,0.0082395,-0.00047179,0.00077677,18.823,0.0028481,0.0081589,2.5706e-08,0.86,0.48,0
0.041689,0.044155,0.007257,0.00040724,0.00076643,0.0025408,0,0,0.071397,-0.0039511,0,0.055897,0,0,0,0.0080966,-0.00043231,0.00076643,18.285,0.0028102,0.0079972,2.4291e-08,0.88,0.48,0
0.04311,0.045171,0.0071848,0.00040498,0.00075898,0.0024336,0,0,0.070684,-0.003894,0,0.053539,0,0,0,0.0079679,-0.0003781,0.00075898,17.837,0.0027829,0.0078396,2.3e-08,0.9,0.48,0
0.044517,0.046167,0.0071159,0.00042737,0.00075433,0.0023399,0,0,0.069977,-0.0035965,0,0.051477,0,0,0,0.0078532,-0.00030991,0.00075433,17.489,0.0027659,0.0076864,2.1824e-08,0.92,0.48,0
0.045909,0.047144,0.0070602,0.00046191,0.00075221,0.0022619,0,0,0.069388,-0.0031933,0,0.049761,0,0,0,0.0077611,-0.000239,0.00075221,17.217,0.0027581,0.0075534,2.0855e-08,0.94,0.48,0
0.047287,0.048106,0.0069717,0.00053329,0.0007505,0.0021934,0,0,0.068433,-0.0023893,0,0.048254,0,0,0,0.0076479,-0.00014291,0.0007505,17.134,0.0027518,0.0073847,1.9667e-08,0.96,0.48,0
0.048651,0.049055,0.0069212,0.00063956,0.00075608,0.0021634,0,0,0.067817,-0.0012817,0,0.047595,0,0,0,0.0075942,-3.3416e-05,0.00075608,17.279,0.0027723,0.0072651,1.8913e-08,0.98,0.48,0
0.05,0.05,0.0068974,0.00076638,0.00076638,0.0021469,0,0,0.067442,-8.4622e-17,0,0.047233,0,0,0,0.0075745,8.9336e-05,0.00076638,17.503,0.0028101,0.0071706,1.8368e-08,1,0.48,0
0,0,0.0057811,0.00064234,0.00064234,0.0016963,0,0,0.056526,-5.9631e-19,0,0.037317,0,0,0,0.0062905,0.00013292,0.00064234,16.716,0.0023552,0.0059193,1.0387e-08,0,0.5,0
0.0011305,0.00074635,0.0057903,0.00058765,0.00063779,0.0016672,0,0,0.056677,-0.00055149,0,0.036679,0,0,0,0.0062787,9.9237e-05,0.00063779,16.328,0.0023386,0.0059285,1.0405e-08,0.02,0.5,0
0.0022671,0.0015317,0.0058146,0.00053536,0.000635,0.0016803,0,0,0.056976,-0.001096,0,0.036967,0,0,0,0.0063041,4.5923e-05,0.000635,16.24,0.0023283,0.0059854,1.0654e-08,0.04,0.5,0
0.0034095,0.0023549,0.005838,0.0004843,0.00063223,0.0016901,0,0,0.057264,-0.0016272,0,0.037182,0,0,0,0.0063269,-4.5913e-06,0.00063223,16.134,0.0023182,0.0060383,1.0885e-08,0.06,0.5,0
0.0045576,0.0032153,0.0058601,0.00043496,0.0006295,0.0016965,0,0,0.057536,-0.00214,0,0.037324,0,0,0,0.0063469,-5.1887e-05,0.0006295,16.012,0.0023082,0.0060868,1.1094e-08,0.08,0.5,0
0.005711,0.0041118,0.0058758,0.00038412,0.00062599,0.0016856,0,0,0.057748,-0.0026606,0,0.037083,0,0,0,0.0063519,-9.1975e-05,0.00062599,15.772,0.0022953,0.0061166,1.1209e-08,0.1,0.5,0
0.0068692,0.0050437,0.0059013,0.00033943,0.00062408,0.0017109,0,0,0.05805,-0.0031311,0,0.037639,0,0,0,0.0063855,-0.00014469,0.00062408,15.8,0.0022883,0.0061817,1.1502e-08,0.12,0.5,0
0.0080316,0.0060101,0.0059132,0.00030091,0.00062141,0.0016931,0,0,0.058209,-0.0035254,0,0.037249,0,0,0,0.0063844,-0.00017031,0.00062141,15.553,0.0022785,0.0061969,1.1552e-08,0.14,0.5,0
0.0091975,0.0070104,0.0059246,0.00026186,0.00061865,0.0016834,0,0,0.058366,-0.0039247,0,0.037035,0,0,0,0.0063873,-0.00020079,0.00061865,15.367,0.0022684,0.006219,1.1633e-08,0.16,0.5,0
0.010366,0.0080438,0.0059318,0.0002259,0.00061577,0.001669,0,0,0.058476,-0.0042886,0,0.036718,0,0,0,0.0063841,-0.00022643,0.00061577,15.164,0.0022578,0.0062323,1.1671e-08,0.18,0.5,0
0.011537,0.0091098,0.0059338,0.00019301,0.00061268,0.0016497,0,0,0.058532,-0.0046163,0,0.036294,0,0,0,0.0063741,-0.00024729,0.00061268,14.944,0.0022465,0.006236,1.1661e-08,0.2,0.5,0
0.012708,0.010208,0.0059295,0.00016297,0.00060925,0.0016255,0,0,0.058523,-0.0049091,0,0.035762,0,0,0,0.0063562,-0.00026369,0.00060925,14.707,0.0022339,0.0062295,1.1598e-08,0.22,0.5,0
0.013877,0.011339,0.0059178,0.00013521,0.0006053,0.0015966,0,0,0.058438,-0.0051711,0,0.035125,0,0,0,0.0063294,-0.00027633,0.0006053,14.454,0.0022194,0.006212,1.148e-08,0.24,0.5,0
0.015045,0.012503,0.005897,0.00010865,0.00060056,0.0015631,0,0,0.058261,-0.0054111,0,0.034388,0,0,0,0.0062921,-0.00028647,0.00060056,14.186,0.0022021,0.006183,1.1302e-08,0.26,0.5,0
0.016208,0.0137,0.0058651,8.1491e-05,0.00059466,0.0015254,0,0,0.057974,-0.0056448,0,0.033558,0,0,0,0.0062427,-0.00029615,0.00059466,13.905,0.0021804,0.0061421,1.1061e-08,0.28,0.5,0
0.017364,0.014934,0.0058291,6.4382e-05,0.00058935,0.0014801,0,0,0.057638,-0.0057747,0,0.032561,0,0,0,0.0061869,-0.00029341,0.00058935,13.59,0.002161,0.0060871,1.0767e-08,0.3,0.5,0
0.01851,0.016205,0.0057461,2.3804e-05,0.00057699,0.0014703,0,0,0.05686,-0.0060851,0,0.032346,0,0,0,0.0061018,-0.00033186,0.00057699,13.599,0.0021156,0.0060308,1.0408e-08,0.32,0.5,0
0.019643,0.017519,0.0056708,-4.453e-05,0.00056263,0.001395,0,0,0.05619,-0.0066787,0,0.030691,0,0,0,0.0059932,-0.00036686,0.00056263,13.01,0.002063,0.00595,9.9343e-09,0.34,0.5,0
0.020758,0.018879,0.0055629,-0.00013301,0.00054298,0.0013505,0,0,0.055219,-0.0074359,0,0.029712,0,0,0,0.0058668,-0.000437,0.00054298,12.685,0.001991,0.0058755,9.4478e-09,0.36,0.5,0
0.021852,0.020291,0.0054432,-0.00029038,0.00051528,0.0012975,0,0,0.054207,-0.0088623,0,0.028544,0,0,0,0.0057232,-0.00057032,0.00051528,12.175,0.0018894,0.005827,8.9843e-09,0.38,0.5,0
0.022926,0.021746,0.0052987,-0.00057547,0.00047232,0.0012041,0,0,0.05309,-0.011526,0,0.026491,0,0,0,0.0055359,-0.00081273,0.00047232,11.146,0.0017318,0.0058136,8.4533e-09,0.4,0.5,0
0.023975,0.023219,0.005147,-0.00093465,0.00042124,0.0009858,0,0,0.051984,-0.014915,0,0.021688,0,0,0,0.0053028,-0.0010904,0.00042124,8.981,0.0015445,0.0057875,7.713e-09,0.42,0.5,0
0.025005,0.024652,0.0048109,-0.0012943,0.00035166,0.00069977,0,0,0.049052,-0.018106,0,0.015395,0,0,0,0.0048901,-0.0013735,0.00035166,6.4555,0.0012894,0.0056039,6.2345e-09,0.44,0.5,0
0.025937,0.02601,0.0046586,-0.0016971,0.00029614,3.5798e-05,0,0,0.047987,-0.021926,0,0.00078756,0,0,0,0.0046588,-0.0016973,0.00029614,0.3227,0.0010859,0.0056306,5.445e-09,0.46,0.5,0
0.026953,0.027283,0.0064202,-0.00033256,0.00060877,0.0012733,0,0,0.020012,-0.0055397,0,0.0038963,0,0,0,0.0067068,-0.00061912,0.00060877,7.4471,0.0022322,0.0068034,2.6645e-08,0.48,0.5,0
0.027148,0.028061,0.0048678,0.00043917,0.0005307,0.0016481,0,0,0.0091622,-0.00054387,0,0.0055898,0,0,0,0.0054231,-0.00011614,0.0005307,15.071,0.0019459,0.0052458,2.0897e-08,0.5,0.5,0
0.027295,0.028828,0.0081536,0.00035658,0.00085102,0.0023344,0,0,0.0080328,-0.00054388,0,0.0051357,0,0,0,0.0087991,-0.00028891,0.00085102,15.457,0.0031204,0.008575,3.0464e-08,0.52,0.5,0
0.027463,0.029624,0.0087945,0.00065446,0.0009449,0.0024016,0,0,0.0086346,-0.00031948,0,0.0052835,0,0,0,0.0094502,-1.2584e-06,0.0009449,15.272,0.0034646,0.0090157,3.6244e-08,0.54,0.5,0
0.027646,0.030421,0.0097877,0.00093691,0.0010725,0.0024909,0,0,0.0095867,-0.0001491,0,0.00548,0,0,0,0.010441,0.00028404,0.0010725,14.687,0.0039324,0.0097861,4.7083e-08,0.56,0.5,0
0.027842,0.031214,0.010157,0.0011302,0.0011287,0.0026931,0,0,0.0099314,1.6404e-06,0,0.0059248,0,0,0,0.0109,0.00038786,0.0011287,15.412,0.0041388,0.010162,5.2925e-08,0.58,0.5,0
0.028046,0.031999,0.010616,0.0013391,0.0011955,0.0028224,0,0,0.010363,0.00015791,0,0.0062093,0,0,0,0.011407,0.00054789,0.0011955,15.659,0.0043836,0.010551,5.9555e-08,0.6,0.5,0
0.028255,0.032772,0.010695,0.0015407,0.0012235,0.0031614,0,0,0.010418,0.00034886,0,0.0069551,0,0,0,0.01168,0.000555,0.0012235,17.317,0.0044863,0.010807,6.3981e-08,0.62,0.5,0
0.028463,0.033531,0.010048,0.0017445,0.0011792,0.0031482,0,0,0.0097553,0.00062183,0,0.0069259,0,0,0,0.011106,0.00068586,0.0011792,18.587,0.0043238,0.010183,5.3798e-08,0.64,0.5,0
0.028651,0.034257,0.0083674,0.0018095,0.0010177,0.003444,0,0,0.0080847,0.00087103,0,0.0075769,0,0,0,0.0098438,0.0003332,0.0010177,23.203,0.0037316,0.0091875,3.9086e-08,0.66,0.5,0
0.028786,0.034931,0.0051259,-0.00057843,0.00045474,0.0023448,0,0,0.011154,-0.0023287,0,0.014376,0,0,0,0.0059827,-0.0014353,0.00045474,22.26,0.0016674,0.0066779,2.767e-08,0.68,0.5,0
0.029053,0.035682,0.0099674,0.00079682,0.0010764,0.0043736,0,0,0.037646,-7.8137e-05,0,0.040194,0,0,0,0.011727,-0.00096305,0.0010764,22.366,0.0039469,0.011803,1.0287e-07,0.7,0.5,0
0.030777,0.036503,0.0077453,0.00077599,0.00085213,0.0035139,0,0,0.075825,-0.00083746,0,0.077306,0,0,0,0.0092094,-0.00068813,0.00085213,22.62,0.0031245,0.0092243,3.6552e-08,0.72,0.5,0
0.032086,0.037233,0.0069086,0.00069412,0.00076027,0.0030519,0,0,0.067631,-0.00072764,0,0.067141,0,0,0,0.0081566,-0.00055395,0.00076027,22.242,0.0027877,0.0081335,2.522e-08,0.74,0.5,0
0.033483,0.038094,0.0070663,0.00096786,0.00080341,0.0031501,0,0,0.068892,0.0018089,0,0.069302,0,0,0,0.0084012,-0.00036707,0.00080341,22.966,0.0029458,0.0082456,2.6847e-08,0.76,0.5,0
0.034842,0.038997,0.0070183,0.00092696,0.00079453,0.0030833,0,0,0.068462,0.0014568,0,0.067832,0,0,0,0.0083065,-0.00036125,0.00079453,22.676,0.0029133,0.0081516,2.5944e-08,0.78,0.5,0
0.036221,0.039974,0.0070821,0.00085284,0.00079349,0.0030508,0,0,0.069174,0.0006528,0,0.067117,0,0,0,0.0083273,-0.00039236,0.00079349,22.203,0.0029095,0.0081913,2.6245e-08,0.8,0.5,0
0.037609,0.04099,0.007113,0.00072153,0.00078345,0.0029534,0,0,0.069625,-0.00068108,0,0.064974,0,0,0,0.0082687,-0.00043418,0.00078345,21.372,0.0028727,0.0081624,2.5848e-08,0.82,0.5,0
0.039006,0.042025,0.0071288,0.00062461,0.00077534,0.0028348,0,0,0.069888,-0.0016581,0,0.062366,0,0,0,0.0081909,-0.00043752,0.00077534,20.539,0.0028429,0.0080905,2.515e-08,0.84,0.5,0
0.040404,0.043061,0.0071161,0.000559,0.00076751,0.0027112,0,0,0.069835,-0.0022936,0,0.059647,0,0,0,0.008092,-0.00041682,0.00076751,19.795,0.0028142,0.0079828,2.4199e-08,0.86,0.5,0
0.041799,0.044089,0.0070881,0.00052053,0.00076087,0.0025945,0,0,0.0696,-0.0026438,0,0.057079,0,0,0,0.0079894,-0.00038073,0.00076087,19.156,0.0027898,0.0078618,2.3192e-08,0.88,0.5,0
0.043188,0.045104,0.0070523,0.00050628,0.00075585,0.0024881,0,0,0.069261,-0.0027453,0,0.054738,0,0,0,0.0078906,-0.00033206,0.00075585,18.621,0.0027715,0.0077363,2.2203e-08,0.9,0.5,0
0.04457,0.046105,0.007012,0.0005146,0.00075266,0.0023945,0,0,0.068853,-0.0026187,0,0.052678,0,0,0,0.0077991,-0.00027247,0.00075266,18.196,0.0027598,0.007611,2.1265e-08,0.92,0.5,0
0.045943,0.047091,0.0069936,0.00054714,0.00075408,0.0023295,0,0,0.068635,-0.0022763,0,0.051249,0,0,0,0.0077473,-0.00020652,0.00075408,17.928,0.002765,0.0075197,2.0642e-08,0.94,0.5,0
0.047306,0.048065,0.0068978,0.00059215,0.000749,0.0022482,0,0,0.067637,-0.0017253,0,0.04946,0,0,0,0.0076172,-0.00012731,0.000749,17.746,0.0027463,0.0073457,1.9384e-08,0.96,0.5,0
0.048658,0.049033,0.0068868,0.00066207,0.00075489,0.0022175,0,0,0.067451,-0.001021,0,0.048785,0,0,0,0.007596,-4.7107e-05,0.00075489,17.735,0.0027679,0.0072753,1.897e-08,0.98,0.5,0
0.05,0.05,0.0068604,0.00076227,0.00076227,0.0021982,0,0,0.06708,-5.356e-17,0,0.048361,0,0,0,0.0075702,5.2488e-05,0.00076227,17.895,0.002795,0.0071892,1.8458e-08,1,0.5,0
0,0,0.0056162,0.00062402,0.00062402,0.001672,0,0,0.054914,8.1315e-20,0,0.036784,0,0,0,0.0061245,0.00011577,0.00062402,16.908,0.0022881,0.0057714,9.6157e-09,0,0.52,0
0.0010983,0.00073569,0.0056199,0.00057163,0.00061915,0.0016285,0,0,0.055008,-0.00052279,0,0.035826,0,0,0,0.0060996,9.1898e-05,0.00061915,16.414,0.0022702,0.0057622,9.5495e-09,0.02,0.52,0
0.0022022,0.0015104,0.0056517,0.00052288,0.00061746,0.0016716,0,0,0.055377,-0.0010404,0,0.036775,0,0,0,0.0061484,2.618e-05,0.00061746,16.549,0.002264,0.0058491,9.9241e-09,0.04,0.52,0
0.0033116,0.0023234,0.0056684,0.00047533,0.00061437,0.0016684,0,0,0.055594,-0.0015295,0,0.036705,0,0,0,0.0061582,-1.4482e-05,0.00061437,16.361,0.0022527,0.0058835,1.0058e-08,0.06,0.52,0
0.004426,0.0031739,0.0056877,0.00042917,0.00061169,0.0016767,0,0,0.055836,-0.0020078,0,0.036887,0,0,0,0.0061768,-5.9946e-05,0.00061169,16.263,0.0022429,0.0059295,1.0246e-08,0.08,0.52,0
0.005545,0.004061,0.0057015,0.00038765,0.00060891,0.001669,0,0,0.056018,-0.0024339,0,0.036717,0,0,0,0.0061822,-9.3052e-05,0.00060891,16.068,0.0022327,0.0059553,1.0342e-08,0.1,0.52,0
0.006668,0.0049841,0.0057216,0.00034795,0.00060695,0.0016981,0,0,0.056261,-0.002849,0,0.037358,0,0,0,0.0062132,-0.00014369,0.00060695,16.147,0.0022255,0.0060168,1.0602e-08,0.12,0.52,0
0.0077944,0.0059424,0.0057285,0.00030634,0.00060349,0.0016821,0,0,0.056376,-0.0032686,0,0.037007,0,0,0,0.006208,-0.00017311,0.00060349,15.909,0.0022128,0.0060304,1.0636e-08,0.14,0.52,0
0.0089231,0.0069352,0.0057342,0.00027153,0.00060058,0.0016767,0,0,0.05647,-0.0036195,0,0.036887,0,0,0,0.0062078,-0.00020206,0.00060058,15.772,0.0022021,0.0060486,1.0694e-08,0.16,0.52,0
0.010053,0.0079619,0.0057346,0.00023996,0.00059746,0.0016674,0,0,0.056509,-0.0039325,0,0.036683,0,0,0,0.006201,-0.00022645,0.00059746,15.627,0.0021907,0.0060577,1.0708e-08,0.18,0.52,0
0.011183,0.0090219,0.0057287,0.00021148,0.00059402,0.0016542,0,0,0.056482,-0.004208,0,0.036393,0,0,0,0.0061867,-0.0002465,0.00059402,15.475,0.0021781,0.0060569,1.0675e-08,0.2,0.52,0
0.012312,0.010115,0.0057154,0.00018572,0.00059011,0.0016374,0,0,0.056378,-0.0044484,0,0.036022,0,0,0,0.0061639,-0.00026274,0.00059011,15.317,0.0021637,0.0060455,1.059e-08,0.22,0.52,0
0.013439,0.011241,0.0056932,0.00016194,0.00058552,0.0016171,0,0,0.056185,-0.0046593,0,0.035576,0,0,0,0.0061313,-0.00027612,0.00058552,15.157,0.0021469,0.006023,1.0452e-08,0.24,0.52,0
0.01456,0.012401,0.0056605,0.00013892,0.00057994,0.0015939,0,0,0.055886,-0.0048513,0,0.035066,0,0,0,0.0060876,-0.00028816,0.00057994,15,0.0021265,0.0059891,1.0256e-08,0.26,0.52,0
0.015674,0.013594,0.0056153,0.00011463,0.00057299,0.0015686,0,0,0.055465,-0.005042,0,0.03451,0,0,0,0.0060312,-0.00030125,0.00057299,14.849,0.002101,0.0059437,1.0002e-08,0.28,0.52,0
0.016778,0.014823,0.0055552,8.5857e-05,0.00056411,0.0015423,0,0,0.054902,-0.0052608,0,0.03393,0,0,0,0.0059602,-0.00031907,0.00056411,14.711,0.0020684,0.0058875,9.6912e-09,0.3,0.52,0
0.01787,0.016089,0.0054781,4.7331e-05,0.00055254,0.0015162,0,0,0.054181,-0.0055573,0,0.033356,0,0,0,0.0058727,-0.0003473,0.00055254,14.589,0.002026,0.0058225,9.3268e-09,0.32,0.52,0
0.018946,0.017393,0.0053828,-9.6857e-06,0.00053731,0.0014914,0,0,0.0533,-0.006017,0,0.03281,0,0,0,0.0057678,-0.00039465,0.00053731,14.474,0.0019701,0.0057533,8.9219e-09,0.34,0.52,0
0.020002,0.018738,0.0052716,-0.0001005,0.00051711,0.0014654,0,0,0.052299,-0.0067937,0,0.03224,0,0,0,0.0056453,-0.00047425,0.00051711,14.308,0.0018961,0.0056891,8.4969e-09,0.36,0.52,0
0.021038,0.020121,0.0051451,-0.00024797,0.00048971,0.0014272,0,0,0.051209,-0.0081145,0,0.031399,0,0,0,0.0054995,-0.00060238,0.00048971,13.946,0.0017956,0.0056357,8.0421e-09,0.38,0.52,0
0.022051,0.021533,0.0050022,-0.00045893,0.00045432,0.001348,0,0,0.050026,-0.010046,0,0.029655,0,0,0,0.0053168,-0.00077352,0.00045432,13.137,0.0016659,0.0055786,7.4812e-09,0.4,0.52,0
0.023039,0.022949,0.0048103,-0.00071891,0.00040914,0.0012069,0,0,0.048413,-0.012408,0,0.026551,0,0,0,0.0050622,-0.00097086,0.00040914,11.792,0.0015002,0.0054751,6.6585e-09,0.42,0.52,0
0.023987,0.024339,0.0045701,-0.0009402,0.00036299,0.00096689,0,0,0.046278,-0.014335,0,0.021272,0,0,0,0.0047348,-0.0011049,0.00036299,9.669,0.001331,0.0052617,5.5649e-09,0.44,0.52,0
0.02489,0.025662,0.0042397,-0.0010307,0.0003209,0.00080417,0,0,0.043107,-0.014867,0,0.017692,0,0,0,0.0043597,-0.0011507,0.0003209,8.4852,0.0011766,0.0049417,4.3953e-09,0.46,0.52,0
0.02567,0.026904,0.0038342,-0.0011459,0.00026883,0.00036454,0,0,0.03922,-0.015563,0,0.00802,0,0,0,0.0038608,-0.0011725,0.00026883,4.1644,0.00098571,0.0044896,3.0842e-09,0.48,0.52,0
0.026457,0.028042,0.0027834,-0.00060401,0.00021794,0.00026573,0,0,0.02822,-0.0090415,0,0.005846,0,0,0,0.0028042,-0.00062473,0.00021794,4.4582,0.00079912,0.0030948,1.1504e-09,0.5,0.52,0
0.026578,0.028819,0.0046215,0.00017478,0.00047963,0.0011692,0,0,0.0078026,-0.0013031,0,0.0079462,0,0,0,0.004945,-0.00014865,0.00047963,18.99,0.0017587,0.0048271,1.4987e-08,0.52,0.52,0
0.026745,0.029616,0.004741,0.00039241,0.00051334,0.0014851,0,0,0.0087461,0.00041106,0,0.014771,0,0,0,0.005365,-0.00023157,0.00051334,24.306,0.0018823,0.0052861,1.5056e-08,0.54,0.52,0
0.026942,0.030415,0.0060044,0.00068778,0.00066922,0.0018279,0,0,0.010486,0.001503,0,0.019958,0,0,0,0.0068676,-0.00017542,0.00066922,25.281,0.0024538,0.0066979,2.9603e-08,0.56,0.52,0
0.027156,0.03121,0.0060578,0.00081564,0.00068735,0.0022322,0,0,0.010875,0.0022936,0,0.024713,0,0,0,0.0072151,-0.00034168,0.00068735,27.085,0.0025203,0.0071435,3.1726e-08,0.58,0.52,0
0.027383,0.031997,0.0067094,0.00099835,0.00077077,0.0024801,0,0,0.011768,0.0029141,0,0.029065,0,0,0,0.0080678,-0.00036008,0.00077077,27.268,0.0028262,0.0079862,4.2174e-08,0.6,0.52,0
0.027621,0.032773,0.0067494,0.0011119,0.00078613,0.0030213,0,0,0.012039,0.0033804,0,0.034389,0,0,0,0.0084815,-0.00062022,0.00078613,28.989,0.0028825,0.0085591,4.7073e-08,0.62,0.52,0
0.02787,0.033535,0.0075743,0.0013064,0.00088807,0.0033187,0,0,0.013175,0.0036116,0,0.039988,0,0,0,0.0095283,-0.00064766,0.00088807,28.603,0.0032563,0.0096077,6.3645e-08,0.64,0.52,0
0.028139,0.034274,0.0081611,0.0016459,0.00098071,0.0037366,0,0,0.014361,0.0034334,0,0.046484,0,0,0,0.010404,-0.00059712,0.00098071,28.712,0.0035959,0.010464,7.5721e-08,0.66,0.52,0
0.028445,0.034878,0.010853,1.039e-05,0.0010864,0.0048892,0,0,0.03856,8.6779e-05,0,0.048411,0,0,0,0.012816,-0.0019524,0.0010864,22.756,0.0039833,0.013509,1.4519e-07,0.68,0.52,0
0.030146,0.035704,0.0074739,0.0007851,0.0008259,0.003858,0,0,0.073128,-0.00044884,0,0.084876,0,0,0,0.0092353,-0.00097629,0.0008259,24.539,0.0030283,0.0094404,3.7957e-08,0.7,0.52,0
0.03137,0.036428,0.0064765,0.00065062,0.00071271,0.0032184,0,0,0.063401,-0.000683,0,0.070806,0,0,0,0.0079045,-0.00077737,0.00071271,23.926,0.0026133,0.008041,2.3642e-08,0.72,0.52,0
0.032682,0.037265,0.0066439,0.00090909,0.0007553,0.0032044,0,0,0.064774,0.0016918,0,0.070497,0,0,0,0.0080765,-0.00052352,0.0007553,24.088,0.0027694,0.0080373,2.4405e-08,0.74,0.52,0
0.033961,0.038121,0.0066091,0.00094063,0.00075497,0.0030773,0,0,0.064395,0.0020422,0,0.067701,0,0,0,0.0079585,-0.00040876,0.00075497,23.677,0.0027682,0.0078504,2.3018e-08,0.76,0.52,0
0.035258,0.039037,0.0066847,0.00097234,0.0007657,0.0030432,0,0,0.065109,0.002273,0,0.06695,0,0,0,0.0080021,-0.00034505,0.0007657,23.408,0.0028076,0.0078509,2.3185e-08,0.78,0.52,0
0.036565,0.039996,0.0067471,0.00091194,0.0007659,0.0029856,0,0,0.065793,0.0016064,0,0.065684,0,0,0,0.008004,-0.00034497,0.0007659,22.83,0.0028083,0.0078527,2.3201e-08,0.8,0.52,0
0.03789,0.040992,0.0068164,0.0008278,0.00076442,0.0029141,0,0,0.066572,0.00069716,0,0.064109,0,0,0,0.0080003,-0.00035612,0.00076442,22.111,0.0028029,0.0078563,2.3206e-08,0.82,0.52,0
0.039228,0.042008,0.0068666,0.00074141,0.00076081,0.0028195,0,0,0.067164,-0.00021337,0,0.062029,0,0,0,0.0079669,-0.00035882,0.00076081,21.317,0.0027896,0.0078262,2.293e-08,0.84,0.52,0
0.040576,0.04303,0.0068969,0.00067424,0.00075711,0.0027154,0,0,0.067537,-0.00091163,0,0.059739,0,0,0,0.0079152,-0.00034406,0.00075711,20.556,0.0027761,0.0077674,2.2446e-08,0.86,0.52,0
0.041929,0.044049,0.0069078,0.00062875,0.00075365,0.0026109,0,0,0.067696,-0.0013739,0,0.05744,0,0,0,0.0078516,-0.00031505,0.00075365,19.874,0.0027634,0.0076882,2.1827e-08,0.88,0.52,0
0.043284,0.045061,0.0069046,0.00060435,0.00075089,0.0025126,0,0,0.067691,-0.001612,0,0.055276,0,0,0,0.0077839,-0.00027495,0.00075089,19.288,0.0027533,0.007598,2.115e-08,0.9,0.52,0
0.044637,0.046062,0.0068914,0.00059972,0.00074911,0.0024244,0,0,0.067565,-0.0016433,0,0.053337,0,0,0,0.0077172,-0.0002261,0.00074911,18.81,0.0027467,0.0075034,2.0467e-08,0.92,0.52,0
0.045987,0.047053,0.006877,0.00062741,0.00075044,0.002355,0,0,0.067392,-0.0013533,0,0.051811,0,0,0,0.007665,-0.00016066,0.00075044,18.502,0.0027516,0.0074123,1.9855e-08,0.94,0.52,0
0.047331,0.048037,0.0068415,0.00065385,0.00074953,0.0022931,0,0,0.067011,-0.0010525,0,0.050449,0,0,0,0.0075986,-0.00010331,0.00074953,18.273,0.0027483,0.0073129,1.9168e-08,0.96,0.52,0
0.048669,0.049017,0.0068236,0.00069799,0.00075215,0.0022571,0,0,0.066785,-0.00059587,0,0.049657,0,0,0,0.0075654,-4.3865e-05,0.00075215,18.194,0.0027579,0.0072441,1.8732e-08,0.98,0.52,0
0.05,0.05,0.0068056,0.00075618,0.00075618,0.0022349,0,0,0.066544,1.2327e-16,0,0.049168,0,0,0,0.0075417,2.0089e-05,0.00075618,18.23,0.0027727,0.007182,1.8354e-08,1,0.52,0
0,0,0.0054522,0.0006058,0.0006058,0.0016492,0,0,0.05331,3.5237e-19,0,0.036282,0,0,0,0.0059601,9.7831e-05,0.0006058,17.119,0.0022213,0.0056255,8.8926e-09,0,0.54,0
0.0010662,0.00072564,0.0054557,0.00055692,0.00060126,0.0016063,0,0,0.053399,-0.00048776,0,0.035338,0,0,0,0.0059354,7.722e-05,0.00060126,16.628,0.0022046,0.0056145,8.8234e-09,0.02,0.54,0
0.0021377,0.0014904,0.0054855,0.00051136,0.00059969,0.0016508,0,0,0.053745,-0.0009717,0,0.036317,0,0,0,0.0059835,1.337e-05,0.00059969,16.787,0.0021989,0.0056997,9.1714e-09,0.04,0.54,0
0.0032143,0.0022937,0.0055006,0.00046454,0.00059652,0.0016489,0,0,0.053945,-0.0014518,0,0.036275,0,0,0,0.0059924,-2.7278e-05,0.00059652,16.609,0.0021872,0.0057333,9.294e-09,0.06,0.54,0
0.0042955,0.003135,0.0055178,0.00042101,0.00059388,0.0016595,0,0,0.054163,-0.0019016,0,0.036508,0,0,0,0.0060105,-7.1666e-05,0.00059388,16.536,0.0021776,0.0057782,9.4666e-09,0.08,0.54,0
0.0053808,0.0040134,0.0055321,0.0003801,0.00059123,0.0016676,0,0,0.05435,-0.0023224,0,0.036687,0,0,0,0.0060248,-0.00011256,0.00059123,16.459,0.0021678,0.0058175,9.6147e-09,0.1,0.54,0
0.0064695,0.0049284,0.0055429,0.00034219,0.00058851,0.0016731,0,0,0.054498,-0.0027095,0,0.036808,0,0,0,0.0060347,-0.00014955,0.00058851,16.379,0.0021579,0.0058502,9.7338e-09,0.12,0.54,0
0.0075608,0.0058794,0.0055495,0.00030752,0.0005857,0.0016757,0,0,0.054601,-0.00306,0,0.036865,0,0,0,0.0060393,-0.00018236,0.0005857,16.296,0.0021476,0.0058754,9.8195e-09,0.14,0.54,0
0.0086536,0.0068656,0.005551,0.00027616,0.00058272,0.0016753,0,0,0.054651,-0.0033721,0,0.036856,0,0,0,0.0060381,-0.00021093,0.00058272,16.212,0.0021366,0.0058924,9.868e-09,0.16,0.54,0
0.0097468,0.0078865,0.0055467,0.00024805,0.00057947,0.0016719,0,0,0.05464,-0.0036457,0,0.036782,0,0,0,0.0060301,-0.00023539,0.00057947,16.128,0.0021247,0.0059004,9.8756e-09,0.18,0.54,0
0.010839,0.0089415,0.0055356,0.00022289,0.00057585,0.0016657,0,0,0.054557,-0.0038825,0,0.036645,0,0,0,0.0060146,-0.00025615,0.00057585,16.045,0.0021114,0.005899,9.8394e-09,0.2,0.54,0
0.011929,0.01003,0.0055166,0.00020014,0.00057167,0.0016569,0,0,0.054394,-0.0040868,0,0.036452,0,0,0,0.0059907,-0.00027397,0.00057167,15.968,0.0020961,0.0058876,9.7568e-09,0.22,0.54,0
0.013015,0.011153,0.0054884,0.00017887,0.00056673,0.0016461,0,0,0.054139,-0.0042665,0,0.036215,0,0,0,0.0059574,-0.00029007,0.00056673,15.901,0.002078,0.0058662,9.6264e-09,0.24,0.54,0
0.014095,0.012308,0.0054498,0.00015761,0.00056074,0.001634,0,0,0.053779,-0.0044344,0,0.035949,0,0,0,0.0059136,-0.00030628,0.00056074,15.848,0.002056,0.0058349,9.448e-09,0.26,0.54,0
0.015166,0.013499,0.005399,0.00013411,0.00055332,0.0016216,0,0,0.053303,-0.0046113,0,0.035675,0,0,0,0.0058584,-0.00032527,0.00055332,15.817,0.0020288,0.0057946,9.2232e-09,0.28,0.54,0
0.016227,0.014723,0.005335,0.0001049,0.00054399,0.0016099,0,0,0.052701,-0.0048299,0,0.035417,0,0,0,0.0057908,-0.00035091,0.00054399,15.809,0.0019946,0.0057468,8.9559e-09,0.3,0.54,0
0.017274,0.015983,0.0052568,6.4734e-05,0.00053215,0.0015998,0,0,0.051971,-0.0051416,0,0.035194,0,0,0,0.0057101,-0.00038859,0.00053215,15.821,0.0019512,0.0056944,8.6537e-09,0.32,0.54,0
0.018306,0.017278,0.0051648,5.6627e-06,0.00051704,0.0015908,0,0,0.051125,-0.0056252,0,0.034997,0,0,0,0.0056158,-0.0004454,0.00051704,15.831,0.0018958,0.0056419,8.326e-09,0.34,0.54,0
0.019319,0.018607,0.0050598,-8.3074e-05,0.00049767,0.001579,0,0,0.050183,-0.0063882,0,0.034739,0,0,0,0.0055059,-0.00052919,0.00049767,15.776,0.0018248,0.0055928,7.9735e-09,0.36,0.54,0
0.020313,0.019966,0.0049416,-0.00021045,0.00047311,0.0015542,0,0,0.049153,-0.0075192,0,0.034191,0,0,0,0.0053741,-0.00064297,0.00047311,15.552,0.0017347,0.0055439,7.5695e-09,0.38,0.54,0
0.021285,0.021344,0.0048021,-0.00037707,0.0004425,0.0015015,0,0,0.047955,-0.0090152,0,0.033034,0,0,0,0.0052059,-0.00078091,0.0004425,15.053,0.0016225,0.0054785,7.0464e-09,0.4,0.54,0
0.022231,0.022723,0.0046288,-0.00055972,0.00040691,0.0014039,0,0,0.046441,-0.010633,0,0.030887,0,0,0,0.0049844,-0.00091524,0.00040691,14.21,0.001492,0.0053622,6.3251e-09,0.42,0.54,0
0.023143,0.024079,0.0043866,-0.00073185,0.00036547,0.0012661,0,0,0.044232,-0.01207,0,0.027853,0,0,0,0.0046826,-0.0010279,0.00036547,13.161,0.0013401,0.005157,5.3486e-09,0.44,0.54,0
0.024,0.02539,0.0040753,-0.000836,0.00032393,0.0010776,0,0,0.041265,-0.012759,0,0.023707,0,0,0,0.0043013,-0.001062,0.00032393,11.847,0.0011877,0.0048221,4.1954e-09,0.46,0.54,0
0.024793,0.026627,0.003564,-0.00089464,0.00026694,0.00092364,0,0,0.036268,-0.012777,0,0.02032,0,0,0,0.0037478,-0.0010784,0.00026694,11.252,0.00097877,0.0043138,2.8115e-09,0.48,0.54,0
0.025451,0.02778,0.0030202,-0.00090032,0.00021199,0.00060984,0,0,0.030891,-0.012235,0,0.013416,0,0,0,0.0031129,-0.00099299,0.00021199,8.6405,0.00077729,0.0036555,1.6206e-09,0.5,0.54,0
0.026029,0.028776,0.0025153,-0.00025798,0.00022573,0.00091681,0,0,0.025185,-0.0053208,0,0.02017,0,0,0,0.002791,-0.00053366,0.00022573,16.736,0.00082768,0.0030175,1.1155e-09,0.52,0.54,0
0.026459,0.02964,0.0020916,9.9862e-05,0.00021914,0.0012553,0,0,0.020597,-0.0013121,0,0.027617,0,0,0,0.0026981,-0.00050665,0.00021914,25.788,0.00080353,0.0029105,1.0058e-09,0.54,0.54,0
0.026853,0.030481,0.0020227,0.00032831,0.00023511,0.0016359,0,0,0.019664,0.0010252,0,0.035991,0,0,0,0.0030178,-0.00066678,0.00023511,31.311,0.00086206,0.0033267,1.4327e-09,0.56,0.54,0
0.027245,0.031306,0.0020695,0.00049407,0.00025635,0.0019893,0,0,0.019944,0.0026148,0,0.043766,0,0,0,0.0034214,-0.00085786,0.00025635,34.199,0.00093996,0.0038452,2.1145e-09,0.58,0.54,0
0.027651,0.032115,0.0021896,0.00061729,0.00028069,0.0023392,0,0,0.020998,0.0037026,0,0.051463,0,0,0,0.0038712,-0.0010643,0.00028069,35.712,0.0010292,0.0044193,3.0879e-09,0.6,0.54,0
0.028085,0.032908,0.0024058,0.00070402,0.00031099,0.0027033,0,0,0.023043,0.0043234,0,0.059472,0,0,0,0.004389,-0.0012791,0.00031099,36.264,0.0011403,0.0050639,4.5195e-09,0.62,0.54,0
0.028573,0.033675,0.0028168,0.0007527,0.00035695,0.0030882,0,0,0.027058,0.0043533,0,0.067941,0,0,0,0.0050409,-0.0014713,0.00035695,35.76,0.0013088,0.0058177,6.8478e-09,0.64,0.54,0
0.029167,0.034394,0.0036823,0.00075478,0.00044371,0.0034417,0,0,0.035625,0.0034218,0,0.075717,0,0,0,0.0059586,-0.0015214,0.00044371,33.48,0.001627,0.0067166,1.1188e-08,0.66,0.54,0
0.029997,0.03499,0.0044827,0.0010043,0.00054869,0.0039826,0,0,0.043274,0.0050114,0,0.087618,0,0,0,0.0070893,-0.0016024,0.00054869,33.205,0.0020119,0.0078406,1.8617e-08,0.68,0.54,0
0.030898,0.035665,0.0052655,0.00076593,0.00060315,0.003346,0,0,0.051286,0.0017906,0,0.073611,0,0,0,0.0070477,-0.0010163,0.00060315,28.042,0.0022115,0.0073886,1.7409e-08,0.7,0.54,0
0.032049,0.036476,0.0059539,0.00095412,0.0006908,0.0032616,0,0,0.057894,0.0028965,0,0.071754,0,0,0,0.0075634,-0.00065541,0.0006908,26.265,0.0025329,0.0076352,2.0486e-08,0.72,0.54,0
0.033214,0.037301,0.0060918,0.00095721,0.0007049,0.003077,0,0,0.059256,0.0027755,0,0.067695,0,0,0,0.0075319,-0.00048289,0.0007049,25.08,0.0025846,0.0074918,1.9779e-08,0.74,0.54,0
0.034419,0.038176,0.006249,0.0010124,0.00072614,0.0030093,0,0,0.060752,0.003149,0,0.066205,0,0,0,0.0076196,-0.00035819,0.00072614,24.487,0.0026625,0.0074947,2.0104e-08,0.76,0.54,0
0.035644,0.039088,0.0063577,0.0010057,0.00073634,0.0029491,0,0,0.061835,0.0029629,0,0.064881,0,0,0,0.007664,-0.00030054,0.00073634,23.89,0.0026999,0.0075,2.0278e-08,0.78,0.54,0
0.036893,0.040038,0.0064649,0.00096906,0.00074339,0.0029012,0,0,0.062936,0.0024823,0,0.063827,0,0,0,0.007713,-0.00027905,0.00074339,23.277,0.0027258,0.007533,2.0598e-08,0.8,0.54,0
0.038162,0.041018,0.0065576,0.00090448,0.00074621,0.0028411,0,0,0.063925,0.001741,0,0.062504,0,0,0,0.0077387,-0.0002766,0.00074621,22.573,0.0027361,0.007556,2.0794e-08,0.82,0.54,0
0.039449,0.042017,0.0066353,0.00083488,0.00074702,0.0027677,0,0,0.064771,0.00096646,0,0.06089,0,0,0,0.007744,-0.00027385,0.00074702,21.831,0.0027391,0.0075593,2.0828e-08,0.84,0.54,0
0.040752,0.043025,0.0066935,0.00077273,0.00074662,0.0026838,0,0,0.065415,0.00028721,0,0.059043,0,0,0,0.0077289,-0.0002627,0.00074662,21.097,0.0027376,0.0075378,2.0673e-08,0.86,0.54,0
0.042066,0.044034,0.0067328,0.00072519,0.0007458,0.002596,0,0,0.065857,-0.00022672,0,0.057111,0,0,0,0.0076991,-0.00024113,0.0007458,20.417,0.0027346,0.0074957,2.0371e-08,0.88,0.54,0
0.043387,0.04504,0.0067557,0.00069393,0.00074497,0.0025103,0,0,0.066119,-0.00056141,0,0.055226,0,0,0,0.0076603,-0.00021062,0.00074497,19.816,0.0027316,0.0074393,1.9974e-08,0.9,0.54,0
0.044711,0.046039,0.0067657,0.00067865,0.00074443,0.0024316,0,0,0.066234,-0.00072359,0,0.053495,0,0,0,0.0076177,-0.00017343,0.00074443,19.311,0.0027296,0.0073752,1.9532e-08,0.92,0.54,0
0.046036,0.047032,0.0067656,0.00067819,0.00074438,0.0023642,0,0,0.066233,-0.00072801,0,0.052012,0,0,0,0.0075759,-0.00013213,0.00074438,18.919,0.0027294,0.0073093,1.9087e-08,0.94,0.54,0
0.04736,0.048019,0.0067581,0.00069098,0.00074491,0.0023122,0,0,0.066145,-0.00059322,0,0.050869,0,0,0,0.0075388,-8.976e-05,0.00074491,18.658,0.0027313,0.0072474,1.868e-08,0.96,0.54,0
0.048682,0.049007,0.0067455,0.00071503,0.00074606,0.0022803,0,0,0.065994,-0.0003413,0,0.050168,0,0,0,0.0075107,-5.0157e-05,0.00074606,18.55,0.0027355,0.0071959,1.835e-08,0.98,0.54,0
0.05,0.05,0.0067404,0.00074893,0.00074893,0.0022572,0,0,0.065906,-4.2081e-17,0,0.049658,0,0,0,0.0074956,-6.2415e-06,0.00074893,18.498,0.0027461,0.0071542,1.8102e-08,1,0.54,0
0,0,0.0052892,0.00058769,0.00058769,0.0016273,0,0,0.051716,4.3368e-19,0,0.035802,0,0,0,0.0057975,7.9367e-05,0.00058769,17.347,0.0021548,0.0054817,8.2151e-09,0,0.56,0
0.0010343,0.00071603,0.0052968,0.00054061,0.00058375,0.0015998,0,0,0.051844,-0.0004745,0,0.035195,0,0,0,0.0057849,5.2598e-05,0.00058375,16.964,0.0021404,0.005486,8.2125e-09,0.02,0.56,0
0.0020738,0.0014713,0.0053169,0.00049534,0.00058122,0.001616,0,0,0.052092,-0.00094472,0,0.035552,0,0,0,0.0058084,3.8339e-06,0.00058122,16.917,0.0021312,0.0055385,8.4068e-09,0.04,0.56,0
0.003118,0.0022654,0.0053352,0.00045154,0.00057868,0.0016308,0,0,0.052322,-0.0013985,0,0.035879,0,0,0,0.0058297,-4.2984e-05,0.00057868,16.869,0.0021218,0.0055879,8.5885e-09,0.06,0.56,0
0.0041667,0.0030978,0.0053511,0.00041003,0.00057611,0.0016441,0,0,0.052525,-0.0018269,0,0.036171,0,0,0,0.0058481,-8.7048e-05,0.00057611,16.822,0.0021124,0.005633,8.7524e-09,0.08,0.56,0
0.005219,0.0039681,0.0053637,0.00037138,0.00057351,0.0016556,0,0,0.052693,-0.0022235,0,0.036423,0,0,0,0.0058629,-0.00012776,0.00057351,16.777,0.0021029,0.0056726,8.8938e-09,0.1,0.56,0
0.0062743,0.0048757,0.0053726,0.00033594,0.00057085,0.001665,0,0,0.052819,-0.002584,0,0.036631,0,0,0,0.0058732,-0.00016473,0.00057085,16.736,0.0020931,0.0057059,9.0085e-09,0.12,0.56,0
0.0073318,0.00582,0.0053769,0.00030388,0.00056808,0.0016723,0,0,0.052897,-0.0029062,0,0.036791,0,0,0,0.0058786,-0.00019778,0.00056808,16.698,0.002083,0.0057319,9.0928e-09,0.14,0.56,0
0.0083902,0.0068003,0.0053761,0.00027518,0.00056512,0.0016773,0,0,0.05292,-0.0031893,0,0.036901,0,0,0,0.0058782,-0.00022694,0.00056512,16.666,0.0020721,0.0057501,9.1432e-09,0.16,0.56,0
0.0094486,0.007816,0.0053692,0.00024963,0.00056189,0.0016802,0,0,0.052881,-0.0034349,0,0.036964,0,0,0,0.0058714,-0.00025253,0.00056189,16.64,0.0020603,0.0057601,9.1573e-09,0.18,0.56,0
0.010505,0.0088666,0.0053556,0.00022676,0.00055824,0.0016811,0,0,0.052771,-0.0036463,0,0.036984,0,0,0,0.0058575,-0.00027515,0.00055824,16.623,0.0020469,0.0057614,9.1331e-09,0.2,0.56,0
0.011559,0.0099516,0.0053344,0.00020584,0.00055402,0.0016805,0,0,0.052584,-0.00383,0,0.036972,0,0,0,0.005836,-0.00029578,0.00055402,16.62,0.0020314,0.0057541,9.0697e-09,0.22,0.56,0
0.012609,0.011071,0.0053045,0.00018574,0.00054902,0.001679,0,0,0.05231,-0.0039961,0,0.036939,0,0,0,0.0058061,-0.00031586,0.00054902,16.633,0.0020131,0.0057386,8.9673e-09,0.24,0.56,0
0.013652,0.012223,0.0052651,0.0001648,0.00054299,0.0016774,0,0,0.051943,-0.0041601,0,0.036903,0,0,0,0.0057673,-0.00033743,0.00054299,16.668,0.001991,0.0057156,8.8276e-09,0.26,0.56,0
0.014686,0.01341,0.0052153,0.00014059,0.00053559,0.0016765,0,0,0.051477,-0.004345,0,0.036883,0,0,0,0.0057191,-0.00036325,0.00053559,16.727,0.0019638,0.0056865,8.654e-09,0.28,0.56,0
0.015711,0.01463,0.0051547,0.00010969,0.00052644,0.0016772,0,0,0.050911,-0.0045843,0,0.036897,0,0,0,0.0056614,-0.00039698,0.00052644,16.809,0.0019303,0.0056535,8.4519e-09,0.3,0.56,0
0.016723,0.015883,0.0050833,6.7344e-05,0.00051506,0.0016795,0,0,0.050251,-0.0049249,0,0.036949,0,0,0,0.0055937,-0.00044307,0.00051506,16.904,0.0018886,0.0056193,8.2273e-09,0.32,0.56,0
0.017721,0.017168,0.0050017,7.4806e-06,0.00050091,0.0016823,0,0,0.049508,-0.0054278,0,0.037012,0,0,0,0.0055155,-0.00050636,0.00050091,16.985,0.0018367,0.0055867,7.9833e-09,0.34,0.56,0
0.018703,0.018483,0.0049102,-7.6119e-05,0.00048341,0.0016817,0,0,0.048695,-0.0061548,0,0.036997,0,0,0,0.0054243,-0.00059027,0.00048341,17,0.0017725,0.0055561,7.7122e-09,0.36,0.56,0
0.019669,0.019821,0.0048073,-0.00018705,0.00046202,0.0016705,0,0,0.047798,-0.0071398,0,0.036752,0,0,0,0.0053145,-0.0006943,0.00046202,16.891,0.0016941,0.0055222,7.3868e-09,0.38,0.56,0
0.020615,0.021172,0.0046879,-0.00032107,0.00043668,0.0016397,0,0,0.046763,-0.0083354,0,0.036073,0,0,0,0.0051769,-0.00081009,0.00043668,16.606,0.0016012,0.0054712,6.9616e-09,0.4,0.56,0
0.021539,0.022523,0.0045407,-0.00046548,0.00040753,0.0015837,0,0,0.045465,-0.0096031,0,0.034841,0,0,0,0.0049997,-0.00092441,0.00040753,16.161,0.0014943,0.0053831,6.3885e-09,0.42,0.56,0
0.022434,0.023856,0.0043558,-0.0005957,0.00037601,0.001501,0,0,0.043777,-0.010689,0,0.033022,0,0,0,0.0047753,-0.0010152,0.00037601,15.614,0.0013787,0.0052354,5.6528e-09,0.44,0.56,0
0.02329,0.025152,0.0041129,-0.00069846,0.00034144,0.0014095,0,0,0.041486,-0.011439,0,0.031009,0,0,0,0.0044954,-0.001081,0.00034144,15.183,0.0012519,0.0050186,4.7769e-09,0.46,0.56,0
0.024093,0.026393,0.0038404,-0.0007383,0.00031021,0.0013079,0,0,0.038832,-0.011534,0,0.028775,0,0,0,0.0041877,-0.0010856,0.00031021,14.87,0.0011374,0.0047323,3.8892e-09,0.48,0.56,0
0.024844,0.027552,0.0035309,-0.00074317,0.00027878,0.0012631,0,0,0.035774,-0.011241,0,0.027788,0,0,0,0.0038763,-0.0010885,0.00027878,15.292,0.0010222,0.0044419,3.1052e-09,0.5,0.56,0
0.025524,0.028606,0.003225,-0.00055263,0.00026724,0.0012504,0,0,0.032536,-0.0090186,0,0.027509,0,0,0,0.0036014,-0.00092902,0.00026724,16.752,0.00097988,0.0040665,2.4727e-09,0.52,0.56,0
0.026145,0.029564,0.0029847,-0.00022188,0.00027628,0.0014094,0,0,0.029792,-0.0054798,0,0.031006,0,0,0,0.0035161,-0.00075328,0.00027628,20.659,0.001013,0.003859,2.2584e-09,0.54,0.56,0
0.026716,0.030456,0.0028485,1.4975e-05,0.00028635,0.001647,0,0,0.028184,-0.0029851,0,0.036234,0,0,0,0.0036042,-0.00074077,0.00028635,24.649,0.0010499,0.0039334,2.4217e-09,0.56,0.56,0
0.027272,0.031315,0.0028584,0.00018613,0.00030445,0.0019144,0,0,0.028093,-0.0013015,0,0.042117,0,0,0,0.0038568,-0.0008123,0.00030445,27.544,0.0011163,0.004223,2.9752e-09,0.58,0.56,0
0.02784,0.032145,0.0029833,0.00030805,0.00032913,0.0021817,0,0,0.029195,-0.00023193,0,0.047998,0,0,0,0.0042048,-0.00091346,0.00032913,29.244,0.0012068,0.0046239,3.8682e-09,0.6,0.56,0
0.02844,0.032946,0.0032291,0.00039033,0.00036194,0.0024356,0,0,0.031539,0.00031223,0,0.053583,0,0,0,0.0046287,-0.0010093,0.00036194,29.884,0.0013271,0.0050928,5.1622e-09,0.62,0.56,0
0.029101,0.033709,0.0036159,0.00044378,0.00040597,0.0026431,0,0,0.035309,0.00041596,0,0.058149,0,0,0,0.0051123,-0.0010527,0.00040597,29.517,0.0014886,0.0055805,6.9123e-09,0.64,0.56,0
0.029853,0.034411,0.0040428,0.00052392,0.00045667,0.0027903,0,0,0.039447,0.0007397,0,0.061386,0,0,0,0.005582,-0.0010153,0.00045667,28.883,0.0016745,0.0059984,8.8748e-09,0.66,0.56,0
0.030679,0.035079,0.0045197,0.00087415,0.00053938,0.0028336,0,0,0.043783,0.0036824,0,0.062339,0,0,0,0.0060662,-0.00067233,0.00053938,28.624,0.0019777,0.0062218,1.0805e-08,0.68,0.56,0
0.031604,0.035776,0.0049785,0.0010643,0.00060428,0.0029736,0,0,0.048117,0.0050602,0,0.065418,0,0,0,0.0065813,-0.00053841,0.00060428,28.324,0.0022157,0.0066227,1.3434e-08,0.7,0.56,0
0.032604,0.036544,0.0053816,0.0010145,0.00063961,0.0029351,0,0,0.052162,0.0041237,0,0.064572,0,0,0,0.0068563,-0.00046019,0.00063961,26.676,0.0023452,0.0068333,1.4967e-08,0.72,0.56,0
0.03369,0.037376,0.0057181,0.0010495,0.00067676,0.0029051,0,0,0.055454,0.0041003,0,0.063911,0,0,0,0.0071105,-0.00034289,0.00067676,25.609,0.0024815,0.0069995,1.6359e-08,0.74,0.56,0
0.034822,0.038247,0.0059249,0.0010524,0.00069772,0.0028581,0,0,0.057499,0.0039011,0,0.062879,0,0,0,0.0072442,-0.00026693,0.00069772,24.778,0.0025583,0.0070783,1.7079e-08,0.76,0.56,0
0.03599,0.039155,0.0060907,0.0010449,0.00071356,0.0028253,0,0,0.059148,0.0036447,0,0.062157,0,0,0,0.0073556,-0.00022,0.00071356,24.118,0.0026164,0.0071546,1.7735e-08,0.78,0.56,0
0.037188,0.040096,0.0062254,0.0010118,0.00072372,0.0027895,0,0,0.060519,0.0031688,0,0.061368,0,0,0,0.0074366,-0.00019932,0.00072372,23.469,0.0026537,0.0072187,1.8259e-08,0.8,0.56,0
0.038411,0.041062,0.006341,0.00096268,0.00073037,0.0027464,0,0,0.061717,0.0025554,0,0.06042,0,0,0,0.0074955,-0.00019187,0.00073037,22.802,0.002678,0.0072703,1.8671e-08,0.82,0.56,0
0.039656,0.042047,0.0064374,0.00090613,0.00073435,0.0026917,0,0,0.062733,0.0018896,0,0.059217,0,0,0,0.007531,-0.00018751,0.00073435,22.112,0.0026926,0.0073014,1.8921e-08,0.84,0.56,0
0.04092,0.043042,0.006515,0.00085201,0.0007367,0.0026273,0,0,0.063561,0.0012685,0,0.0578,0,0,0,0.0075461,-0.00017915,0.0007367,21.429,0.0027012,0.0073105,1.9009e-08,0.86,0.56,0
0.042199,0.04404,0.006574,0.00080621,0.00073802,0.0025571,0,0,0.064196,0.00075013,0,0.056257,0,0,0,0.0075444,-0.00016422,0.00073802,20.782,0.0027061,0.0072995,1.8951e-08,0.88,0.56,0
0.043488,0.045039,0.0066163,0.00077153,0.00073879,0.0024863,0,0,0.064653,0.00036022,0,0.054698,0,0,0,0.0075308,-0.00014297,0.00073879,20.195,0.0027089,0.0072731,1.8784e-08,0.9,0.56,0
0.044785,0.046033,0.0066445,0.00074841,0.00073929,0.0024194,0,0,0.064957,0.00010039,0,0.053227,0,0,0,0.0075101,-0.00011726,0.00073929,19.688,0.0027107,0.0072372,1.8553e-08,0.92,0.56,0
0.046087,0.047024,0.0066612,0.00073598,0.00073971,0.0023611,0,0,0.065136,-4.1121e-05,0,0.051943,0,0,0,0.0074869,-8.978e-05,0.00073971,19.277,0.0027123,0.0071979,1.8298e-08,0.94,0.56,0
0.047391,0.048013,0.0066692,0.00073246,0.00074017,0.0023157,0,0,0.065219,-8.4718e-05,0,0.050945,0,0,0,0.0074656,-6.3957e-05,0.00074017,18.979,0.002714,0.0071615,1.8064e-08,0.96,0.56,0
0.048695,0.049003,0.0066713,0.00073535,0.00074067,0.002288,0,0,0.065237,-5.8455e-05,0,0.050335,0,0,0,0.0074508,-4.4153e-05,0.00074067,18.814,0.0027158,0.007135,1.7897e-08,0.98,0.56,0
0.05,0.05,0.0066716,0.00074129,0.00074129,0.0022659,0,0,0.065234,-1.6205e-16,0,0.04985,0,0,0,0.0074383,-2.5387e-05,0.00074129,18.693,0.0027181,0.0071114,1.7749e-08,1,0.56,0
0,0,0.0051275,0.00056972,0.00056972,0.001606,0,0,0.050135,1.8973e-19,0,0.035333,0,0,0,0.0056365,6.0645e-05,0.00056972,17.587,0.002089,0.0053396,7.5798e-09,0,0.58,0
0.0010027,0.00070666,0.005135,0.00052326,0.00056583,0.0015791,0,0,0.050261,-0.00046819,0,0.034741,0,0,0,0.0056239,3.4378e-05,0.00056583,17.202,0.0020747,0.0053437,7.576e-09,0.02,0.58,0
0.0020104,0.0014526,0.0051547,0.00047881,0.00056335,0.0015967,0,0,0.050505,-0.00093,0,0.035127,0,0,0,0.0056479,-1.4402e-05,0.00056335,17.166,0.0020656,0.0053967,7.7613e-09,0.04,0.58,0
0.0030229,0.0022378,0.0051725,0.00043608,0.00056086,0.0016137,0,0,0.050729,-0.0013726,0,0.035502,0,0,0,0.0056701,-6.1455e-05,0.00056086,17.135,0.0020565,0.0054471,7.9367e-09,0.06,0.58,0
0.0040396,0.0030619,0.0051878,0.00039593,0.00055837,0.0016299,0,0,0.050924,-0.0017868,0,0.035858,0,0,0,0.0056896,-0.00010589,0.00055837,17.113,0.0020474,0.0054936,8.0969e-09,0.08,0.58,0
0.0050598,0.0039245,0.0051998,0.00035891,0.00055587,0.0016449,0,0,0.051083,-0.0021665,0,0.036187,0,0,0,0.0057058,-0.00014711,0.00055587,17.1,0.0020382,0.005535,8.2374e-09,0.1,0.58,0
0.0060829,0.0048251,0.0052078,0.00032531,0.00055331,0.0016585,0,0,0.051199,-0.002508,0,0.036486,0,0,0,0.0057179,-0.00018474,0.00055331,17.095,0.0020288,0.0055704,8.3541e-09,0.12,0.58,0
0.0071078,0.0057631,0.0052113,0.0002952,0.00055065,0.0016705,0,0,0.051267,-0.0028099,0,0.036751,0,0,0,0.0057252,-0.00021871,0.00055065,17.1,0.0020191,0.0055991,8.444e-09,0.14,0.58,0
0.0081336,0.006738,0.0052098,0.00026843,0.00054782,0.0016809,0,0,0.051281,-0.0030732,0,0.03698,0,0,0,0.0057274,-0.00024916,0.00054782,17.115,0.0020087,0.0056206,8.5045e-09,0.16,0.58,0
0.0091591,0.0077491,0.0052025,0.00024464,0.00054471,0.0016899,0,0,0.051236,-0.0033008,0,0.037178,0,0,0,0.0057237,-0.00027657,0.00054471,17.141,0.0019973,0.0056347,8.534e-09,0.18,0.58,0
0.010183,0.0087956,0.0051889,0.0002232,0.00054121,0.0016977,0,0,0.051125,-0.0034982,0,0.037349,0,0,0,0.0057138,-0.00030171,0.00054121,17.181,0.0019844,0.0056415,8.5318e-09,0.2,0.58,0
0.011204,0.009877,0.0051684,0.00020318,0.00053716,0.0017047,0,0,0.050944,-0.0036737,0,0.037503,0,0,0,0.0056973,-0.00032573,0.00053716,17.238,0.0019696,0.0056413,8.4981e-09,0.22,0.58,0
0.012221,0.010993,0.0051404,0.0001833,0.00053237,0.0017115,0,0,0.050688,-0.0038397,0,0.037653,0,0,0,0.0056739,-0.00035021,0.00053237,17.313,0.001952,0.0056349,8.4344e-09,0.24,0.58,0
0.013232,0.012142,0.0051044,0.00016176,0.00052662,0.0017189,0,0,0.050356,-0.0040135,0,0.037815,0,0,0,0.0056434,-0.00037723,0.00052662,17.41,0.0019309,0.0056235,8.3436e-09,0.26,0.58,0
0.014235,0.013325,0.0050603,0.00013614,0.00051964,0.0017274,0,0,0.049947,-0.0042185,0,0.038003,0,0,0,0.0056058,-0.00040941,0.00051964,17.527,0.0019054,0.0056087,8.2299e-09,0.28,0.58,0
0.015229,0.01454,0.005008,0.00010328,0.00051113,0.0017375,0,0,0.049465,-0.0044863,0,0.038226,0,0,0,0.0055611,-0.00044987,0.00051113,17.659,0.0018741,0.0055928,8.0978e-09,0.3,0.58,0
0.016214,0.015786,0.004948,5.929e-05,0.00050073,0.001749,0,0,0.04892,-0.0048559,0,0.038477,0,0,0,0.0055093,-0.00050197,0.00050073,17.792,0.001836,0.0055779,7.9511e-09,0.32,0.58,0
0.017186,0.017061,0.0048811,-8.0705e-08,0.0004881,0.0017602,0,0,0.048323,-0.00537,0,0.038723,0,0,0,0.0054496,-0.00056858,0.0004881,17.899,0.0017897,0.0055656,7.7894e-09,0.34,0.58,0
0.018146,0.018361,0.0048074,-7.8333e-05,0.0004729,0.0017679,0,0,0.047679,-0.0060636,0,0.038894,0,0,0,0.00538,-0.00065094,0.0004729,17.947,0.001734,0.0055549,7.6031e-09,0.36,0.58,0
0.019093,0.019681,0.0047258,-0.00017622,0.00045496,0.0017674,0,0,0.046979,-0.006943,0,0.038882,0,0,0,0.0052965,-0.00074697,0.00045496,17.897,0.0016682,0.0055412,7.3714e-09,0.38,0.58,0
0.020026,0.021011,0.004633,-0.00028996,0.00043431,0.0017536,0,0,0.046186,-0.007967,0,0.038579,0,0,0,0.0051938,-0.00085072,0.00043431,17.733,0.0015925,0.0055154,7.0655e-09,0.4,0.58,0
0.020941,0.022339,0.0045245,-0.00040973,0.00041148,0.0017233,0,0,0.045243,-0.0090333,0,0.037912,0,0,0,0.0050668,-0.00095199,0.00041148,17.467,0.0015088,0.0054661,6.6612e-09,0.42,0.58,0
0.021835,0.023651,0.0043945,-0.00052335,0.00038711,0.0016786,0,0,0.044081,-0.010015,0,0.036928,0,0,0,0.0049128,-0.0010417,0.00038711,17.16,0.0014194,0.0053842,6.1537e-09,0.44,0.58,0
0.022704,0.024933,0.0042456,-0.00061452,0.00036311,0.0016232,0,0,0.042707,-0.010754,0,0.03571,0,0,0,0.0047378,-0.0011068,0.00036311,16.871,0.0013314,0.0052658,5.576e-09,0.46,0.58,0
0.023544,0.026165,0.0040783,-0.00067864,0.00033997,0.0015689,0,0,0.041121,-0.011205,0,0.034516,0,0,0,0.0045491,-0.0011495,0.00033997,16.705,0.0012465,0.0051191,4.974e-09,0.48,0.58,0
0.024349,0.027331,0.0039,-0.00067882,0.00032211,0.0015173,0,0,0.039357,-0.01101,0,0.03338,0,0,0,0.0043571,-0.001136,0.00032211,16.767,0.0011811,0.0049285,4.3829e-09,0.5,0.58,0
0.025118,0.028416,0.0037234,-0.00057831,0.00031451,0.0015076,0,0,0.037498,-0.009821,0,0.033166,0,0,0,0.0041991,-0.001054,0.00031451,17.514,0.0011532,0.0047201,3.9095e-09,0.52,0.58,0
0.025849,0.029421,0.0035755,-0.00039807,0.00031774,0.0015603,0,0,0.035835,-0.0078739,0,0.034327,0,0,0,0.004115,-0.00093752,0.00031774,19.072,0.0011651,0.0045564,3.6439e-09,0.54,0.58,0
0.026551,0.030362,0.0034934,-0.00020166,0.00032918,0.0016864,0,0,0.034807,-0.0058392,0,0.037102,0,0,0,0.0041474,-0.00085562,0.00032918,21.195,0.001207,0.0045284,3.6913e-09,0.56,0.58,0
0.027241,0.031254,0.0034994,-4.0359e-05,0.00034591,0.0018509,0,0,0.034689,-0.0042489,0,0.04072,0,0,0,0.0042905,-0.00083141,0.00034591,23.141,0.0012683,0.0046465,4.0586e-09,0.58,0.58,0
0.027939,0.032106,0.0036032,8.7507e-05,0.00036907,0.0020227,0,0,0.035576,-0.0030972,0,0.044499,0,0,0,0.0045252,-0.00083443,0.00036907,24.503,0.0013533,0.0048706,4.7353e-09,0.6,0.58,0
0.028664,0.03292,0.0037959,0.00019359,0.00039895,0.0021744,0,0,0.037367,-0.002259,0,0.047836,0,0,0,0.0048183,-0.00082873,0.00039895,25.181,0.0014628,0.0051442,5.6719e-09,0.62,0.58,0
0.029434,0.033692,0.0040464,0.00030619,0.00043526,0.0022876,0,0,0.039722,-0.0014197,0,0.050328,0,0,0,0.005131,-0.00077847,0.00043526,25.367,0.0015959,0.0054058,6.755e-09,0.64,0.58,0
0.030253,0.034424,0.0043294,0.00050034,0.00048297,0.0023616,0,0,0.04231,0.00019108,0,0.051955,0,0,0,0.005455,-0.00062528,0.00048297,25.484,0.0017709,0.0056089,7.8831e-09,0.66,0.58,0
0.031126,0.035137,0.00462,0.00074889,0.00053689,0.0024522,0,0,0.044915,0.002332,0,0.053947,0,0,0,0.0058085,-0.00043955,0.00053689,25.857,0.0019686,0.0058215,9.1794e-09,0.68,0.58,0
0.03205,0.035867,0.0049178,0.00094839,0.00058661,0.0025434,0,0,0.047643,0.0039795,0,0.055954,0,0,0,0.0061592,-0.00029303,0.00058661,26.017,0.0021509,0.0060605,1.0625e-08,0.7,0.58,0
0.033032,0.036641,0.0052133,0.0010395,0.00062528,0.0026302,0,0,0.050468,0.0045566,0,0.057864,0,0,0,0.0064839,-0.00023112,0.00062528,25.785,0.0022927,0.0063304,1.2229e-08,0.72,0.58,0
0.034068,0.037465,0.0054803,0.0010604,0.00065407,0.0026643,0,0,0.053089,0.0044691,0,0.058615,0,0,0,0.006732,-0.00019125,0.00065407,25.163,0.0023983,0.0065416,1.3572e-08,0.74,0.58,0
0.035155,0.038332,0.0057073,0.0010718,0.00067791,0.0026765,0,0,0.055323,0.0043329,0,0.058882,0,0,0,0.0069301,-0.00015099,0.00067791,24.554,0.0024857,0.0067052,1.4688e-08,0.76,0.58,0
0.036281,0.039233,0.0058883,0.0010634,0.00069516,0.002673,0,0,0.057124,0.0040501,0,0.058806,0,0,0,0.0070765,-0.00012487,0.00069516,23.966,0.0025489,0.0068284,1.556e-08,0.78,0.58,0
0.03744,0.040165,0.0060399,0.0010394,0.00070793,0.0026602,0,0,0.058652,0.003646,0,0.058523,0,0,0,0.0071903,-0.00011106,0.00070793,23.387,0.0025957,0.0069283,1.6279e-08,0.8,0.58,0
0.038627,0.04112,0.006168,0.001002,0.00071701,0.0026359,0,0,0.059961,0.0031351,0,0.05799,0,0,0,0.0072756,-0.00010551,0.00071701,22.79,0.002629,0.0070061,1.6845e-08,0.82,0.58,0
0.039839,0.042092,0.0062763,0.00095765,0.0007234,0.0026002,0,0,0.061082,0.0025767,0,0.057205,0,0,0,0.0073363,-0.00010232,0.0007234,22.178,0.0026525,0.0070621,1.7258e-08,0.84,0.58,0
0.041071,0.043076,0.0063659,0.0009123,0.00072782,0.0025544,0,0,0.062019,0.0020293,0,0.056196,0,0,0,0.0073755,-9.7233e-05,0.00072782,21.565,0.0026687,0.0070962,1.7519e-08,0.86,0.58,0
0.04232,0.044064,0.0064379,0.00087072,0.00073086,0.0025016,0,0,0.062777,0.0015385,0,0.055035,0,0,0,0.0073968,-8.8186e-05,0.00073086,20.973,0.0026798,0.0071109,1.7644e-08,0.88,0.58,0
0.043582,0.045054,0.0064936,0.00083548,0.0007329,0.0024459,0,0,0.063367,0.0011283,0,0.05381,0,0,0,0.0074043,-7.5258e-05,0.0007329,20.423,0.0026873,0.00711,1.7659e-08,0.9,0.58,0
0.044854,0.046043,0.0065351,0.00080731,0.00073424,0.0023918,0,0,0.06381,0.00080367,0,0.052618,0,0,0,0.0074025,-6.0065e-05,0.00073424,19.933,0.0026922,0.0070988,1.76e-08,0.92,0.58,0
0.046134,0.04703,0.006565,0.0007855,0.00073505,0.0023435,0,0,0.064129,0.00055494,0,0.051556,0,0,0,0.0073958,-4.5312e-05,0.00073505,19.52,0.0026952,0.0070832,1.7507e-08,0.94,0.58,0
0.047419,0.048016,0.0065857,0.00076822,0.0007354,0.0023055,0,0,0.064354,0.00036108,0,0.05072,0,0,0,0.0073886,-3.4618e-05,0.0007354,19.2,0.0026965,0.0070697,1.7424e-08,0.96,0.58,0
0.048708,0.049004,0.0066004,0.00075263,0.0007353,0.0022822,0,0,0.064516,0.00019062,0,0.050208,0,0,0,0.0073856,-3.2595e-05,0.0007353,18.987,0.0026961,0.0070656,1.7397e-08,0.98,0.58,0
0.05,0.05,0.0066053,0.00073393,0.00073393,0.0022625,0,0,0.064586,-1.6602e-17,0,0.049775,0,0,0,0.007376,-3.6753e-05,0.00073393,18.81,0.0026911,0.0070591,1.7342e-08,1,0.58,0
0,0,0.0049669,0.00055188,0.00055188,0.0015848,0,0,0.048566,4.3368e-19,0,0.034865,0,0,0,0.0054769,4.1927e-05,0.00055188,17.837,0.0020236,0.0051988,6.9829e-09,0,0.6,0
0.00097131,0.0006973,0.0049746,0.00050493,0.00054795,0.0015585,0,0,0.048693,-0.00047321,0,0.034287,0,0,0,0.0054643,1.5171e-05,0.00054795,17.445,0.0020091,0.0052033,6.9801e-09,0.02,0.6,0
0.0019477,0.0014341,0.0049945,0.0004604,0.00054549,0.0015775,0,0,0.048939,-0.00093598,0,0.034705,0,0,0,0.0054893,-3.4435e-05,0.00054549,17.416,0.0020001,0.0052579,7.16e-09,0.04,0.6,0
0.0029289,0.0022105,0.0050126,0.00041802,0.00054306,0.0015968,0,0,0.049164,-0.0013755,0,0.035129,0,0,0,0.005513,-8.242e-05,0.00054306,17.401,0.0019912,0.0053104,7.3328e-09,0.06,0.6,0
0.0039143,0.0030264,0.005028,0.00037859,0.00054066,0.0016159,0,0,0.049361,-0.0017828,0,0.03555,0,0,0,0.0055344,-0.00012785,0.00054066,17.401,0.0019824,0.0053594,7.4931e-09,0.08,0.6,0
0.0049033,0.0038815,0.0050401,0.00034261,0.00053827,0.0016344,0,0,0.049521,-0.0021523,0,0.035958,0,0,0,0.0055528,-0.00017011,0.00053827,17.416,0.0019737,0.0054037,7.6365e-09,0.1,0.6,0
0.0058951,0.0047754,0.0050485,0.00031027,0.00053588,0.0016521,0,0,0.049639,-0.0024816,0,0.036347,0,0,0,0.0055677,-0.0002089,0.00053588,17.445,0.0019649,0.0054425,7.7597e-09,0.12,0.6,0
0.0068889,0.0057076,0.0050525,0.00028154,0.00053341,0.0016688,0,0,0.04971,-0.0027705,0,0.036713,0,0,0,0.0055783,-0.00024421,0.00053341,17.487,0.0019558,0.0054753,7.86e-09,0.14,0.6,0
0.0078835,0.0066774,0.0050518,0.00025612,0.0005308,0.0016843,0,0,0.049731,-0.0030215,0,0.037055,0,0,0,0.0055843,-0.00027634,0.0005308,17.543,0.0019463,0.0055017,7.9356e-09,0.16,0.6,0
0.0088781,0.007684,0.005046,0.00023347,0.00052795,0.0016989,0,0,0.049698,-0.0032392,0,0.037377,0,0,0,0.0055853,-0.00030585,0.00052795,17.612,0.0019358,0.0055217,7.9859e-09,0.18,0.6,0
0.0098715,0.0087267,0.0050346,0.00021283,0.00052474,0.0017128,0,0,0.049608,-0.003431,0,0.037682,0,0,0,0.0055811,-0.00033367,0.00052474,17.696,0.0019241,0.0055357,8.0108e-09,0.2,0.6,0
0.010862,0.0098046,0.0050173,0.00019312,0.00052105,0.0017264,0,0,0.049459,-0.0036071,0,0.037981,0,0,0,0.0055715,-0.00036104,0.00052105,17.796,0.0019105,0.0055444,8.0117e-09,0.22,0.6,0
0.01185,0.010917,0.004994,0.00017293,0.00051669,0.0017402,0,0,0.04925,-0.0037814,0,0.038284,0,0,0,0.0055565,-0.00038956,0.00051669,17.913,0.0018945,0.0055487,7.9908e-09,0.24,0.6,0
0.012833,0.012063,0.0049695,0.00015107,0.00051206,0.0017354,0,0,0.049032,-0.003971,0,0.038179,0,0,0,0.0055295,-0.0004089,0.00051206,17.883,0.0018776,0.0055357,7.9056e-09,0.26,0.6,0
0.013809,0.013241,0.0049231,0.00012317,0.00050463,0.0017737,0,0,0.048604,-0.0041961,0,0.039021,0,0,0,0.0055074,-0.00046112,0.00050463,18.233,0.0018503,0.0055491,7.8872e-09,0.28,0.6,0
0.014779,0.01445,0.004888,8.8905e-05,0.00049769,0.0017871,0,0,0.048293,-0.0044966,0,0.039315,0,0,0,0.0054803,-0.00050343,0.00049769,18.338,0.0018249,0.0055513,7.8319e-09,0.3,0.6,0
0.015741,0.015689,0.0048421,4.4099e-05,0.00048862,0.0018045,0,0,0.047888,-0.0048897,0,0.039698,0,0,0,0.005445,-0.00055878,0.00048862,18.475,0.0017916,0.0055546,7.7577e-09,0.32,0.6,0
0.016695,0.016953,0.0047921,-1.3961e-05,0.00047781,0.001821,0,0,0.047457,-0.0054095,0,0.040062,0,0,0,0.0054041,-0.00062599,0.00047781,18.577,0.001752,0.005561,7.6726e-09,0.34,0.6,0
0.017639,0.01824,0.0047383,-8.7144e-05,0.00046512,0.0018341,0,0,0.047005,-0.0060749,0,0.04035,0,0,0,0.0053563,-0.00070512,0.00046512,18.621,0.0017054,0.0055693,7.5683e-09,0.36,0.6,0
0.018575,0.019543,0.0046803,-0.00017521,0.00045051,0.0018404,0,0,0.046528,-0.006883,0,0.040489,0,0,0,0.0052991,-0.00079396,0.00045051,18.582,0.0016519,0.0055759,7.4305e-09,0.38,0.6,0
0.0195,0.020854,0.0046168,-0.00027479,0.0004342,0.0018367,0,0,0.046009,-0.0077989,0,0.040407,0,0,0,0.0052297,-0.00088765,0.0004342,18.453,0.0015921,0.0055752,7.2417e-09,0.4,0.6,0
0.020415,0.022162,0.0045458,-0.00037938,0.00041664,0.001821,0,0,0.045421,-0.0087562,0,0.040062,0,0,0,0.0051459,-0.00097953,0.00041664,18.241,0.0015277,0.0055604,6.9885e-09,0.42,0.6,0
0.021317,0.023456,0.0044664,-0.00047963,0.00039868,0.0017932,0,0,0.044745,-0.0096615,0,0.03945,0,0,0,0.0050481,-0.0010613,0.00039868,17.973,0.0014618,0.0055261,6.6703e-09,0.44,0.6,0
0.022205,0.024721,0.0043785,-0.00056613,0.00038124,0.0017556,0,0,0.04397,-0.010421,0,0.038622,0,0,0,0.0049384,-0.001126,0.00038124,17.689,0.0013979,0.0054689,6.2989e-09,0.46,0.6,0
0.023076,0.025945,0.0042833,-0.0006238,0.00036595,0.0017106,0,0,0.043091,-0.010887,0,0.037634,0,0,0,0.0048208,-0.0011613,0.00036595,17.442,0.0013418,0.0053834,5.8923e-09,0.48,0.6,0
0.023928,0.027112,0.0041832,-0.00063264,0.00035505,0.0016688,0,0,0.042109,-0.010865,0,0.036713,0,0,0,0.0047049,-0.0011544,0.00035505,17.362,0.0013019,0.0052693,5.4873e-09,0.5,0.6,0
0.02476,0.028214,0.0040858,-0.00057681,0.0003509,0.001645,0,0,0.041084,-0.010205,0,0.03619,0,0,0,0.0046078,-0.0010987,0.0003509,17.604,0.0012866,0.0051375,5.14e-09,0.52,0.6,0
0.025572,0.029249,0.0040072,-0.00046368,0.00035435,0.0016586,0,0,0.040181,-0.0089983,0,0.036489,0,0,0,0.0045553,-0.0010118,0.00035435,18.287,0.0012993,0.0050253,4.9301e-09,0.54,0.6,0
0.026367,0.030223,0.0039673,-0.00032266,0.00036446,0.0017132,0,0,0.039631,-0.0075584,0,0.03769,0,0,0,0.0045675,-0.00092284,0.00036446,19.307,0.0013364,0.0049732,4.9191e-09,0.56,0.6,0
0.027157,0.031145,0.0039838,-0.00018039,0.00038034,0.0017983,0,0,0.039638,-0.0061681,0,0.039562,0,0,0,0.0046529,-0.00084945,0.00038034,20.408,0.0013946,0.0050021,5.1419e-09,0.58,0.6,0
0.027953,0.032021,0.0040626,-4.7447e-05,0.00040151,0.0018928,0,0,0.040272,-0.0049385,0,0.041641,0,0,0,0.0048014,-0.00078629,0.00040151,21.323,0.0014722,0.0050986,5.582e-09,0.6,0.6,0
0.028768,0.032856,0.0041952,8.5209e-05,0.00042804,0.0019784,0,0,0.041438,-0.0037711,0,0.043526,0,0,0,0.0049927,-0.00071239,0.00042804,21.956,0.0015695,0.005229,6.1822e-09,0.62,0.6,0
0.029611,0.033652,0.0043644,0.00024207,0.00046064,0.0020475,0,0,0.042941,-0.0024043,0,0.045045,0,0,0,0.0052085,-0.00060204,0.00046064,22.405,0.001689,0.0053588,6.8676e-09,0.64,0.6,0
0.030486,0.034419,0.0045519,0.00043746,0.00049894,0.0021125,0,0,0.044582,-0.00067619,0,0.046474,0,0,0,0.0054433,-0.00045398,0.00049894,22.88,0.0018294,0.0054833,7.6126e-09,0.66,0.6,0
0.031394,0.035172,0.0047504,0.0006539,0.00054043,0.0021877,0,0,0.04631,0.0012482,0,0.048129,0,0,0,0.005699,-0.00029474,0.00054043,23.443,0.0019816,0.0056229,8.4556e-09,0.68,0.6,0
0.032338,0.035935,0.0049587,0.00084052,0.00057992,0.0022805,0,0,0.048166,0.0028666,0,0.050171,0,0,0,0.0059721,-0.00017294,0.00057992,23.96,0.0021264,0.0058054,9.4814e-09,0.7,0.6,0
0.033321,0.036727,0.005174,0.00096288,0.00061368,0.0023699,0,0,0.050163,0.0038411,0,0.052137,0,0,0,0.0062385,-0.00010169,0.00061368,24.19,0.0022502,0.0060145,1.0643e-08,0.72,0.6,0
0.034345,0.037555,0.0053867,0.0010272,0.00064139,0.0024416,0,0,0.052199,0.004244,0,0.053715,0,0,0,0.00648,-6.6062e-05,0.00064139,24.121,0.0023518,0.0062226,1.1837e-08,0.74,0.6,0
0.035409,0.03842,0.0055835,0.0010539,0.00066374,0.0024872,0,0,0.054117,0.0042917,0,0.054719,0,0,0,0.0066825,-4.5175e-05,0.00066374,23.84,0.0024337,0.0064028,1.2926e-08,0.76,0.6,0
0.036509,0.039317,0.0057581,0.0010593,0.00068174,0.002513,0,0,0.05584,0.0041527,0,0.055287,0,0,0,0.0068489,-3.1531e-05,0.00068174,23.463,0.0024997,0.006553,1.3877e-08,0.78,0.6,0
0.037642,0.040241,0.0059096,0.0010473,0.00069569,0.0025224,0,0,0.057352,0.0038682,0,0.055493,0,0,0,0.0069817,-2.4795e-05,0.00069569,23.028,0.0025509,0.0066755,1.468e-08,0.8,0.6,0
0.038803,0.041188,0.0060408,0.001023,0.00070637,0.0025177,0,0,0.058678,0.0034826,0,0.055389,0,0,0,0.0070862,-2.2457e-05,0.00070637,22.55,0.00259,0.0067737,1.5341e-08,0.82,0.6,0
0.039989,0.04215,0.0061535,0.00099061,0.00071441,0.0025001,0,0,0.05983,0.0030382,0,0.055002,0,0,0,0.0071657,-2.161e-05,0.00071441,22.041,0.0026195,0.006849,1.586e-08,0.84,0.6,0
0.041196,0.043123,0.0062489,0.00095479,0.00072037,0.0024717,0,0,0.060814,0.0025786,0,0.054377,0,0,0,0.0072235,-1.9769e-05,0.00072037,21.519,0.0026414,0.006903,1.6241e-08,0.86,0.6,0
0.042422,0.044102,0.0063281,0.00091903,0.00072471,0.0024352,0,0,0.061637,0.0021375,0,0.053575,0,0,0,0.0072629,-1.5772e-05,0.00072471,21,0.0026573,0.0069381,1.6496e-08,0.88,0.6,0
0.043662,0.045084,0.0063922,0.00088547,0.00072776,0.0023942,0,0,0.062308,0.0017348,0,0.052673,0,0,0,0.0072875,-9.9144e-06,0.00072776,20.505,0.0026685,0.006958,1.6647e-08,0.9,0.6,0
0.044914,0.046066,0.0064429,0.00085475,0.00072976,0.0023526,0,0,0.062844,0.0013749,0,0.051758,0,0,0,0.0073014,-3.8134e-06,0.00072976,20.049,0.0026758,0.0069675,1.6724e-08,0.92,0.6,0
0.046176,0.047046,0.0064823,0.00082619,0.00073085,0.0023145,0,0,0.063266,0.0010487,0,0.050919,0,0,0,0.0073087,-1.7275e-07,0.00073085,19.648,0.0026798,0.0069722,1.6763e-08,0.94,0.6,0
0.047445,0.048028,0.006513,0.0007979,0.00073109,0.0022839,0,0,0.063601,0.00073489,0,0.050246,0,0,0,0.0073136,-2.6591e-06,0.00073109,19.317,0.0026807,0.0069784,1.6805e-08,0.96,0.6,0
0.04872,0.049011,0.0065379,0.0007669,0.00073047,0.002265,0,0,0.063881,0.00040066,0,0.049831,0,0,0,0.0073207,-1.5922e-05,0.00073047,19.066,0.0026784,0.0069933,1.6893e-08,0.98,0.6,0
0.05,0.05,0.0065466,0.0007274,0.0007274,0.0022486,0,0,0.064011,1.2436e-16,0,0.049469,0,0,0,0.0073142,-4.0219e-05,0.0007274,18.849,0.0026672,0.0070023,1.6921e-08,1,0.6,0
0,0,0.0048073,0.00053414,0.00053414,0.001563,0,0,0.047005,4.3368e-19,0,0.034387,0,0,0,0.005318,2.3456e-05,0.00053414,18.094,0.0019585,0.0050586,6.4203e-09,0,0.62,0
0.00094009,0.00068773,0.0048153,0.00048556,0.00053008,0.0015373,0,0,0.047137,-0.00048977,0,0.033821,0,0,0,0.0053056,-4.7602e-06,0.00053008,17.69,0.0019436,0.0050641,6.42e-09,0.02,0.62,0
0.0018855,0.0014152,0.004836,0.00044007,0.00052761,0.0015578,0,0,0.047393,-0.00096293,0,0.034271,0,0,0,0.0053321,-5.5976e-05,0.00052761,17.663,0.0019346,0.0051213,6.5974e-09,0.04,0.62,0
0.0028358,0.0021828,0.0048549,0.0003973,0.00052523,0.0015793,0,0,0.047627,-0.0014071,0,0.034745,0,0,0,0.0053578,-0.00010552,0.00052523,17.66,0.0019258,0.0051768,6.7702e-09,0.06,0.62,0
0.0037906,0.0029906,0.0048713,0.00035799,0.00052293,0.0016013,0,0,0.047832,-0.0018143,0,0.035229,0,0,0,0.0053817,-0.00015244,0.00052293,17.68,0.0019174,0.0052293,6.9331e-09,0.08,0.62,0
0.0047491,0.0038384,0.0048845,0.00032253,0.0005207,0.0016233,0,0,0.048002,-0.0021799,0,0.035713,0,0,0,0.0054032,-0.00019613,0.0005207,17.719,0.0019092,0.0052775,7.0821e-09,0.1,0.62,0
0.0057106,0.0047258,0.0048942,0.000291,0.00051852,0.0016449,0,0,0.048132,-0.0025027,0,0.036187,0,0,0,0.0054215,-0.00023636,0.00051852,17.776,0.0019012,0.0053208,7.2143e-09,0.12,0.62,0
0.0066744,0.0056523,0.0048999,0.00026321,0.00051631,0.0016658,0,0,0.048219,-0.0027841,0,0.036647,0,0,0,0.0054363,-0.0002732,0.00051631,17.849,0.0018931,0.0053586,7.3275e-09,0.14,0.62,0
0.0076394,0.0066172,0.0049014,0.00023871,0.00051402,0.001686,0,0,0.048262,-0.0030284,0,0.037091,0,0,0,0.0054472,-0.00030703,0.00051402,17.937,0.0018847,0.0053908,7.4207e-09,0.16,0.62,0
0.0086048,0.0076195,0.0048986,0.00021683,0.00051154,0.0017055,0,0,0.048257,-0.0032418,0,0.03752,0,0,0,0.005454,-0.00033856,0.00051154,18.038,0.0018756,0.0054177,7.4938e-09,0.18,0.62,0
0.0095697,0.0086584,0.0048911,0.00019664,0.00050878,0.0017245,0,0,0.048206,-0.0034334,0,0.037939,0,0,0,0.0054565,-0.00036876,0.00050878,18.152,0.0018655,0.0054399,7.5476e-09,0.2,0.62,0
0.010533,0.0097327,0.004879,0.00017696,0.0005056,0.0017434,0,0,0.048108,-0.003615,0,0.038355,0,0,0,0.0054549,-0.00039892,0.0005056,18.279,0.0018539,0.0054581,7.5837e-09,0.22,0.62,0
0.011494,0.010842,0.0048623,0.00015632,0.00050187,0.0017625,0,0,0.047965,-0.003801,0,0.038775,0,0,0,0.0054493,-0.00043058,0.00050187,18.417,0.0018402,0.0054735,7.6047e-09,0.24,0.62,0
0.012452,0.011983,0.0048446,0.00013211,0.00049767,0.0017758,0,0,0.047816,-0.0040212,0,0.039067,0,0,0,0.0054388,-0.00046211,0.00049767,18.502,0.0018248,0.0054844,7.6053e-09,0.26,0.62,0
0.013405,0.013157,0.0048123,0.00010274,0.00049151,0.0018204,0,0,0.047529,-0.0042764,0,0.040049,0,0,0,0.0054339,-0.00051886,0.00049151,18.853,0.0018022,0.0055174,7.6604e-09,0.28,0.62,0
0.014354,0.01436,0.0047882,6.9424e-05,0.00048577,0.0018235,0,0,0.047327,-0.0045798,0,0.040116,0,0,0,0.0054108,-0.00055309,0.00048577,18.849,0.0017811,0.0055182,7.6096e-09,0.3,0.62,0
0.015298,0.01559,0.0047576,2.4688e-05,0.00047823,0.0018442,0,0,0.047073,-0.0049889,0,0.040573,0,0,0,0.0053914,-0.00060908,0.00047823,18.965,0.0017535,0.0055374,7.5997e-09,0.32,0.62,0
0.016237,0.016844,0.0047253,-3.139e-05,0.00046939,0.0018635,0,0,0.046815,-0.0055085,0,0.040996,0,0,0,0.0053683,-0.00067448,0.00046939,19.04,0.0017211,0.0055598,7.5828e-09,0.34,0.62,0
0.017171,0.018118,0.0046917,-9.9759e-05,0.0004592,0.001879,0,0,0.046558,-0.0061485,0,0.041339,0,0,0,0.0053407,-0.00074875,0.0004592,19.054,0.0016837,0.0055844,7.5527e-09,0.36,0.62,0
0.0181,0.019405,0.0046572,-0.00017972,0.00044775,0.0018885,0,0,0.046304,-0.0069021,0,0.041546,0,0,0,0.0053071,-0.00082969,0.00044775,18.992,0.0016417,0.0056083,7.4994e-09,0.38,0.62,0
0.019023,0.020699,0.0046212,-0.00026845,0.00043527,0.0018893,0,0,0.046045,-0.0077409,0,0.041564,0,0,0,0.0052661,-0.00091336,0.00043527,18.848,0.001596,0.0056276,7.4118e-09,0.4,0.62,0
0.019941,0.021989,0.0045831,-0.00036082,0.00042223,0.0018796,0,0,0.045769,-0.0086135,0,0.041351,0,0,0,0.0052165,-0.00099426,0.00042223,18.624,0.0015482,0.0056376,7.2811e-09,0.42,0.62,0
0.020854,0.023265,0.0045424,-0.0004498,0.00040926,0.0018588,0,0,0.045465,-0.0094497,0,0.040894,0,0,0,0.0051585,-0.0010659,0.00040926,18.337,0.0015006,0.0056336,7.104e-09,0.44,0.62,0
0.02176,0.024516,0.0044989,-0.00052597,0.00039729,0.0018273,0,0,0.045117,-0.010156,0,0.0402,0,0,0,0.0050931,-0.0011202,0.00039729,18.014,0.0014567,0.0056106,6.8834e-09,0.46,0.62,0
0.022659,0.02573,0.0044523,-0.00057737,0.0003875,0.0017881,0,0,0.044713,-0.010614,0,0.039337,0,0,0,0.0050232,-0.0011482,0.0003875,17.706,0.0014208,0.0055648,6.6307e-09,0.48,0.62,0
0.023548,0.026896,0.0044042,-0.00059077,0.00038135,0.0017477,0,0,0.044252,-0.010693,0,0.038449,0,0,0,0.004955,-0.0011415,0.00038135,17.491,0.0013983,0.0054957,6.3694e-09,0.5,0.62,0
0.024429,0.028007,0.0043592,-0.00055792,0.00038013,0.0017169,0,0,0.04377,-0.010318,0,0.037771,0,0,0,0.0048994,-0.001098,0.00038013,17.463,0.0013938,0.0054119,6.1396e-09,0.52,0.62,0
0.025299,0.029061,0.0043263,-0.00048168,0.00038446,0.0017057,0,0,0.04336,-0.0095276,0,0.037526,0,0,0,0.0048699,-0.0010253,0.00038446,17.678,0.0014097,0.005332,5.9895e-09,0.54,0.62,0
0.026163,0.030059,0.0043171,-0.00037487,0.00039422,0.0017189,0,0,0.043151,-0.0084599,0,0.037816,0,0,0,0.0048794,-0.00093721,0.00039422,18.115,0.0014455,0.0052784,5.9638e-09,0.56,0.62,0
0.027025,0.031007,0.0043413,-0.00025187,0.00040894,0.0017522,0,0,0.043256,-0.0072689,0,0.038549,0,0,0,0.0049334,-0.00084399,0.00040894,18.671,0.0014995,0.005264,6.0847e-09,0.58,0.62,0
0.027893,0.031908,0.0044024,-0.00011953,0.00042829,0.0017962,0,0,0.043715,-0.006026,0,0.039516,0,0,0,0.005029,-0.00074615,0.00042829,19.232,0.0015704,0.0052867,6.3447e-09,0.6,0.62,0
0.028774,0.032769,0.004496,2.551e-05,0.00045215,0.0018419,0,0,0.044483,-0.0046931,0,0.040522,0,0,0,0.0051572,-0.00063561,0.00045215,19.745,0.0016579,0.0053327,6.7095e-09,0.62,0.62,0
0.029673,0.033596,0.0046128,0.000191,0.00048038,0.0018881,0,0,0.045456,-0.0031831,0,0.041538,0,0,0,0.0053093,-0.00050551,0.00048038,20.249,0.0017614,0.0053899,7.1435e-09,0.64,0.62,0
0.030592,0.034397,0.0047442,0.0003781,0.00051223,0.0019406,0,0,0.046552,-0.0014754,0,0.042693,0,0,0,0.005482,-0.00035976,0.00051223,20.818,0.0018782,0.0054583,7.6385e-09,0.66,0.62,0
0.031535,0.035187,0.0048864,0.00057118,0.00054576,0.0020076,0,0,0.047747,0.00027961,0,0.044167,0,0,0,0.005676,-0.00021835,0.00054576,21.468,0.0020011,0.0055518,8.2304e-09,0.68,0.62,0
0.032502,0.035982,0.0050395,0.00074391,0.00057834,0.0020885,0,0,0.049073,0.0018212,0,0.045947,0,0,0,0.0058875,-0.0001041,0.00057834,22.099,0.0021206,0.0056812,8.9613e-09,0.7,0.62,0
0.033498,0.036795,0.0052024,0.0008755,0.00060779,0.0021745,0,0,0.050541,0.0029447,0,0.04784,0,0,0,0.0061064,-2.8489e-05,0.00060779,22.573,0.0022286,0.0058428,9.836e-09,0.72,0.62,0
0.034524,0.037635,0.0053701,0.00096168,0.00063318,0.0022525,0,0,0.052106,0.0036135,0,0.049555,0,0,0,0.0063175,1.432e-05,0.00063318,22.811,0.0023217,0.0060176,1.0794e-08,0.74,0.62,0
0.035582,0.038503,0.0055349,0.0010109,0.00065459,0.0023148,0,0,0.053684,0.0039198,0,0.050927,0,0,0,0.0065095,3.6391e-05,0.00065459,22.831,0.0024002,0.0061872,1.1756e-08,0.76,0.62,0
0.036671,0.039399,0.0056899,0.0010334,0.00067233,0.0023591,0,0,0.055193,0.0039716,0,0.0519,0,0,0,0.0066761,4.7123e-05,0.00067233,22.688,0.0024652,0.0063396,1.2658e-08,0.78,0.62,0
0.03779,0.04032,0.0058312,0.0010369,0.00068681,0.0023865,0,0,0.056588,0.0038507,0,0.052503,0,0,0,0.0068166,5.1476e-05,0.00068681,22.436,0.0025183,0.0064709,1.3465e-08,0.8,0.62,0
0.038935,0.041259,0.0059574,0.0010265,0.00069839,0.0023987,0,0,0.057849,0.0036091,0,0.05277,0,0,0,0.0069317,5.2177e-05,0.00069839,22.107,0.0025608,0.0065803,1.4159e-08,0.82,0.62,0
0.040104,0.042214,0.0060685,0.0010066,0.00070751,0.0023973,0,0,0.058971,0.0032904,0,0.052742,0,0,0,0.0070237,5.1471e-05,0.00070751,21.724,0.0025942,0.0066684,1.4734e-08,0.84,0.62,0
0.041293,0.043179,0.0061646,0.00098097,0.00071456,0.0023846,0,0,0.059951,0.0029305,0,0.052461,0,0,0,0.0070947,5.0901e-05,0.00071456,21.308,0.0026201,0.0067366,1.5189e-08,0.86,0.62,0
0.042502,0.04415,0.0062465,0.00095225,0.00071987,0.0023629,0,0,0.060792,0.0025562,0,0.051984,0,0,0,0.0071477,5.104e-05,0.00071987,20.877,0.0026395,0.006787,1.5532e-08,0.88,0.62,0
0.043725,0.045124,0.0063148,0.00092213,0.0007237,0.0023355,0,0,0.061502,0.0021828,0,0.05138,0,0,0,0.0071856,5.1317e-05,0.0007237,20.449,0.0026536,0.006823,1.5781e-08,0.9,0.62,0
0.044962,0.046098,0.0063711,0.00089103,0.00072621,0.0023056,0,0,0.062094,0.001813,0,0.050724,0,0,0,0.0072121,5.0046e-05,0.00072621,20.04,0.0026628,0.006849,1.596e-08,0.92,0.62,0
0.046209,0.047072,0.0064171,0.00085817,0.00072753,0.0022771,0,0,0.062585,0.0014371,0,0.050096,0,0,0,0.0072308,4.4524e-05,0.00072753,19.663,0.0026676,0.0068702,1.6101e-08,0.94,0.62,0
0.047465,0.048045,0.0064551,0.00082165,0.00072767,0.0022535,0,0,0.063002,0.0010337,0,0.049577,0,0,0,0.0072456,3.1126e-05,0.00072767,19.331,0.0026681,0.0068927,1.6241e-08,0.96,0.62,0
0.048729,0.049021,0.0064878,0.00077843,0.00072662,0.0022387,0,0,0.063373,0.00056991,0,0.049251,0,0,0,0.0072609,5.3169e-06,0.00072662,19.052,0.0026643,0.0069232,1.642e-08,0.98,0.62,0
0.05,0.05,0.0064995,0.00072217,0.00072217,0.0022261,0,0,0.063551,3.4803e-17,0,0.048974,0,0,0,0.0072578,-3.6053e-05,0.00072217,18.809,0.002648,0.0069458,1.6521e-08,1,0.62,0
0,0,0.004648,0.00051645,0.00051645,0.0015403,0,0,0.045447,-3.2526e-19,0,0.033886,0,0,0,0.005159,5.4356e-06,0.00051645,18.354,0.0018936,0.004918,5.8875e-09,0,0.64,0
0.00090894,0.00067771,0.0046565,0.0004651,0.00051216,0.001515,0,0,0.045588,-0.00051766,0,0.03333,0,0,0,0.0051467,-2.5152e-05,0.00051216,17.932,0.0018779,0.0049253,5.8908e-09,0.02,0.64,0
0.0018235,0.0013956,0.0046787,0.00041781,0.00050965,0.0015369,0,0,0.04586,-0.0010103,0,0.033812,0,0,0,0.0051752,-7.8707e-05,0.00050965,17.903,0.0018687,0.0049859,6.0678e-09,0.04,0.64,0
0.0027433,0.0021542,0.0046991,0.00037399,0.00050731,0.0015607,0,0,0.04611,-0.0014666,0,0.034335,0,0,0,0.0052034,-0.00013036,0.00050731,17.909,0.0018601,0.0050453,6.2422e-09,0.06,0.64,0
0.0036679,0.0029538,0.004717,0.00033427,0.00050513,0.0015855,0,0,0.046331,-0.0018795,0,0.03488,0,0,0,0.0052304,-0.00017913,0.00050513,17.943,0.0018522,0.005102,6.4091e-09,0.08,0.64,0
0.0045966,0.0037943,0.0047321,0.00029891,0.0005031,0.0016106,0,0,0.046519,-0.0022461,0,0.035434,0,0,0,0.0052555,-0.00022447,0.0005031,18.002,0.0018447,0.0051548,6.565e-09,0.1,0.64,0
0.0055287,0.0046753,0.004744,0.00026784,0.00050118,0.0016357,0,0,0.04667,-0.0025668,0,0.035986,0,0,0,0.005278,-0.0002662,0.00050118,18.081,0.0018376,0.0052031,6.7071e-09,0.12,0.64,0
0.0064634,0.0055962,0.0047524,0.0002407,0.00049931,0.0016604,0,0,0.046784,-0.0028446,0,0.036529,0,0,0,0.0052976,-0.00030448,0.00049931,18.177,0.0018308,0.0052465,6.8341e-09,0.14,0.64,0
0.0074,0.0065563,0.0047573,0.00021691,0.00049742,0.0016845,0,0,0.046859,-0.0030856,0,0.037059,0,0,0,0.005314,-0.00033979,0.00049742,18.288,0.0018239,0.0052851,6.9452e-09,0.16,0.64,0
0.0083377,0.0075543,0.0047585,0.00019695,0.00049554,0.0016925,0,0,0.046892,-0.0032845,0,0.037234,0,0,0,0.0053178,-0.00036242,0.00049554,18.289,0.001817,0.0053036,6.9907e-09,0.18,0.64,0
0.0092758,0.0085894,0.0047569,0.00018002,0.0004937,0.0017249,0,0,0.046896,-0.0034505,0,0.037948,0,0,0,0.0053342,-0.00039725,0.0004937,18.503,0.0018102,0.005342,7.1009e-09,0.2,0.64,0
0.010214,0.00966,0.0047514,0.00016072,0.00049122,0.0017461,0,0,0.046862,-0.0036354,0,0.038414,0,0,0,0.0053401,-0.00042792,0.00049122,18.63,0.0018011,0.0053678,7.1646e-09,0.22,0.64,0
0.01115,0.010765,0.0047412,0.00013679,0.0004878,0.0017859,0,0,0.046787,-0.0038611,0,0.039289,0,0,0,0.0053527,-0.00047468,0.0004878,18.901,0.0017886,0.0054107,7.2753e-09,0.24,0.64,0
0.012086,0.011902,0.004731,0.00011134,0.00048424,0.0017998,0,0,0.046714,-0.0041019,0,0.039595,0,0,0,0.0053494,-0.00050706,0.00048424,18.962,0.0017755,0.0054291,7.3038e-09,0.26,0.64,0
0.013019,0.013071,0.0047177,8.2646e-05,0.00048003,0.0018229,0,0,0.046614,-0.0043712,0,0.040104,0,0,0,0.0053487,-0.00054837,0.00048003,19.094,0.0017601,0.005456,7.3526e-09,0.28,0.64,0
0.01395,0.014267,0.004703,4.7268e-05,0.00047502,0.0018458,0,0,0.046507,-0.0047053,0,0.040608,0,0,0,0.005346,-0.00059573,0.00047502,19.206,0.0017418,0.0054853,7.3995e-09,0.3,0.64,0
0.014879,0.015489,0.0046877,3.4764e-06,0.00046912,0.0018678,0,0,0.046405,-0.0051221,0,0.041091,0,0,0,0.0053413,-0.00065008,0.00046912,19.286,0.0017201,0.0055176,7.4447e-09,0.32,0.64,0
0.015806,0.016733,0.0046744,-4.7568e-05,0.00046268,0.0018742,0,0,0.046329,-0.0056128,0,0.041232,0,0,0,0.0053278,-0.00070101,0.00046268,19.221,0.0016965,0.0055394,7.448e-09,0.34,0.64,0
0.016732,0.017994,0.0046593,-0.00010815,0.00045511,0.0018812,0,0,0.046246,-0.0061959,0,0.041386,0,0,0,0.0053121,-0.00076104,0.00045511,19.14,0.0016687,0.0055657,7.4494e-09,0.36,0.64,0
0.017656,0.019267,0.0046452,-0.00018521,0.000446,0.0019067,0,0,0.046191,-0.0069433,0,0.041947,0,0,0,0.0053071,-0.00084712,0.000446,19.145,0.0016353,0.0056203,7.5165e-09,0.38,0.64,0
0.01858,0.020544,0.0046339,-0.00026526,0.00043686,0.0019142,0,0,0.046167,-0.0077234,0,0.042113,0,0,0,0.0052931,-0.00092448,0.00043686,19.003,0.0016018,0.0056611,7.5325e-09,0.4,0.64,0
0.019503,0.021817,0.0046229,-0.00034669,0.00042762,0.001906,0,0,0.046148,-0.0085174,0,0.041931,0,0,0,0.0052697,-0.00099349,0.00042762,18.745,0.0015679,0.0056874,7.4968e-09,0.42,0.64,0
0.020426,0.023078,0.0046122,-0.00042426,0.00041879,0.001887,0,0,0.046127,-0.0092735,0,0.041514,0,0,0,0.0052407,-0.0010528,0.00041879,18.423,0.0015356,0.005702,7.4261e-09,0.44,0.64,0
0.021348,0.024315,0.0046011,-0.00049002,0.0004111,0.0018578,0,0,0.046089,-0.0099124,0,0.040871,0,0,0,0.0052069,-0.0010959,0.0004111,18.061,0.0015074,0.0057007,7.3204e-09,0.46,0.64,0
0.022269,0.02552,0.0045892,-0.00053467,0.00040545,0.0018206,0,0,0.046021,-0.010341,0,0.040053,0,0,0,0.0051702,-0.0011157,0.00040545,17.7,0.0014866,0.0056802,7.1861e-09,0.48,0.64,0
0.023189,0.026684,0.0045771,-0.00054926,0.00040278,0.0017804,0,0,0.045917,-0.010472,0,0.039169,0,0,0,0.0051348,-0.0011069,0.00040278,17.392,0.0014769,0.0056405,7.0387e-09,0.5,0.64,0
0.024106,0.027801,0.0045675,-0.00052831,0.00040392,0.0017441,0,0,0.045799,-0.010254,0,0.038369,0,0,0,0.0051072,-0.001068,0.00040392,17.196,0.001481,0.0055867,6.9032e-09,0.52,0.64,0
0.025021,0.028868,0.0045653,-0.00047216,0.00040931,0.0017183,0,0,0.045715,-0.0096962,0,0.037803,0,0,0,0.0050956,-0.0010025,0.00040931,17.151,0.0015008,0.005529,6.8102e-09,0.54,0.64,0
0.025934,0.029884,0.0045768,-0.00038647,0.00041903,0.0017069,0,0,0.045735,-0.0088605,0,0.037553,0,0,0,0.0051072,-0.00091684,0.00041903,17.261,0.0015364,0.0054796,6.787e-09,0.56,0.64,0
0.02685,0.030854,0.0046073,-0.00027832,0.0004329,0.0017097,0,0,0.045919,-0.0078235,0,0.037613,0,0,0,0.0051462,-0.00081717,0.0004329,17.494,0.0015873,0.005447,6.8493e-09,0.58,0.64,0
0.027771,0.03178,0.0046589,-0.00015223,0.00045067,0.0017233,0,0,0.046291,-0.0066319,0,0.037912,0,0,0,0.0052125,-0.0007058,0.00045067,17.808,0.0016524,0.0054332,6.9956e-09,0.6,0.64,0
0.028702,0.032668,0.0047297,-8.9213e-06,0.00047208,0.0017451,0,0,0.046834,-0.005291,0,0.038392,0,0,0,0.005303,-0.00058222,0.00047208,18.186,0.0017309,0.0054353,7.2121e-09,0.62,0.64,0
0.029645,0.033525,0.0048155,0.00015174,0.00049673,0.0017753,0,0,0.047507,-0.0037949,0,0.039057,0,0,0,0.0054144,-0.00044716,0.00049673,18.642,0.0018213,0.0054513,7.486e-09,0.64,0.64,0
0.030602,0.03436,0.0049128,0.00032533,0.00052382,0.0018174,0,0,0.048279,-0.0021833,0,0.039984,0,0,0,0.0055456,-0.00030741,0.00052382,19.196,0.0019207,0.0054848,7.8223e-09,0.66,0.64,0
0.031576,0.035183,0.0050202,0.00050013,0.00055203,0.0018743,0,0,0.049149,-0.00057085,0,0.041234,0,0,0,0.0056962,-0.00017593,0.00055203,19.835,0.0020241,0.0055441,8.2459e-09,0.68,0.64,0
0.032568,0.036008,0.0051377,0.00065989,0.00057976,0.0019447,0,0,0.050138,0.00088137,0,0.042784,0,0,0,0.0058644,-6.6783e-05,0.00057976,20.489,0.0021258,0.0056358,8.787e-09,0.7,0.64,0
0.033581,0.036844,0.0052651,0.00079108,0.00060562,0.0020223,0,0,0.051254,0.0020401,0,0.044491,0,0,0,0.0060437,1.2462e-05,0.00060562,21.057,0.0022206,0.0057576,9.453e-09,0.72,0.64,0
0.034618,0.037699,0.0053996,0.00088821,0.00062878,0.0020984,0,0,0.052479,0.0028537,0,0.046165,0,0,0,0.0062248,6.3073e-05,0.00062878,21.466,0.0023055,0.0058992,1.0218e-08,0.74,0.64,0
0.03568,0.038577,0.0055365,0.00095335,0.00064899,0.0021655,0,0,0.053763,0.003348,0,0.047642,0,0,0,0.0063978,9.2008e-05,0.00064899,21.69,0.0023796,0.0060466,1.103e-08,0.76,0.64,0
0.036769,0.039476,0.0056704,0.00099234,0.00066628,0.0022195,0,0,0.055046,0.0035867,0,0.04883,0,0,0,0.0065559,0.00010686,0.00066628,21.749,0.002443,0.0061883,1.1837e-08,0.78,0.64,0
0.037882,0.040396,0.0057972,0.0010112,0.00068084,0.0022591,0,0,0.05628,0.0036341,0,0.0497,0,0,0,0.006695,0.00011333,0.00068084,21.676,0.0024964,0.0063171,1.2596e-08,0.8,0.64,0
0.03902,0.041332,0.0059139,0.001015,0.00069289,0.0022844,0,0,0.057431,0.0035437,0,0.050256,0,0,0,0.0068138,0.00011514,0.00069289,21.502,0.0025406,0.0064293,1.3278e-08,0.82,0.64,0
0.040179,0.042281,0.0060192,0.0010078,0.0007027,0.0022965,0,0,0.058481,0.0033565,0,0.050524,0,0,0,0.0069124,0.00011461,0.0007027,21.253,0.0025766,0.0065236,1.3869e-08,0.84,0.64,0
0.041359,0.04324,0.0061123,0.00099273,0.00071051,0.0022972,0,0,0.05942,0.0031044,0,0.050539,0,0,0,0.006992,0.00011309,0.00071051,20.953,0.0026052,0.0066005,1.4362e-08,0.86,0.64,0
0.042556,0.044204,0.0061934,0.00097192,0.00071654,0.0022885,0,0,0.060246,0.0028092,0,0.050347,0,0,0,0.0070545,0.00011088,0.00071654,20.618,0.0026273,0.0066614,1.476e-08,0.88,0.64,0
0.043769,0.045171,0.0062629,0.00094662,0.00072096,0.002273,0,0,0.060962,0.0024824,0,0.050007,0,0,0,0.0071023,0.00010728,0.00072096,20.267,0.0026435,0.0067092,1.5074e-08,0.9,0.64,0
0.044995,0.046138,0.0063219,0.00091699,0.00072389,0.0022538,0,0,0.061578,0.0021241,0,0.049583,0,0,0,0.0071383,0.00010053,0.00072389,19.914,0.0026542,0.0067478,1.5327e-08,0.92,0.64,0
0.046232,0.047104,0.0063718,0.00088209,0.00072539,0.0022338,0,0,0.062111,0.0017237,0,0.049144,0,0,0,0.0071659,8.7979e-05,0.00072539,19.57,0.0026598,0.0067817,1.5543e-08,0.94,0.64,0
0.047479,0.048069,0.0064147,0.00083997,0.00072547,0.0022165,0,0,0.062582,0.0012595,0,0.048764,0,0,0,0.0071886,6.6088e-05,0.00072547,19.246,0.0026601,0.0068168,1.5757e-08,0.96,0.64,0
0.048735,0.049033,0.0064532,0.00078767,0.00072408,0.0022052,0,0,0.06302,0.00069942,0,0.048514,0,0,0,0.0072103,3.0531e-05,0.00072408,18.95,0.002655,0.0068593,1.6006e-08,0.98,0.64,0
0.05,0.05,0.0064671,0.00071857,0.00071857,0.0021968,0,0,0.063234,-2.1142e-17,0,0.048329,0,0,0,0.0072105,-2.4798e-05,0.00071857,18.695,0.0026348,0.0068937,1.6169e-08,1,0.64,0
0,0,0.0044883,0.0004987,0.0004987,0.001516,0,0,0.043885,-2.7105e-19,0,0.033351,0,0,0,0.004999,-1.1976e-05,0.0004987,18.617,0.0018286,0.0047761,5.3805e-09,0,0.66,0
0.00087771,0.00066703,0.0044975,0.00044352,0.0004941,0.001491,0,0,0.044037,-0.00055635,0,0.032801,0,0,0,0.0049868,-4.5761e-05,0.0004941,18.168,0.0018117,0.0047855,5.3879e-09,0.02,0.66,0
0.0017615,0.0013748,0.0045217,0.00039363,0.00049153,0.0015144,0,0,0.044332,-0.0010769,0,0.033316,0,0,0,0.0050177,-0.00010231,0.00049153,18.134,0.0018023,0.0048504,5.5656e-09,0.04,0.66,0
0.002651,0.0021241,0.0045441,0.00034817,0.00048923,0.0015402,0,0,0.044604,-0.0015516,0,0.033885,0,0,0,0.0050488,-0.0001565,0.00048923,18.142,0.0017939,0.0049144,5.7425e-09,0.06,0.66,0
0.0035457,0.0029154,0.0045643,0.00030762,0.00048719,0.0015676,0,0,0.044848,-0.0019753,0,0.034487,0,0,0,0.0050793,-0.00020736,0.00048719,18.186,0.0017864,0.0049759,5.9139e-09,0.08,0.66,0
0.0044449,0.0037485,0.0045819,0.00027206,0.00048539,0.0015957,0,0,0.045061,-0.0023466,0,0.035104,0,0,0,0.0051083,-0.0002544,0.00048539,18.259,0.0017798,0.0050338,6.0767e-09,0.1,0.66,0
0.0053481,0.0046231,0.0045967,0.00024126,0.00048379,0.0016238,0,0,0.045241,-0.0026678,0,0.035724,0,0,0,0.0051354,-0.00029749,0.00048379,18.355,0.0017739,0.0050875,6.2285e-09,0.12,0.66,0
0.0062546,0.0055385,0.0046086,0.00021468,0.00048233,0.0016516,0,0,0.045389,-0.0029442,0,0.036336,0,0,0,0.0051602,-0.0003369,0.00048233,18.467,0.0017685,0.0051367,6.3684e-09,0.14,0.66,0
0.0071637,0.0064938,0.0046178,0.00019154,0.00048093,0.0016789,0,0,0.045506,-0.0031834,0,0.036935,0,0,0,0.0051825,-0.00037319,0.00048093,18.592,0.0017634,0.0051817,6.4961e-09,0.16,0.66,0
0.0080748,0.0074876,0.0046229,0.00016877,0.00047916,0.001692,0,0,0.045581,-0.0034143,0,0.037224,0,0,0,0.0051927,-0.00040106,0.00047916,18.613,0.0017569,0.0052097,6.5688e-09,0.18,0.66,0
0.0089874,0.0085187,0.0046278,0.00014555,0.00047733,0.0017343,0,0,0.045655,-0.0036496,0,0.038155,0,0,0,0.0052205,-0.00044714,0.00047733,18.867,0.0017502,0.0052666,6.7299e-09,0.2,0.66,0
0.009901,0.0095855,0.0046297,0.00012597,0.00047557,0.0017609,0,0,0.045696,-0.0038456,0,0.038739,0,0,0,0.0052365,-0.00048076,0.00047557,19.012,0.0017438,0.0053041,6.8318e-09,0.22,0.66,0
0.010815,0.010686,0.0046308,0.00010918,0.000474,0.0017958,0,0,0.045725,-0.004013,0,0.039508,0,0,0,0.0052572,-0.00051725,0.000474,19.23,0.001738,0.0053482,6.9557e-09,0.24,0.66,0
0.01173,0.011819,0.0046298,8.7476e-05,0.00047173,0.0018066,0,0,0.045739,-0.0042267,0,0.039745,0,0,0,0.0052607,-0.00054342,0.00047173,19.25,0.0017297,0.005369,7.0006e-09,0.26,0.66,0
0.012645,0.012982,0.0046284,5.9015e-05,0.00046874,0.0018307,0,0,0.045756,-0.004507,0,0.040276,0,0,0,0.0052714,-0.00058399,0.00046874,19.353,0.0017187,0.0054064,7.0901e-09,0.28,0.66,0
0.01356,0.014172,0.0046272,2.4412e-05,0.00046516,0.0018539,0,0,0.045782,-0.0048482,0,0.040786,0,0,0,0.005281,-0.00062942,0.00046516,19.427,0.0017056,0.0054463,7.1804e-09,0.3,0.66,0
0.014476,0.015385,0.004627,-1.7607e-05,0.00046094,0.0018753,0,0,0.045827,-0.005264,0,0.041257,0,0,0,0.0052896,-0.00068024,0.00046094,19.461,0.0016901,0.005489,7.2716e-09,0.32,0.66,0
0.015393,0.016619,0.0046268,-7.0072e-05,0.00045568,0.0018917,0,0,0.045883,-0.0057832,0,0.041617,0,0,0,0.0052939,-0.00073719,0.00045568,19.426,0.0016708,0.005532,7.3506e-09,0.34,0.66,0
0.016312,0.017868,0.0046318,-0.00013078,0.0004501,0.0019196,0,0,0.045998,-0.0063897,0,0.042231,0,0,0,0.0053091,-0.00080815,0.0004501,19.436,0.0016504,0.0055953,7.4858e-09,0.36,0.66,0
0.017233,0.019127,0.0046411,-0.00019206,0.0004449,0.0019209,0,0,0.046158,-0.0070066,0,0.042259,0,0,0,0.0053115,-0.00086249,0.0004449,19.24,0.0016313,0.0056352,7.5496e-09,0.38,0.66,0
0.018157,0.02039,0.0046474,-0.00026188,0.00043856,0.0019156,0,0,0.046298,-0.0077048,0,0.042144,0,0,0,0.0053064,-0.00092089,0.00043856,18.984,0.001608,0.0056712,7.5841e-09,0.4,0.66,0
0.019085,0.021648,0.0046585,-0.00033299,0.00043255,0.0019063,0,0,0.046485,-0.0084209,0,0.041939,0,0,0,0.0053033,-0.00097776,0.00043255,18.687,0.001586,0.0057081,7.622e-09,0.42,0.66,0
0.020017,0.022894,0.0046711,-0.00039976,0.00042713,0.0018871,0,0,0.046684,-0.0090958,0,0.041516,0,0,0,0.0052963,-0.0010249,0.00042713,18.33,0.0015662,0.0057348,7.6331e-09,0.44,0.66,0
0.020952,0.024119,0.0046845,-0.00045568,0.00042288,0.0018582,0,0,0.046878,-0.0096641,0,0.040881,0,0,0,0.0052859,-0.0010571,0.00042288,17.934,0.0015506,0.0057477,7.6159e-09,0.46,0.66,0
0.021892,0.025316,0.004698,-0.00049361,0.00042044,0.0018217,0,0,0.047053,-0.010054,0,0.040077,0,0,0,0.0052734,-0.001069,0.00042044,17.53,0.0015416,0.0057444,7.5735e-09,0.48,0.66,0
0.022835,0.026477,0.0047117,-0.00050705,0.00042046,0.0017811,0,0,0.047203,-0.010203,0,0.039184,0,0,0,0.0052616,-0.001057,0.00042046,17.158,0.0015417,0.0057246,7.515e-09,0.5,0.66,0
0.02378,0.027597,0.0047268,-0.00049177,0.0004235,0.0017412,0,0,0.047336,-0.010068,0,0.038308,0,0,0,0.0052544,-0.0010194,0.0004235,16.858,0.0015528,0.0056913,7.4556e-09,0.52,0.66,0
0.024728,0.028673,0.0047459,-0.0004469,0.0004299,0.0017071,0,0,0.047476,-0.0096448,0,0.037555,0,0,0,0.0052568,-0.0009578,0.0004299,16.662,0.0015763,0.00565,7.4135e-09,0.54,0.66,0
0.025679,0.029705,0.0047723,-0.00037463,0.00043977,0.001682,0,0,0.047658,-0.0089584,0,0.037003,0,0,0,0.0052732,-0.00087553,0.00043977,16.584,0.0016125,0.005608,7.4058e-09,0.56,0.66,0
0.026634,0.030694,0.0048088,-0.00027857,0.00045303,0.0016675,0,0,0.047914,-0.0080476,0,0.036685,0,0,0,0.0053067,-0.00077642,0.00045303,16.623,0.0016611,0.0055711,7.4433e-09,0.58,0.66,0
0.027595,0.031643,0.0048569,-0.00016198,0.00046949,0.0016638,0,0,0.048261,-0.0069462,0,0.036604,0,0,0,0.0053583,-0.00066347,0.00046949,16.773,0.0017215,0.0055429,7.5293e-09,0.6,0.66,0
0.028565,0.032558,0.0049159,-2.7367e-05,0.00048886,0.001671,0,0,0.048698,-0.0056784,0,0.036762,0,0,0,0.0054278,-0.00053923,0.00048886,17.031,0.0017925,0.0055252,7.6617e-09,0.62,0.66,0
0.029543,0.033444,0.0049847,0.00012218,0.00051069,0.0016902,0,0,0.049214,-0.0042736,0,0.037184,0,0,0,0.0055145,-0.0004076,0.00051069,17.403,0.0018725,0.0055205,7.8411e-09,0.64,0.66,0
0.030533,0.034309,0.0050621,0.0002809,0.0005343,0.0017231,0,0,0.049806,-0.0027874,0,0.037909,0,0,0,0.0056184,-0.0002754,0.0005343,17.892,0.0019591,0.0055336,8.0778e-09,0.66,0.66,0
0.031536,0.035164,0.005148,0.00043952,0.00055875,0.0017709,0,0,0.050481,-0.0013115,0,0.038959,0,0,0,0.0057396,-0.00015215,0.00055875,18.475,0.0020487,0.0055705,8.3921e-09,0.68,0.66,0
0.032552,0.036017,0.0052427,0.00058702,0.00058297,0.0018316,0,0,0.051257,4.4562e-05,0,0.040294,0,0,0,0.0058768,-4.7143e-05,0.00058297,19.098,0.0021376,0.0056354,8.8055e-09,0.7,0.66,0
0.033586,0.036876,0.0053462,0.00071397,0.00060602,0.0019006,0,0,0.052142,0.0011875,0,0.041814,0,0,0,0.0060262,3.3968e-05,0.00060602,19.686,0.0022221,0.0057276,9.3268e-09,0.72,0.66,0
0.034638,0.037749,0.0054569,0.00081524,0.00062722,0.0019716,0,0,0.053127,0.0020683,0,0.043375,0,0,0,0.0061813,9.0846e-05,0.00062722,20.174,0.0022998,0.0058408,9.9434e-09,0.74,0.66,0
0.035711,0.038637,0.0055719,0.00089041,0.00064623,0.0020384,0,0,0.054182,0.0026859,0,0.044844,0,0,0,0.006335,0.00012727,0.00064623,20.525,0.0023695,0.0059652,1.0624e-08,0.76,0.66,0
0.036805,0.039543,0.0056872,0.00094221,0.00066294,0.0020964,0,0,0.055267,0.003072,0,0.046122,0,0,0,0.0064807,0.00014867,0.00066294,20.733,0.0024308,0.0060912,1.1329e-08,0.78,0.66,0
0.037922,0.040465,0.0057992,0.00097466,0.00067738,0.0021433,0,0,0.05634,0.00327,0,0.047152,0,0,0,0.0066138,0.00016005,0.00067738,20.811,0.0024837,0.0062113,1.202e-08,0.8,0.66,0
0.039059,0.041401,0.0059049,0.0009917,0.00068966,0.002178,0,0,0.057368,0.0033224,0,0.047916,0,0,0,0.0067314,0.00016523,0.00068966,20.78,0.0025288,0.0063203,1.2666e-08,0.82,0.66,0
0.040216,0.042348,0.0060023,0.00099668,0.0006999,0.0022008,0,0,0.058327,0.0032645,0,0.048417,0,0,0,0.0068323,0.00016672,0.0006999,20.663,0.0025663,0.0064156,1.3247e-08,0.84,0.66,0
0.041392,0.043303,0.0060903,0.00099213,0.00070825,0.0022125,0,0,0.059203,0.0031228,0,0.048675,0,0,0,0.0069166,0.00016588,0.00070825,20.478,0.0025969,0.0064965,1.3752e-08,0.86,0.66,0
0.042584,0.044262,0.0061684,0.00097978,0.00071482,0.0022148,0,0,0.059989,0.0029146,0,0.048725,0,0,0,0.0069852,0.00016299,0.00071482,20.244,0.002621,0.0065637,1.4178e-08,0.88,0.66,0
0.043792,0.045223,0.0062368,0.00096039,0.00071972,0.0022096,0,0,0.060688,0.0026474,0,0.048612,0,0,0,0.0070399,0.00015729,0.00071972,19.974,0.002639,0.0066193,1.4534e-08,0.9,0.66,0
0.045012,0.046183,0.0062962,0.00093378,0.000723,0.0021995,0,0,0.061305,0.0023186,0,0.048389,0,0,0,0.0070829,0.00014705,0.000723,19.681,0.002651,0.0066666,1.4835e-08,0.92,0.66,0
0.046244,0.047141,0.006348,0.00089886,0.00072469,0.002187,0,0,0.061857,0.0019159,0,0.048115,0,0,0,0.0071172,0.00012966,0.00072469,19.377,0.0026572,0.0067098,1.5105e-08,0.94,0.66,0
0.047486,0.048096,0.0063939,0.00085361,0.00072475,0.0021751,0,0,0.062361,0.0014174,0,0.047852,0,0,0,0.0071458,0.00010172,0.00072475,19.069,0.0026574,0.0067542,1.5372e-08,0.96,0.66,0
0.048738,0.049049,0.0064362,0.00079515,0.00072314,0.0021665,0,0,0.062844,0.00079217,0,0.047663,0,0,0,0.0071722,5.9135e-05,0.00072314,18.764,0.0026515,0.0068054,1.5669e-08,0.98,0.66,0
0.05,0.05,0.0064517,0.00071686,0.00071686,0.0021625,0,0,0.063083,9.7578e-19,0,0.047575,0,0,0,0.0071757,-7.1691e-06,0.00071686,18.511,0.0026285,0.0068496,1.5885e-08,1,0.66,0
0,0,0.0043271,0.00048079,0.00048079,0.0014897,0,0,0.042309,-5.15e-19,0,0.032773,0,0,0,0.0048366,-2.8681e-05,0.00048079,18.881,0.0017629,0.0046316,4.8953e-09,0,0.68,0
0.00084619,0.00065546,0.0043372,0.0004208,0.0004758,0.0014647,0,0,0.042476,-0.00060506,0,0.032224,0,0,0,0.0048244,-6.638e-05,0.0004758,18.398,0.0017446,0.0046435,4.9068e-09,0.02,0.68,0
0.001699,0.0013525,0.0043639,0.00036761,0.00047316,0.0014896,0,0,0.042799,-0.001161,0,0.03277,0,0,0,0.0048581,-0.0001265,0.00047316,18.352,0.0017349,0.0047134,5.0859e-09,0.04,0.68,0
0.0025581,0.0020921,0.0043889,0.00032002,0.00047089,0.0015174,0,0,0.043098,-0.0016597,0,0.033383,0,0,0,0.0048925,-0.00018355,0.00047089,18.359,0.0017266,0.0047825,5.2653e-09,0.06,0.68,0
0.003423,0.0028748,0.0044119,0.00027833,0.00046902,0.0015471,0,0,0.043371,-0.0020976,0,0.034037,0,0,0,0.0049268,-0.0002366,0.00046902,18.409,0.0017197,0.0048492,5.4408e-09,0.08,0.68,0
0.004293,0.0037004,0.0044325,0.00024242,0.00046749,0.0015777,0,0,0.043615,-0.0024758,0,0.034709,0,0,0,0.0049601,-0.00028519,0.00046749,18.491,0.0017141,0.0049124,5.6096e-09,0.1,0.68,0
0.0051676,0.0045686,0.0044509,0.00021184,0.00046627,0.0016084,0,0,0.043831,-0.0027987,0,0.035384,0,0,0,0.004992,-0.00032932,0.00046627,18.596,0.0017097,0.0049715,5.7699e-09,0.12,0.68,0
0.0060462,0.0054785,0.004467,0.00018585,0.00046529,0.0016387,0,0,0.044019,-0.0030738,0,0.03605,0,0,0,0.0050222,-0.00036936,0.00046529,18.717,0.0017061,0.0050265,5.921e-09,0.14,0.68,0
0.0069283,0.0064289,0.0044812,0.00016349,0.00046447,0.0016682,0,0,0.044184,-0.0033108,0,0.0367,0,0,0,0.0050506,-0.00040594,0.00046447,18.847,0.0017031,0.0050776,6.0631e-09,0.16,0.68,0
0.0078136,0.0074185,0.0044937,0.00014364,0.00046373,0.0016968,0,0,0.044329,-0.003521,0,0.037331,0,0,0,0.0050773,-0.00043997,0.00046373,18.98,0.0017003,0.0051255,6.1971e-09,0.18,0.68,0
0.0087015,0.0084457,0.0045047,0.00012503,0.00046298,0.0017246,0,0,0.044459,-0.0037174,0,0.03794,0,0,0,0.0051023,-0.00047251,0.00046298,19.111,0.0016976,0.0051709,6.3248e-09,0.2,0.68,0
0.009592,0.0095086,0.0045149,0.00010632,0.00046212,0.0017514,0,0,0.04458,-0.0039137,0,0.03853,0,0,0,0.0051259,-0.00050474,0.00046212,19.234,0.0016944,0.0052149,6.448e-09,0.22,0.68,0
0.010485,0.010605,0.0045245,8.6103e-05,0.00046106,0.0017773,0,0,0.044698,-0.0041246,0,0.0391,0,0,0,0.0051485,-0.00053786,0.00046106,19.345,0.0016906,0.0052585,6.5691e-09,0.24,0.68,0
0.01138,0.011733,0.0045343,6.2936e-05,0.00045973,0.0018022,0,0,0.044821,-0.0043647,0,0.039649,0,0,0,0.0051703,-0.00057301,0.00045973,19.436,0.0016857,0.0053029,6.6902e-09,0.26,0.68,0
0.012278,0.01289,0.0045449,3.5442e-05,0.00045803,0.001826,0,0,0.044956,-0.0046485,0,0.040171,0,0,0,0.0051915,-0.00061119,0.00045803,19.501,0.0016795,0.0053489,6.8132e-09,0.28,0.68,0
0.013178,0.014073,0.0045569,2.4019e-06,0.00045593,0.001848,0,0,0.045111,-0.0049888,0,0.040656,0,0,0,0.0052124,-0.00065308,0.00045593,19.53,0.0016717,0.0053971,6.939e-09,0.3,0.68,0
0.014082,0.015279,0.004571,-3.7102e-05,0.00045339,0.0018676,0,0,0.045294,-0.0053954,0,0.041087,0,0,0,0.0052328,-0.00069894,0.00045339,19.513,0.0016624,0.0054478,7.0677e-09,0.32,0.68,0
0.01499,0.016503,0.0045878,-8.3492e-05,0.00045043,0.0018836,0,0,0.045511,-0.0058732,0,0.04144,0,0,0,0.0052527,-0.0007484,0.00045043,19.443,0.0016516,0.0055006,7.1979e-09,0.34,0.68,0
0.015902,0.01774,0.0046077,-0.00013649,0.00044713,0.0018949,0,0,0.045767,-0.0064198,0,0.041687,0,0,0,0.0052717,-0.00080041,0.00044713,19.309,0.0016395,0.0055544,7.3265e-09,0.36,0.68,0
0.01682,0.018987,0.004631,-0.00019492,0.00044361,0.0018999,0,0,0.046061,-0.0070238,0,0.041797,0,0,0,0.0052892,-0.0008531,0.00044361,19.108,0.0016266,0.0056075,7.4492e-09,0.38,0.68,0
0.017745,0.020236,0.0046574,-0.00025655,0.00044009,0.0018972,0,0,0.046391,-0.007663,0,0.041739,0,0,0,0.0053047,-0.0009038,0.00044009,18.837,0.0016137,0.0056575,7.561e-09,0.4,0.68,0
0.018676,0.02148,0.0046866,-0.00031801,0.00043686,0.0018859,0,0,0.046747,-0.0083036,0,0.04149,0,0,0,0.0053177,-0.00094909,0.00043686,18.502,0.0016018,0.0057016,7.6565e-09,0.42,0.68,0
0.019615,0.022714,0.0047179,-0.00037484,0.0004343,0.0018654,0,0,0.047119,-0.0089006,0,0.041038,0,0,0,0.005328,-0.00098499,0.0004343,18.113,0.0015924,0.0057366,7.7315e-09,0.44,0.68,0
0.020561,0.023928,0.0047502,-0.00042177,0.00043285,0.0018361,0,0,0.047491,-0.0094007,0,0.040393,0,0,0,0.0053358,-0.0010073,0.00043285,17.687,0.0015871,0.0057596,7.7835e-09,0.46,0.68,0
0.021514,0.025118,0.004783,-0.00045322,0.00043298,0.0017996,0,0,0.04785,-0.0097482,0,0.039592,0,0,0,0.0053419,-0.0010121,0.00043298,17.252,0.0015876,0.0057688,7.8133e-09,0.48,0.68,0
0.022475,0.026276,0.0048158,-0.00046423,0.00043516,0.0017588,0,0,0.048187,-0.0098933,0,0.038694,0,0,0,0.005348,-0.00099646,0.00043516,16.836,0.0015956,0.0057636,7.8257e-09,0.5,0.68,0
0.023442,0.027398,0.004849,-0.00045131,0.00043977,0.0017173,0,0,0.048502,-0.0098019,0,0.03778,0,0,0,0.0053568,-0.00095906,0.00043977,16.471,0.0016125,0.0057456,7.8291e-09,0.52,0.68,0
0.024415,0.028482,0.0048838,-0.00041308,0.00044707,0.0016788,0,0,0.048804,-0.0094617,0,0.036934,0,0,0,0.0053711,-0.00090035,0.00044707,16.185,0.0016393,0.005718,7.8342e-09,0.54,0.68,0
0.025394,0.029526,0.0049218,-0.00035016,0.00045717,0.0016467,0,0,0.049111,-0.0088806,0,0.036227,0,0,0,0.0053939,-0.00082222,0.00045717,15.996,0.0016763,0.0056854,7.8515e-09,0.56,0.68,0
0.026379,0.030532,0.0049647,-0.00026448,0.00047002,0.0016232,0,0,0.049441,-0.0080795,0,0.035712,0,0,0,0.0054276,-0.0007274,0.00047002,15.917,0.0017234,0.0056522,7.8893e-09,0.58,0.68,0
0.027372,0.031502,0.0050132,-0.00015862,0.00048546,0.0016101,0,0,0.049805,-0.0070849,0,0.035422,0,0,0,0.0054735,-0.00061892,0.00048546,15.954,0.00178,0.0056222,7.9531e-09,0.6,0.68,0
0.028372,0.032441,0.0050678,-3.5606e-05,0.00050322,0.0016086,0,0,0.050211,-0.0059271,0,0.035389,0,0,0,0.0055325,-0.00050032,0.00050322,16.114,0.0018452,0.005599,8.0471e-09,0.62,0.68,0
0.02938,0.033354,0.0051285,0.00010057,0.00052291,0.0016201,0,0,0.050661,-0.0046457,0,0.035643,0,0,0,0.0056053,-0.00037626,0.00052291,16.4,0.0019173,0.0055865,8.1782e-09,0.64,0.68,0
0.030398,0.034248,0.0051953,0.00024422,0.00054395,0.0016458,0,0,0.051165,-0.003297,0,0.036208,0,0,0,0.0056925,-0.00025296,0.00054395,16.809,0.0019945,0.0055898,8.3588e-09,0.66,0.68,0
0.031427,0.035131,0.0052687,0.00038796,0.00056567,0.0016858,0,0,0.051734,-0.0019548,0,0.037087,0,0,0,0.0057944,-0.00013768,0.00056567,17.318,0.0020741,0.0056135,8.6061e-09,0.68,0.68,0
0.032468,0.03601,0.0053494,0.00052372,0.00058731,0.0017382,0,0,0.052383,-0.00069954,0,0.038241,0,0,0,0.0059103,-3.7203e-05,0.00058731,17.885,0.0021535,0.0056611,8.9371e-09,0.7,0.68,0
0.033522,0.036892,0.0054373,0.00064453,0.00060819,0.0017996,0,0,0.053121,0.00039976,0,0.039591,0,0,0,0.0060378,4.4068e-05,0.00060819,18.452,0.00223,0.0057325,9.3601e-09,0.72,0.68,0
0.034592,0.037782,0.0055317,0.00074599,0.00062777,0.0018649,0,0,0.053943,0.0013004,0,0.041028,0,0,0,0.0061726,0.00010509,0.00062777,18.966,0.0023018,0.0058238,9.8698e-09,0.74,0.68,0
0.03568,0.038684,0.0056305,0.00082666,0.00064572,0.0019293,0,0,0.054833,0.0019904,0,0.042444,0,0,0,0.0063094,0.00014778,0.00064572,19.386,0.0023676,0.0059283,1.0447e-08,0.76,0.68,0
0.036786,0.039599,0.0057309,0.00088751,0.00066184,0.0019884,0,0,0.05576,0.0024823,0,0.043745,0,0,0,0.0064427,0.00017578,0.00066184,19.694,0.0024268,0.0060385,1.1062e-08,0.78,0.68,0
0.03791,0.040526,0.0058301,0.00093086,0.00067609,0.0020394,0,0,0.056694,0.0028024,0,0.044867,0,0,0,0.0065679,0.00019302,0.00067609,19.89,0.002479,0.0061476,1.1685e-08,0.8,0.68,0
0.039053,0.041465,0.0059253,0.00095939,0.00068847,0.0020806,0,0,0.057605,0.0029801,0,0.045774,0,0,0,0.0066818,0.00020288,0.00068847,19.981,0.0025244,0.0062503,1.2286e-08,0.82,0.68,0
0.040214,0.042412,0.0060145,0.00097556,0.00069901,0.0021114,0,0,0.05847,0.0030421,0,0.046452,0,0,0,0.0067823,0.00020779,0.00069901,19.982,0.002563,0.0063432,1.2843e-08,0.84,0.68,0
0.041392,0.043365,0.0060964,0.00098126,0.00070776,0.0021321,0,0,0.059275,0.0030085,0,0.046906,0,0,0,0.0068685,0.0002091,0.00070776,19.908,0.0025951,0.0064246,1.3343e-08,0.86,0.68,0
0.042585,0.044321,0.0061703,0.00097761,0.00071479,0.0021435,0,0,0.06001,0.0028911,0,0.047157,0,0,0,0.0069407,0.00020711,0.00071479,19.771,0.0026209,0.0064947,1.3781e-08,0.88,0.68,0
0.043793,0.045277,0.0062361,0.00096494,0.0007201,0.0021471,0,0,0.060676,0.0026932,0,0.047235,0,0,0,0.0069999,0.00020109,0.0007201,19.584,0.0026404,0.0065548,1.4159e-08,0.9,0.68,0
0.045012,0.046231,0.0062945,0.00094271,0.00072372,0.0021447,0,0,0.061279,0.0024089,0,0.047182,0,0,0,0.0070479,0.00018933,0.00072372,19.356,0.0026536,0.0066076,1.449e-08,0.92,0.68,0
0.046244,0.047181,0.0063466,0.00090958,0.00072561,0.0021385,0,0,0.061831,0.0020236,0,0.047046,0,0,0,0.0070869,0.00016928,0.00072561,19.095,0.0026606,0.0066569,1.4795e-08,0.94,0.68,0
0.047486,0.048126,0.0063939,0.00086343,0.00072573,0.0021309,0,0,0.06235,0.0015147,0,0.046879,0,0,0,0.0071197,0.00013765,0.00072573,18.809,0.002661,0.0067073,1.5097e-08,0.96,0.68,0
0.048738,0.049065,0.0064385,0.00080148,0.00072399,0.0021243,0,0,0.062859,0.00085231,0,0.046735,0,0,0,0.0071494,9.0585e-05,0.00072399,18.503,0.0026547,0.0067643,1.5427e-08,0.98,0.68,0
0.05,0.05,0.0064549,0.00071721,0.00071721,0.0021248,0,0,0.063115,-9.2754e-17,0,0.046745,0,0,0,0.0071561,1.6047e-05,0.00071721,18.263,0.0026298,0.0068165,1.5688e-08,1,0.68,0
0,0,0.0041633,0.00046259,0.00046259,0.001461,0,0,0.040708,1.8973e-19,0,0.032141,0,0,0,0.0046705,-4.4652e-05,0.00046259,19.147,0.0016961,0.0044831,4.4285e-09,0,0.7,0
0.00081415,0.00064282,0.0041745,0.00039688,0.00045714,0.0014357,0,0,0.040891,-0.00066286,0,0.031587,0,0,0,0.0046582,-8.6861e-05,0.00045714,18.62,0.0016762,0.0044978,4.4438e-09,0.02,0.7,0
0.0016356,0.0013284,0.0042041,0.00033978,0.00045439,0.001462,0,0,0.041247,-0.0012607,0,0.032165,0,0,0,0.0046949,-0.00015103,0.00045439,18.557,0.0016661,0.0045734,4.624e-09,0.04,0.7,0
0.002464,0.0020577,0.0042321,0.0002897,0.00045218,0.0014918,0,0,0.041579,-0.0017873,0,0.032819,0,0,0,0.004733,-0.00021114,0.00045218,18.559,0.001658,0.0046481,4.8054e-09,0.06,0.7,0
0.0032988,0.0028315,0.0042582,0.00024671,0.0004505,0.0015236,0,0,0.041885,-0.0022416,0,0.033518,0,0,0,0.0047713,-0.00026631,0.0004505,18.61,0.0016518,0.0047202,4.984e-09,0.08,0.7,0
0.0041395,0.0036495,0.0042825,0.00021045,0.00044929,0.0015562,0,0,0.042165,-0.0026272,0,0.034237,0,0,0,0.0048091,-0.00031617,0.00044929,18.696,0.0016474,0.0047887,5.1574e-09,0.1,0.7,0
0.0049854,0.0045112,0.0043049,0.00018021,0.00044851,0.0015889,0,0,0.04242,-0.0029513,0,0.034955,0,0,0,0.004846,-0.00036085,0.00044851,18.805,0.0016446,0.004853,5.3241e-09,0.12,0.7,0
0.0058363,0.0054156,0.0043259,0.00015501,0.00044809,0.0016209,0,0,0.042655,-0.0032238,0,0.035659,0,0,0,0.0048817,-0.00040082,0.00044809,18.928,0.001643,0.0049134,5.484e-09,0.14,0.7,0
0.0066916,0.0063613,0.0043456,0.0001337,0.00044793,0.0016518,0,0,0.042874,-0.0034565,0,0.036341,0,0,0,0.0049161,-0.00043685,0.00044793,19.055,0.0016424,0.00497,5.6375e-09,0.16,0.7,0
0.0075512,0.0073467,0.0043645,0.00011499,0.00044795,0.0016816,0,0,0.043082,-0.0036626,0,0.036994,0,0,0,0.0049494,-0.00046991,0.00044795,19.179,0.0016425,0.0050237,5.7858e-09,0.18,0.7,0
0.0084149,0.00837,0.0043831,9.7531e-05,0.00044807,0.00171,0,0,0.043286,-0.0038559,0,0.037619,0,0,0,0.0049818,-0.00050111,0.00044807,19.295,0.0016429,0.0050753,5.9306e-09,0.2,0.7,0
0.0092827,0.009429,0.0044018,7.9953e-05,0.00044818,0.0017369,0,0,0.04349,-0.0040505,0,0.038213,0,0,0,0.0050134,-0.00053159,0.00044818,19.396,0.0016433,0.0051258,6.0738e-09,0.22,0.7,0
0.010155,0.010521,0.0044212,6.0886e-05,0.00044821,0.0017625,0,0,0.043703,-0.0042606,0,0.038776,0,0,0,0.0050446,-0.00056246,0.00044821,19.477,0.0016434,0.0051762,6.2175e-09,0.24,0.7,0
0.011031,0.011645,0.0044418,3.9024e-05,0.00044808,0.0017866,0,0,0.043931,-0.0044996,0,0.039304,0,0,0,0.0050755,-0.00059471,0.00044808,19.531,0.001643,0.0052274,6.3635e-09,0.26,0.7,0
0.011912,0.012796,0.0044641,1.3184e-05,0.00044773,0.0018088,0,0,0.04418,-0.00478,0,0.039793,0,0,0,0.0051065,-0.00062915,0.00044773,19.551,0.0016417,0.0052802,6.5134e-09,0.28,0.7,0
0.012798,0.013972,0.0044888,-1.7605e-05,0.00044712,0.0018286,0,0,0.044459,-0.005112,0,0.04023,0,0,0,0.0051375,-0.00066627,0.00044712,19.531,0.0016394,0.0053349,6.6679e-09,0.3,0.7,0
0.01369,0.015169,0.0045164,-5.3981e-05,0.00044625,0.0018455,0,0,0.044772,-0.0055025,0,0.040601,0,0,0,0.0051686,-0.00070612,0.00044625,19.462,0.0016362,0.0053917,6.8268e-09,0.32,0.7,0
0.014589,0.016384,0.0045474,-9.6108e-05,0.00044513,0.0018584,0,0,0.045125,-0.0059536,0,0.040885,0,0,0,0.0051995,-0.00074827,0.00044513,19.337,0.0016321,0.00545,6.989e-09,0.34,0.7,0
0.015495,0.017611,0.0045819,-0.00014353,0.00044384,0.0018662,0,0,0.045519,-0.0064611,0,0.041057,0,0,0,0.0052301,-0.00079167,0.00044384,19.152,0.0016274,0.0055089,7.152e-09,0.36,0.7,0
0.01641,0.018846,0.0046201,-0.00019503,0.0004425,0.0018679,0,0,0.045953,-0.0070129,0,0.041093,0,0,0,0.0052597,-0.00083464,0.0004425,18.903,0.0016225,0.0055667,7.3121e-09,0.38,0.7,0
0.017333,0.020083,0.0046616,-0.00024854,0.00044131,0.0018622,0,0,0.046423,-0.0075883,0,0.040968,0,0,0,0.005288,-0.00087488,0.00044131,18.59,0.0016181,0.0056215,7.4652e-09,0.4,0.7,0
0.018267,0.021316,0.004706,-0.0003011,0.00044049,0.0018484,0,0,0.046921,-0.0081575,0,0.040665,0,0,0,0.0053145,-0.00090953,0.00044049,18.22,0.0016151,0.0056708,7.6067e-09,0.42,0.7,0
0.01921,0.022538,0.0047525,-0.00034896,0.00044035,0.0018263,0,0,0.047434,-0.0086824,0,0.040179,0,0,0,0.0053389,-0.00093538,0.00044035,17.801,0.0016146,0.0057121,7.7324e-09,0.44,0.7,0
0.020164,0.023743,0.0048001,-0.00038782,0.00044123,0.0017964,0,0,0.047948,-0.0091196,0,0.039521,0,0,0,0.0053614,-0.00094912,0.00044123,17.352,0.0016179,0.005743,7.8398e-09,0.46,0.7,0
0.021128,0.024926,0.0048481,-0.00041328,0.00044348,0.00176,0,0,0.048451,-0.0094243,0,0.03872,0,0,0,0.0053825,-0.00094773,0.00044348,16.892,0.0016261,0.005762,7.9278e-09,0.48,0.7,0
0.022102,0.026081,0.0048957,-0.00042138,0.00044743,0.0017194,0,0,0.048931,-0.009557,0,0.037827,0,0,0,0.0054033,-0.00092894,0.00044743,16.446,0.0016406,0.0057685,7.9985e-09,0.5,0.7,0
0.023085,0.027205,0.004943,-0.00040922,0.00045338,0.0016775,0,0,0.049385,-0.0094886,0,0.036905,0,0,0,0.0054253,-0.00089154,0.00045338,16.041,0.0016624,0.0057633,8.0559e-09,0.52,0.7,0
0.024077,0.028295,0.0049902,-0.0003753,0.00046149,0.0016375,0,0,0.049816,-0.0092047,0,0.036026,0,0,0,0.0054505,-0.00083558,0.00046149,15.7,0.0016921,0.0057484,8.1062e-09,0.54,0.7,0
0.025078,0.02935,0.0050382,-0.00031954,0.00047186,0.0016024,0,0,0.050229,-0.0087055,0,0.035254,0,0,0,0.0054809,-0.00076224,0.00047186,15.444,0.0017302,0.0057267,8.156e-09,0.56,0.7,0
0.026086,0.030371,0.0050877,-0.00024312,0.00048446,0.0015749,0,0,0.050636,-0.0080034,0,0.034647,0,0,0,0.0055182,-0.00067362,0.00048446,15.289,0.0017764,0.0057017,8.2118e-09,0.58,0.7,0
0.027103,0.03136,0.0051396,-0.00014811,0.00049915,0.001557,0,0,0.051045,-0.0071199,0,0.034254,0,0,0,0.005564,-0.00057252,0.00049915,15.247,0.0018302,0.0056771,8.2798e-09,0.6,0.7,0
0.028128,0.032321,0.0051945,-3.7452e-05,0.0005157,0.0015506,0,0,0.051467,-0.0060847,0,0.034113,0,0,0,0.0056195,-0.00046248,0.0005157,15.329,0.0018909,0.0056567,8.367e-09,0.62,0.7,0
0.029162,0.033258,0.0052528,8.4937e-05,0.00053378,0.0015571,0,0,0.05191,-0.0049373,0,0.034257,0,0,0,0.0056858,-0.00034797,0.00053378,15.537,0.0019572,0.0056447,8.4827e-09,0.64,0.7,0
0.030205,0.034178,0.0053153,0.00021401,0.00055294,0.0015774,0,0,0.052387,-0.0037281,0,0.034702,0,0,0,0.0057637,-0.00023432,0.00055294,15.867,0.0020274,0.0056457,8.6394e-09,0.66,0.7,0
0.031257,0.035086,0.0053827,0.00034384,0.00057265,0.0016112,0,0,0.052911,-0.002517,0,0.035446,0,0,0,0.0058538,-0.00012729,0.00057265,16.299,0.0020997,0.0056637,8.8522e-09,0.68,0.7,0
0.032321,0.035989,0.0054556,0.00046826,0.00059239,0.001657,0,0,0.053495,-0.0013654,0,0.036454,0,0,0,0.0059559,-3.2084e-05,0.00059239,16.802,0.0021721,0.0057015,9.1351e-09,0.7,0.7,0
0.033397,0.036892,0.0055343,0.00058192,0.00061162,0.001712,0,0,0.054149,-0.00032665,0,0.037664,0,0,0,0.0060684,4.7728e-05,0.00061162,17.33,0.0022426,0.0057595,9.4961e-09,0.72,0.7,0
0.034487,0.037801,0.0056181,0.00068111,0.00062992,0.0017722,0,0,0.05487,0.0005631,0,0.038989,0,0,0,0.0061884,0.00011081,0.00062992,17.838,0.0023097,0.0058354,9.9335e-09,0.74,0.7,0
0.035592,0.038717,0.0057058,0.00076407,0.00064698,0.0018337,0,0,0.055647,0.001288,0,0.040341,0,0,0,0.0063118,0.00015798,0.00064698,18.29,0.0023723,0.0059245,1.0435e-08,0.76,0.7,0
0.036713,0.039642,0.0057953,0.00083078,0.0006626,0.0018926,0,0,0.056459,0.0018499,0,0.041637,0,0,0,0.0064345,0.00019157,0.0006626,18.662,0.0024295,0.0060212,1.0981e-08,0.78,0.7,0
0.03785,0.040577,0.0058843,0.00088236,0.00067667,0.001946,0,0,0.057284,0.0022626,0,0.042812,0,0,0,0.0065522,0.00021445,0.00067667,18.943,0.0024811,0.0061197,1.1545e-08,0.8,0.7,0
0.039004,0.04152,0.0059706,0.00092042,0.0006891,0.0019918,0,0,0.058097,0.0025445,0,0.04382,0,0,0,0.0066616,0.0002294,0.0006891,19.133,0.0025267,0.0062152,1.2103e-08,0.82,0.7,0
0.040174,0.04247,0.0060524,0.00094655,0.0006999,0.0020289,0,0,0.058878,0.0027132,0,0.044635,0,0,0,0.0067604,0.00023854,0.0006999,19.238,0.0025663,0.0063039,1.2634e-08,0.84,0.7,0
0.041359,0.043423,0.0061283,0.00096191,0.00070902,0.0020567,0,0,0.059612,0.0027817,0,0.045248,0,0,0,0.0068471,0.00024312,0.00070902,19.263,0.0025998,0.0063838,1.3122e-08,0.86,0.7,0
0.042559,0.044378,0.0061976,0.00096703,0.00071647,0.0020757,0,0,0.060293,0.0027562,0,0.045665,0,0,0,0.0069212,0.00024342,0.00071647,19.219,0.002627,0.0064543,1.3559e-08,0.88,0.7,0
0.043771,0.045331,0.0062603,0.00096172,0.0007222,0.0020865,0,0,0.060919,0.0026348,0,0.045904,0,0,0,0.0069833,0.00023872,0.0007222,19.112,0.0026481,0.0065163,1.3947e-08,0.9,0.7,0
0.044996,0.046279,0.0063167,0.00094504,0.00072617,0.0020906,0,0,0.061496,0.0024076,0,0.045992,0,0,0,0.0070344,0.00022732,0.00072617,18.948,0.0026626,0.0065719,1.4295e-08,0.92,0.7,0
0.046231,0.047222,0.0063679,0.00091533,0.00072833,0.0020895,0,0,0.062036,0.002057,0,0.045969,0,0,0,0.0070766,0.0002067,0.00072833,18.734,0.0026705,0.0066245,1.4619e-08,0.94,0.7,0
0.047477,0.048156,0.0064154,0.00087031,0.00072858,0.0020853,0,0,0.062556,0.0015591,0,0.045877,0,0,0,0.0071121,0.00017363,0.00072858,18.474,0.0026715,0.0066784,1.4942e-08,0.96,0.7,0
0.048733,0.049083,0.006461,0.00080723,0.00072682,0.0020801,0,0,0.063076,0.0008845,0,0.045762,0,0,0,0.0071438,0.00012442,0.00072682,18.173,0.002665,0.0067384,1.5292e-08,0.98,0.7,0
0.05,0.05,0.0064779,0.00071977,0.00071977,0.002085,0,0,0.063339,-1.7868e-16,0,0.04587,0,0,0,0.0071536,4.4071e-05,0.00071977,17.956,0.0026391,0.0067969,1.5591e-08,1,0.7,0
0,0,0.0039953,0.00044392,0.00044392,0.0014294,0,0,0.039065,-5.421e-20,0,0.031447,0,0,0,0.0044991,-5.9935e-05,0.00044392,19.417,0.0016277,0.0043292,3.9775e-09,0,0.72,0
0.0007813,0.00062895,0.0040078,0.0003717,0.00043795,0.0014037,0,0,0.039268,-0.00072876,0,0.030881,0,0,0,0.0044866,-0.00010712,0.00043795,18.835,0.0016058,0.0043469,3.9957e-09,0.02,0.72,0
0.0015707,0.0013021,0.0040407,0.00031021,0.00043509,0.0014314,0,0,0.039662,-0.0013737,0,0.031491,0,0,0,0.0045267,-0.00017572,0.00043509,18.751,0.0015953,0.0044287,4.1765e-09,0.04,0.72,0
0.0023678,0.0020206,0.0040721,0.00025743,0.00043295,0.0014629,0,0,0.040031,-0.0019308,0,0.032183,0,0,0,0.0045685,-0.00023897,0.00043295,18.744,0.0015875,0.0045092,4.3586e-09,0.06,0.72,0
0.003172,0.0027851,0.0041018,0.00021313,0.0004315,0.0014964,0,0,0.040374,-0.002402,0,0.032922,0,0,0,0.004611,-0.00029605,0.0004315,18.791,0.0015822,0.0045868,4.5387e-09,0.08,0.72,0
0.0039827,0.0035953,0.00413,0.00017668,0.00043067,0.0015307,0,0,0.040693,-0.002794,0,0.033676,0,0,0,0.0046534,-0.00034672,0.00043067,18.877,0.0015791,0.0046604,4.7146e-09,0.1,0.72,0
0.0047997,0.0044506,0.004157,0.00014704,0.00043041,0.0015647,0,0,0.040993,-0.0031171,0,0.034424,0,0,0,0.0046953,-0.00039127,0.00043041,18.985,0.0015782,0.0047296,4.8855e-09,0.12,0.72,0
0.0056224,0.0053495,0.0041832,0.00012297,0.00043062,0.0015977,0,0,0.041278,-0.0033841,0,0.03515,0,0,0,0.0047365,-0.00043034,0.00043062,19.102,0.0015789,0.0047947,5.0513e-09,0.14,0.72,0
0.0064508,0.0062907,0.004209,0.00010309,0.00043121,0.0016293,0,0,0.041555,-0.0036093,0,0.035844,0,0,0,0.0047769,-0.00046485,0.00043121,19.218,0.0015811,0.0048561,5.213e-09,0.16,0.72,0
0.0072847,0.007272,0.0042349,8.5949e-05,0.00043208,0.0016591,0,0,0.041831,-0.0038075,0,0.0365,0,0,0,0.0048167,-0.00049589,0.00043208,19.326,0.0015843,0.0049148,5.3719e-09,0.18,0.72,0
0.008124,0.0082915,0.0042614,7.0101e-05,0.00043315,0.0016871,0,0,0.042111,-0.0039936,0,0.037116,0,0,0,0.0048561,-0.00052461,0.00043315,19.418,0.0015882,0.0049715,5.5298e-09,0.2,0.72,0
0.0089691,0.0093466,0.0042891,5.4148e-05,0.00043432,0.0017133,0,0,0.042402,-0.0041819,0,0.037692,0,0,0,0.0048954,-0.00055216,0.00043432,19.488,0.0015925,0.0050274,5.6884e-09,0.22,0.72,0
0.0098201,0.010435,0.0043183,3.6777e-05,0.00043551,0.0017375,0,0,0.042711,-0.0043861,0,0.038225,0,0,0,0.0049347,-0.00057959,0.00043551,19.532,0.0015969,0.0050833,5.8498e-09,0.24,0.72,0
0.010677,0.011553,0.0043497,1.6796e-05,0.00043665,0.0017596,0,0,0.043043,-0.0046184,0,0.038712,0,0,0,0.0049743,-0.00060779,0.00043665,19.542,0.001601,0.00514,6.0154e-09,0.26,0.72,0
0.011542,0.012699,0.0043836,-6.8065e-06,0.00043768,0.0017794,0,0,0.043405,-0.0048893,0,0.039148,0,0,0,0.0050142,-0.00063744,0.00043768,19.514,0.0016048,0.0051982,6.1865e-09,0.28,0.72,0
0.012414,0.013869,0.0044206,-3.4791e-05,0.00043858,0.0017964,0,0,0.043802,-0.005207,0,0.039522,0,0,0,0.0050546,-0.00066888,0.00043858,19.442,0.0016081,0.005258,6.3638e-09,0.3,0.72,0
0.013294,0.015059,0.0044609,-6.758e-05,0.00043933,0.00181,0,0,0.044237,-0.005576,0,0.03982,0,0,0,0.0050954,-0.0007021,0.00043933,19.319,0.0016109,0.0053195,6.547e-09,0.32,0.72,0
0.014183,0.016264,0.004505,-0.00010515,0.00043998,0.0018193,0,0,0.044715,-0.0059965,0,0.040024,0,0,0,0.0051364,-0.00073661,0.00043998,19.141,0.0016133,0.0053821,6.735e-09,0.34,0.72,0
0.015083,0.017482,0.0045528,-0.00014694,0.00044058,0.0018235,0,0,0.045234,-0.0064628,0,0.040116,0,0,0,0.0051773,-0.00077145,0.00044058,18.906,0.0016155,0.0054449,6.9257e-09,0.36,0.72,0
0.015993,0.018706,0.0046042,-0.00019175,0.00044125,0.0018216,0,0,0.045793,-0.006963,0,0.040075,0,0,0,0.0052176,-0.00080515,0.00044125,18.611,0.0016179,0.0055064,7.1162e-09,0.38,0.72,0
0.016914,0.019932,0.004659,-0.00023767,0.00044214,0.0018128,0,0,0.046386,-0.0074779,0,0.039882,0,0,0,0.0052571,-0.00083575,0.00044214,18.259,0.0016212,0.0055651,7.3028e-09,0.4,0.72,0
0.017848,0.021154,0.0047165,-0.00028214,0.00044344,0.0017967,0,0,0.047004,-0.0079814,0,0.039527,0,0,0,0.0052953,-0.00086091,0.00044344,17.855,0.0016259,0.0056187,7.4816e-09,0.42,0.72,0
0.018794,0.022367,0.0047759,-0.00032201,0.00044539,0.0017731,0,0,0.047635,-0.0084414,0,0.039008,0,0,0,0.0053319,-0.00087805,0.00044539,17.411,0.0016331,0.0056654,7.6489e-09,0.44,0.72,0
0.019754,0.023564,0.0048363,-0.00035377,0.00044825,0.0017426,0,0,0.048268,-0.0088222,0,0.038336,0,0,0,0.005367,-0.00088455,0.00044825,16.941,0.0016436,0.0057032,7.8017e-09,0.46,0.72,0
0.020725,0.024741,0.0048967,-0.00037387,0.00045228,0.0017064,0,0,0.048889,-0.0090877,0,0.03754,0,0,0,0.0054009,-0.00087808,0.00045228,16.462,0.0016584,0.0057308,7.9384e-09,0.48,0.72,0
0.021709,0.025894,0.0049565,-0.00037912,0.00045774,0.0016664,0,0,0.049487,-0.0092055,0,0.036661,0,0,0,0.0054342,-0.00085681,0.00045774,15.995,0.0016784,0.0057476,8.0588e-09,0.5,0.72,0
0.022705,0.027019,0.0050154,-0.00036709,0.00046483,0.0016252,0,0,0.050056,-0.0091511,0,0.035754,0,0,0,0.005468,-0.00081973,0.00046483,15.563,0.0017044,0.005754,8.1647e-09,0.52,0.72,0
0.023711,0.028114,0.0050732,-0.00033636,0.00047368,0.0015854,0,0,0.050595,-0.0089105,0,0.034878,0,0,0,0.0055036,-0.00076675,0.00047368,15.188,0.0017368,0.0057513,8.2593e-09,0.54,0.72,0
0.024728,0.029178,0.0051303,-0.00028663,0.00048436,0.0015498,0,0,0.051105,-0.0084809,0,0.034095,0,0,0,0.0055423,-0.00069868,0.00048436,14.889,0.001776,0.0057416,8.3471e-09,0.56,0.72,0
0.025755,0.030212,0.0051871,-0.00021862,0.00049684,0.001521,0,0,0.051592,-0.0078702,0,0.033461,0,0,0,0.0055856,-0.00061718,0.00049684,14.684,0.0018218,0.0057276,8.433e-09,0.58,0.72,0
0.026792,0.031217,0.0052442,-0.00013406,0.00051102,0.0015012,0,0,0.052065,-0.0070959,0,0.033026,0,0,0,0.0056349,-0.0005247,0.00051102,14.586,0.0018737,0.0057126,8.5233e-09,0.6,0.72,0
0.027838,0.032198,0.0053024,-3.5539e-05,0.00052669,0.0014923,0,0,0.052533,-0.0061845,0,0.032831,0,0,0,0.0056913,-0.00042441,0.00052669,14.605,0.0019312,0.0057,8.6254e-09,0.62,0.72,0
0.028893,0.033157,0.0053623,7.3486e-05,0.00054358,0.0014958,0,0,0.053006,-0.0051711,0,0.032907,0,0,0,0.0057561,-0.00032023,0.00054358,14.747,0.0019931,0.0056937,8.7491e-09,0.64,0.72,0
0.029958,0.034099,0.0054248,0.00018876,0.00056136,0.0015122,0,0,0.053498,-0.0040986,0,0.033269,0,0,0,0.0058302,-0.00021661,0.00056136,15.006,0.0020583,0.0056978,8.9062e-09,0.66,0.72,0
0.031033,0.03503,0.0054907,0.00030552,0.00057962,0.0015415,0,0,0.054022,-0.0030151,0,0.033913,0,0,0,0.0059143,-0.00011814,0.00057962,15.367,0.0021253,0.0057156,9.1098e-09,0.68,0.72,0
0.032119,0.035955,0.0055605,0.00041896,0.00059795,0.0015823,0,0,0.054588,-0.0019689,0,0.03481,0,0,0,0.0060084,-2.8952e-05,0.00059795,15.806,0.0021925,0.0057496,9.3719e-09,0.7,0.72,0
0.033217,0.036879,0.0056346,0.0005249,0.00061595,0.0016323,0,0,0.055205,-0.0010016,0,0.03591,0,0,0,0.0061115,4.7988e-05,0.00061595,16.287,0.0022585,0.0058004,9.6999e-09,0.72,0.72,0
0.034327,0.037805,0.0057126,0.00062022,0.00063328,0.0016884,0,0,0.055873,-0.00014373,0,0.037145,0,0,0,0.0062216,0.00011127,0.00063328,16.774,0.002322,0.0058667,1.0094e-08,0.74,0.72,0
0.035452,0.038735,0.0057935,0.00070315,0.00064967,0.0017473,0,0,0.056583,0.00058833,0,0.038442,0,0,0,0.0063356,0.00016108,0.00064967,17.235,0.0023821,0.0059453,1.0548e-08,0.76,0.72,0
0.036591,0.039673,0.0058759,0.00077317,0.00066491,0.0018057,0,0,0.057321,0.001191,0,0.039726,0,0,0,0.0064502,0.00019881,0.00066491,17.645,0.002438,0.0060319,1.1045e-08,0.78,0.72,0
0.037745,0.040617,0.0059578,0.00083064,0.00067885,0.0018608,0,0,0.058069,0.0016697,0,0.040937,0,0,0,0.006562,0.00022651,0.00067885,17.987,0.0024891,0.0061218,1.1566e-08,0.8,0.72,0
0.038913,0.041566,0.0060375,0.00087635,0.00069139,0.0019101,0,0,0.058807,0.0020346,0,0.042023,0,0,0,0.0066676,0.00024632,0.00069139,18.254,0.0025351,0.0062107,1.2091e-08,0.82,0.72,0
0.040097,0.04252,0.0061134,0.00091112,0.00070245,0.0019523,0,0,0.05952,0.0022954,0,0.04295,0,0,0,0.0067645,0.00025999,0.00070245,18.445,0.0025757,0.006295,1.2598e-08,0.84,0.72,0
0.041294,0.043476,0.0061842,0.00093547,0.00071197,0.0019862,0,0,0.060194,0.0024585,0,0.043696,0,0,0,0.0068511,0.00026859,0.00071197,18.56,0.0026105,0.0063724,1.3073e-08,0.86,0.72,0
0.042505,0.044431,0.0062493,0.00094931,0.00071986,0.0020116,0,0,0.060824,0.002524,0,0.044255,0,0,0,0.0069263,0.00027231,0.00071986,18.601,0.0026395,0.0064419,1.3506e-08,0.88,0.72,0
0.043727,0.045382,0.0063086,0.00095194,0.00072605,0.0020286,0,0,0.061408,0.0024847,0,0.04463,0,0,0,0.0069901,0.00027039,0.00072605,18.57,0.0026622,0.0065039,1.3896e-08,0.9,0.72,0
0.044961,0.046327,0.0063626,0.0009419,0.00073045,0.0020381,0,0,0.061954,0.0023259,0,0.044838,0,0,0,0.0070434,0.00026112,0.00073045,18.471,0.0026783,0.0065602,1.425e-08,0.92,0.72,0
0.046205,0.047263,0.0064123,0.00091713,0.00073295,0.0020412,0,0,0.062473,0.002026,0,0.044906,0,0,0,0.0070876,0.00024191,0.00073295,18.304,0.0026875,0.0066138,1.4583e-08,0.94,0.72,0
0.04746,0.048188,0.0064592,0.0008751,0.00073343,0.0020395,0,0,0.062983,0.0015585,0,0.04487,0,0,0,0.0071247,0.00020951,0.00073343,18.074,0.0026892,0.0066687,1.4915e-08,0.96,0.72,0
0.048725,0.0491,0.0065047,0.00081298,0.00073177,0.002035,0,0,0.063502,0.00089335,0,0.04477,0,0,0,0.0071574,0.00016025,0.00073177,17.784,0.0026832,0.0067297,1.5273e-08,0.98,0.72,0
0.05,0.05,0.0065216,0.00072463,0.00072463,0.0020444,0,0,0.063767,-3.8977e-17,0,0.044976,0,0,0,0.0071701,7.6191e-05,0.00072463,17.598,0.002657,0.0067929,1.5605e-08,1,0.72,0
0,0,0.0038215,0.00042461,0.00042461,0.0013947,0,0,0.037365,-2.7105e-19,0,0.030684,0,0,0,0.0043207,-7.4664e-05,0.00042461,19.696,0.0015569,0.0041682,3.5402e-09,0,0.74,0
0.00074731,0.00061367,0.0038353,0.00034516,0.00041805,0.0013681,0,0,0.03759,-0.00080177,0,0.030097,0,0,0,0.0043076,-0.00012717,0.00041805,19.047,0.0015328,0.0041889,3.5604e-09,0.02,0.74,0
0.0015036,0.0012734,0.003872,0.00027895,0.00041509,0.0013973,0,0,0.038026,-0.0014976,0,0.03074,0,0,0,0.0043514,-0.00020047,0.00041509,18.937,0.001522,0.0042774,3.7404e-09,0.04,0.74,0
0.0022683,0.0019805,0.0039071,0.00022339,0.00041305,0.0014304,0,0,0.038434,-0.0020862,0,0.031468,0,0,0,0.0043973,-0.00026679,0.00041305,18.916,0.0015145,0.004364,3.9217e-09,0.06,0.74,0
0.003041,0.0027354,0.0039408,0.00017797,0.00041187,0.0014654,0,0,0.038818,-0.0025729,0,0.032239,0,0,0,0.0044441,-0.00032539,0.00041187,18.957,0.0015102,0.0044469,4.1013e-09,0.08,0.74,0
0.003821,0.0035377,0.0039733,0.00014165,0.0004115,0.0015008,0,0,0.03918,-0.0029683,0,0.033018,0,0,0,0.0044912,-0.00037623,0.0004115,19.037,0.0015088,0.0045253,4.2774e-09,0.1,0.74,0
0.0046082,0.0043865,0.0040052,0.00011304,0.00041183,0.0015355,0,0,0.039527,-0.0032866,0,0.033782,0,0,0,0.0045381,-0.0004198,0.00041183,19.137,0.00151,0.0045988,4.4497e-09,0.12,0.74,0
0.0054021,0.0052802,0.0040371,9.0578e-05,0.00041276,0.0015687,0,0,0.039867,-0.003544,0,0.034512,0,0,0,0.0045846,-0.000457,0.00041276,19.242,0.0015135,0.0046679,4.6185e-09,0.14,0.74,0
0.0062029,0.0062169,0.0040694,7.2609e-05,0.0004142,0.0015999,0,0,0.040207,-0.0037575,0,0.035198,0,0,0,0.0046309,-0.00048894,0.0004142,19.34,0.0015187,0.0047334,4.7852e-09,0.16,0.74,0
0.0070104,0.0071944,0.0041027,5.751e-05,0.00041602,0.0016289,0,0,0.040554,-0.0039436,0,0.035836,0,0,0,0.0046771,-0.00051687,0.00041602,19.423,0.0015254,0.0047961,4.9511e-09,0.18,0.74,0
0.007825,0.0082103,0.0041376,4.3744e-05,0.00041814,0.0016556,0,0,0.040914,-0.0041183,0,0.036424,0,0,0,0.0047234,-0.00054201,0.00041814,19.483,0.0015332,0.004857,5.1182e-09,0.2,0.74,0
0.008647,0.0092617,0.0041745,2.9893e-05,0.00042044,0.00168,0,0,0.041295,-0.004296,0,0.03696,0,0,0,0.00477,-0.00056555,0.00042044,19.516,0.0015416,0.0049172,5.2883e-09,0.22,0.74,0
0.0094768,0.010346,0.0042139,1.4697e-05,0.00042286,0.001702,0,0,0.041701,-0.0044898,0,0.037445,0,0,0,0.0048171,-0.00058852,0.00042286,19.515,0.0015505,0.0049776,5.463e-09,0.24,0.74,0
0.010315,0.01146,0.004256,-2.9259e-06,0.00042531,0.0017215,0,0,0.042138,-0.0047106,0,0.037874,0,0,0,0.0048649,-0.00061176,0.00042531,19.477,0.0015595,0.0050388,5.6437e-09,0.26,0.74,0
0.011162,0.0126,0.0043014,-2.3834e-05,0.00042776,0.0017383,0,0,0.04261,-0.0049675,0,0.038242,0,0,0,0.0049134,-0.00063585,0.00042776,19.396,0.0015684,0.0051013,5.8315e-09,0.28,0.74,0
0.012019,0.013764,0.0043502,-4.8617e-05,0.00043016,0.0017519,0,0,0.043121,-0.0052666,0,0.038542,0,0,0,0.0049627,-0.00066106,0.00043016,19.269,0.0015773,0.0051653,6.0269e-09,0.3,0.74,0
0.012887,0.014946,0.0044028,-7.7529e-05,0.00043252,0.0017618,0,0,0.043673,-0.0056106,0,0.03876,0,0,0,0.0050126,-0.00068733,0.00043252,19.092,0.0015859,0.0052307,6.2295e-09,0.32,0.74,0
0.013766,0.016144,0.0044591,-0.00011042,0.00043487,0.0017674,0,0,0.044267,-0.0059982,0,0.038882,0,0,0,0.0050629,-0.00071421,0.00043487,18.862,0.0015945,0.0052969,6.4385e-09,0.34,0.74,0
0.014658,0.017353,0.0045192,-0.00014667,0.00043725,0.0017679,0,0,0.044901,-0.0064231,0,0.038893,0,0,0,0.0051133,-0.00074083,0.00043725,18.577,0.0016033,0.0053631,6.652e-09,0.36,0.74,0
0.015562,0.018568,0.0045828,-0.00018512,0.00043977,0.0017626,0,0,0.045573,-0.0068737,0,0.038776,0,0,0,0.0051636,-0.00076593,0.00043977,18.238,0.0016125,0.0054281,6.8675e-09,0.38,0.74,0
0.016481,0.019784,0.0046494,-0.00022406,0.00044254,0.0017509,0,0,0.046276,-0.0073326,0,0.03852,0,0,0,0.0052133,-0.00078788,0.00044254,17.849,0.0016226,0.0054903,7.082e-09,0.4,0.74,0
0.017413,0.020996,0.0047185,-0.00026128,0.00044572,0.0017326,0,0,0.047001,-0.0077771,0,0.038117,0,0,0,0.005262,-0.00080477,0.00044572,17.416,0.0016343,0.0055482,7.2921e-09,0.42,0.74,0
0.018361,0.0222,0.0047892,-0.00029414,0.00044951,0.0017077,0,0,0.047737,-0.0081801,0,0.037569,0,0,0,0.0053096,-0.00081453,0.00044951,16.948,0.0016482,0.0056002,7.4943e-09,0.44,0.74,0
0.019323,0.02339,0.0048607,-0.00031974,0.00045409,0.0016768,0,0,0.048472,-0.0085121,0,0.036889,0,0,0,0.005356,-0.0008151,0.00045409,16.459,0.001665,0.0056446,7.6857e-09,0.46,0.74,0
0.0203,0.024563,0.0049319,-0.00033521,0.00045967,0.001641,0,0,0.049195,-0.0087437,0,0.036102,0,0,0,0.0054014,-0.00080464,0.00045967,15.964,0.0016855,0.0056804,7.8643e-09,0.48,0.74,0
0.021291,0.025713,0.0050023,-0.00033796,0.00046644,0.0016021,0,0,0.049895,-0.0088483,0,0.035246,0,0,0,0.0054461,-0.00078171,0.00046644,15.482,0.0017103,0.005707,8.0288e-09,0.5,0.74,0
0.022295,0.026839,0.0050713,-0.00032597,0.00047454,0.0015621,0,0,0.050565,-0.0088055,0,0.034367,0,0,0,0.0054909,-0.00074549,0.00047454,15.032,0.00174,0.0057247,8.1797e-09,0.52,0.74,0
0.023313,0.027939,0.0051387,-0.00029798,0.00048407,0.0015236,0,0,0.051201,-0.0086025,0,0.033518,0,0,0,0.0055365,-0.00069582,0.00048407,14.635,0.0017749,0.0057342,8.3184e-09,0.54,0.74,0
0.024344,0.029011,0.0052045,-0.00025361,0.00049509,0.0014888,0,0,0.051804,-0.0082357,0,0.032754,0,0,0,0.0055842,-0.00063331,0.00049509,14.307,0.0018153,0.0057371,8.4479e-09,0.56,0.74,0
0.025385,0.030056,0.005269,-0.00019338,0.00050756,0.0014604,0,0,0.052376,-0.0077104,0,0.032128,0,0,0,0.0056349,-0.00055931,0.00050756,14.067,0.0018611,0.0057357,8.5721e-09,0.58,0.74,0
0.026439,0.031076,0.0053327,-0.00011868,0.0005214,0.0014404,0,0,0.052925,-0.0070409,0,0.031688,0,0,0,0.0056899,-0.00047586,0.0005214,13.927,0.0019118,0.0057326,8.6966e-09,0.6,0.74,0
0.027502,0.032073,0.0053963,-3.1679e-05,0.00053646,0.0014306,0,0,0.053458,-0.0062495,0,0.031474,0,0,0,0.0057503,-0.00038566,0.00053646,13.898,0.001967,0.0057308,8.8287e-09,0.62,0.74,0
0.028577,0.033051,0.0054604,6.472e-05,0.00055251,0.0014324,0,0,0.053987,-0.0053657,0,0.031514,0,0,0,0.0058171,-0.00029198,0.00055251,13.983,0.0020259,0.0057337,8.9772e-09,0.64,0.74,0
0.029662,0.034014,0.0055259,0.00016704,0.0005693,0.0014465,0,0,0.054523,-0.0044249,0,0.031822,0,0,0,0.0058914,-0.00019846,0.0005693,14.181,0.0020874,0.0057446,9.153e-09,0.66,0.74,0
0.030758,0.034965,0.0055936,0.00027148,0.00058651,0.0014725,0,0,0.055078,-0.0034653,0,0.032396,0,0,0,0.0059739,-0.00010878,0.00058651,14.479,0.0021505,0.0057665,9.3674e-09,0.68,0.74,0
0.031865,0.03591,0.005664,0.00037428,0.00060383,0.0015097,0,0,0.055662,-0.002525,0,0.033213,0,0,0,0.0060645,-2.6263e-05,0.00060383,14.859,0.002214,0.0058015,9.6308e-09,0.7,0.74,0
0.032984,0.036852,0.0057373,0.00047212,0.00062094,0.0015561,0,0,0.05628,-0.001637,0,0.034234,0,0,0,0.0061628,4.6627e-05,0.00062094,15.293,0.0022768,0.0058502,9.9499e-09,0.72,0.74,0
0.034116,0.037795,0.0058133,0.00056246,0.00063758,0.0016092,0,0,0.056933,-0.00082628,0,0.035403,0,0,0,0.0062672,0.00010853,0.00063758,15.753,0.0023378,0.005912,1.0326e-08,0.74,0.74,0
0.035262,0.03874,0.0058912,0.00064366,0.00065349,0.0016663,0,0,0.057615,-0.00010814,0,0.036659,0,0,0,0.0063757,0.00015926,0.00065349,16.209,0.0023961,0.0059846,1.0756e-08,0.76,0.74,0
0.036421,0.03969,0.0059699,0.00071498,0.00066849,0.0017245,0,0,0.058316,0.00051139,0,0.037938,0,0,0,0.0064853,0.00019962,0.00066849,16.639,0.0024511,0.0060648,1.1227e-08,0.78,0.74,0
0.037594,0.040644,0.0060478,0.00077634,0.00068242,0.001781,0,0,0.05902,0.0010331,0,0.039182,0,0,0,0.0065932,0.00023102,0.00068242,17.024,0.0025022,0.0061489,1.1723e-08,0.8,0.74,0
0.038782,0.041602,0.0061235,0.00082798,0.00069514,0.0018336,0,0,0.059712,0.0014612,0,0.040339,0,0,0,0.0066964,0.00025508,0.00069514,17.351,0.0025489,0.0062329,1.2228e-08,0.82,0.74,0
0.039983,0.042562,0.0061954,0.00087017,0.00070655,0.0018803,0,0,0.060377,0.0017998,0,0.041366,0,0,0,0.0067923,0.00027319,0.00070655,17.614,0.0025907,0.0063136,1.2721e-08,0.84,0.74,0
0.041197,0.043522,0.0062625,0.00090283,0.00071653,0.0019196,0,0,0.061005,0.0020492,0,0.042232,0,0,0,0.0068791,0.00028621,0.00071653,17.808,0.0026273,0.0063886,1.3187e-08,0.86,0.74,0
0.042423,0.044479,0.0063243,0.00092535,0.00072496,0.0019508,0,0,0.061592,0.0022043,0,0.042918,0,0,0,0.0069554,0.00029422,0.00072496,17.927,0.0026582,0.0064566,1.3616e-08,0.88,0.74,0
0.04366,0.04543,0.0063806,0.00093645,0.00073171,0.0019734,0,0,0.062138,0.0022521,0,0.043415,0,0,0,0.0070207,0.00029638,0.00073171,17.97,0.0026829,0.0065176,1.4006e-08,0.9,0.74,0
0.044908,0.046372,0.0064322,0.00093413,0.00073663,0.0019876,0,0,0.062651,0.0021724,0,0.043727,0,0,0,0.0070755,0.00029087,0.00073663,17.934,0.002701,0.0065731,1.436e-08,0.92,0.74,0
0.046166,0.047303,0.00648,0.00091581,0.00073958,0.0019942,0,0,0.063145,0.0019385,0,0.043871,0,0,0,0.0071209,0.00027495,0.00073958,17.816,0.0027118,0.0066259,1.4693e-08,0.94,0.74,0
0.047434,0.048219,0.0065255,0.00087853,0.00074041,0.0019944,0,0,0.063636,0.0015194,0,0.043876,0,0,0,0.0071589,0.0002452,0.00074041,17.618,0.0027148,0.0066798,1.5025e-08,0.96,0.74,0
0.048712,0.049118,0.0065703,0.00081924,0.00073896,0.00199,0,0,0.064145,0.00088312,0,0.043779,0,0,0,0.0071918,0.00019783,0.00073896,17.342,0.0027095,0.0067397,1.5382e-08,0.98,0.74,0
0.05,0.05,0.006587,0.00073189,0.00073189,0.0020038,0,0,0.064407,2.2172e-17,0,0.044084,0,0,0,0.0072071,0.0001118,0.00073189,17.195,0.0026836,0.0068065,1.5743e-08,1,0.74,0
0,0,0.0036398,0.00040442,0.00040442,0.0013565,0,0,0.035589,5.421e-20,0,0.029844,0,0,0,0.0041333,-8.9069e-05,0.00040442,19.991,0.0014829,0.0039985,3.1155e-09,0,0.76,0
0.00071179,0.00059687,0.0036552,0.00031715,0.00039723,0.0013286,0,0,0.035837,-0.00088094,0,0.029229,0,0,0,0.0041194,-0.00014709,0.00039723,19.26,0.0014565,0.004022,3.1363e-09,0.02,0.76,0
0.0014335,0.0012422,0.0036958,0.000246,0.00039418,0.0013593,0,0,0.036318,-0.00163,0,0.029905,0,0,0,0.0041671,-0.00022524,0.00039418,19.12,0.0014453,0.0041177,3.3139e-09,0.04,0.76,0
0.0021645,0.0019372,0.003735,0.00018782,0.00039228,0.0013939,0,0,0.03677,-0.0022491,0,0.030666,0,0,0,0.0042172,-0.00029439,0.00039228,19.082,0.0014384,0.0042105,3.4924e-09,0.06,0.76,0
0.0029043,0.0026822,0.0037729,0.00014164,0.00039146,0.0014301,0,0,0.037196,-0.0027479,0,0.031462,0,0,0,0.0042685,-0.00035393,0.00039146,19.113,0.0014353,0.0042985,3.6691e-09,0.08,0.76,0
0.0036523,0.0034766,0.0038102,0.00010598,0.00039162,0.0014661,0,0,0.037604,-0.003142,0,0.032255,0,0,0,0.0043203,-0.00040409,0.00039162,19.183,0.0014359,0.004381,3.8429e-09,0.1,0.76,0
0.0044085,0.0043191,0.0038475,7.8988e-05,0.00039265,0.0015008,0,0,0.038003,-0.0034502,0,0.033018,0,0,0,0.0043721,-0.00044568,0.00039265,19.269,0.0014397,0.0044582,4.0138e-09,0.12,0.76,0
0.0051725,0.0052078,0.0038854,5.8703e-05,0.00039442,0.0015334,0,0,0.038401,-0.0036928,0,0.033734,0,0,0,0.004424,-0.0004799,0.00039442,19.354,0.0014462,0.0045305,4.1827e-09,0.14,0.76,0
0.0059445,0.0061404,0.0039248,4.3185e-05,0.0003968,0.0015633,0,0,0.038808,-0.0038897,0,0.034393,0,0,0,0.0044761,-0.00050814,0.0003968,19.426,0.0014549,0.0045991,4.3512e-09,0.16,0.76,0
0.0067248,0.0071143,0.0039661,3.062e-05,0.00039967,0.0015906,0,0,0.039231,-0.0040596,0,0.034993,0,0,0,0.0045286,-0.00053184,0.00039967,19.475,0.0014655,0.0046649,4.5211e-09,0.18,0.76,0
0.0075137,0.0081267,0.0040099,1.9378e-05,0.00040292,0.0016151,0,0,0.039676,-0.004219,0,0.035532,0,0,0,0.0045816,-0.00055237,0.00040292,19.494,0.0014774,0.0047293,4.6941e-09,0.2,0.76,0
0.0083119,0.0091748,0.0040564,8.0369e-06,0.00040645,0.0016369,0,0,0.04015,-0.0043825,0,0.036011,0,0,0,0.0046355,-0.00057097,0.00040645,19.48,0.0014903,0.0047931,4.8721e-09,0.22,0.76,0
0.0091197,0.010255,0.0041062,-4.6051e-06,0.00041016,0.0016559,0,0,0.040656,-0.0045624,0,0.036431,0,0,0,0.0046902,-0.00058867,0.00041016,19.428,0.0015039,0.0048572,5.0565e-09,0.24,0.76,0
0.0099381,0.011365,0.0041593,-1.9519e-05,0.00041398,0.0016722,0,0,0.041199,-0.0047685,0,0.036789,0,0,0,0.0047461,-0.00060628,0.00041398,19.335,0.0015179,0.0049222,5.2488e-09,0.26,0.76,0
0.010768,0.0125,0.0042161,-3.7428e-05,0.00041787,0.0016855,0,0,0.04178,-0.0050082,0,0.03708,0,0,0,0.004803,-0.00062432,0.00041787,19.199,0.0015322,0.0049885,5.4496e-09,0.28,0.76,0
0.011609,0.013658,0.0042766,-5.8774e-05,0.00042178,0.0016954,0,0,0.042403,-0.0052861,0,0.037299,0,0,0,0.0048609,-0.00064304,0.00042178,19.015,0.0015465,0.0050563,5.6594e-09,0.3,0.76,0
0.012464,0.014834,0.0043409,-8.3686e-05,0.00042572,0.0017016,0,0,0.043067,-0.0056035,0,0.037434,0,0,0,0.0049196,-0.00066236,0.00042572,18.783,0.001561,0.0051253,5.8779e-09,0.32,0.76,0
0.013332,0.016025,0.004409,-0.00011192,0.00042971,0.0017034,0,0,0.043772,-0.0059579,0,0.037475,0,0,0,0.0049789,-0.00068187,0.00042971,18.5,0.0015756,0.005195,6.1042e-09,0.34,0.76,0
0.014215,0.017225,0.0044807,-0.00014284,0.00043378,0.0017003,0,0,0.044515,-0.0063429,0,0.037407,0,0,0,0.0050386,-0.00070082,0.00043378,18.168,0.0015905,0.0052647,6.3368e-09,0.36,0.76,0
0.015113,0.018431,0.0045555,-0.00017537,0.00043802,0.0016919,0,0,0.045293,-0.0067472,0,0.037221,0,0,0,0.0050983,-0.00071815,0.00043802,17.787,0.0016061,0.0053332,6.5736e-09,0.38,0.76,0
0.016026,0.019639,0.0046332,-0.00020798,0.00044252,0.0016776,0,0,0.046097,-0.0071555,0,0.036908,0,0,0,0.0051577,-0.0007325,0.00044252,17.362,0.0016226,0.0053994,6.8119e-09,0.4,0.76,0
0.016956,0.020843,0.0047129,-0.00023878,0.00044741,0.0016574,0,0,0.04692,-0.0075481,0,0.036464,0,0,0,0.0052164,-0.00074235,0.00044741,16.9,0.0016405,0.005462,7.0489e-09,0.42,0.76,0
0.017903,0.022039,0.0047939,-0.00026555,0.00045283,0.0016315,0,0,0.047751,-0.0079022,0,0.035893,0,0,0,0.0052743,-0.00074603,0.00045283,16.41,0.0016604,0.0055195,7.2815e-09,0.44,0.76,0
0.018867,0.023223,0.0048753,-0.00028591,0.00045894,0.0016005,0,0,0.04858,-0.0081933,0,0.03521,0,0,0,0.0053313,-0.00074191,0.00045894,15.903,0.0016828,0.0055707,7.5069e-09,0.46,0.76,0
0.019846,0.024391,0.0049564,-0.00029752,0.00046588,0.0015654,0,0,0.049395,-0.0083974,0,0.034438,0,0,0,0.0053874,-0.00072854,0.00046588,15.395,0.0017082,0.0056148,7.7228e-09,0.48,0.76,0
0.020842,0.02554,0.0050363,-0.00029826,0.00047381,0.0015277,0,0,0.050188,-0.0084928,0,0.03361,0,0,0,0.0054429,-0.00070479,0.00047381,14.901,0.0017373,0.0056513,7.9277e-09,0.5,0.76,0
0.021854,0.026666,0.0051147,-0.00028647,0.00048282,0.0014895,0,0,0.05095,-0.0084622,0,0.032768,0,0,0,0.0054982,-0.00066998,0.00048282,14.439,0.0017703,0.0056802,8.1211e-09,0.52,0.76,0
0.02288,0.027769,0.0051911,-0.00026108,0.000493,0.0014526,0,0,0.051679,-0.0082949,0,0.031958,0,0,0,0.0055539,-0.00062397,0.000493,14.026,0.0018077,0.0057021,8.3037e-09,0.54,0.76,0
0.023921,0.028848,0.0052655,-0.00022172,0.00050437,0.0014196,0,0,0.052372,-0.007987,0,0.03123,0,0,0,0.0056109,-0.00056721,0.00050437,13.679,0.0018494,0.0057182,8.4772e-09,0.56,0.76,0
0.024975,0.029903,0.0053381,-0.00016876,0.00051693,0.0013924,0,0,0.053032,-0.0075425,0,0.030633,0,0,0,0.0056701,-0.0005008,0.00051693,13.413,0.0018954,0.0057302,8.645e-09,0.58,0.76,0
0.026042,0.030936,0.0054092,-0.00010329,0.0005306,0.0013731,0,0,0.053665,-0.0069727,0,0.030209,0,0,0,0.0057323,-0.00042639,0.0005306,13.241,0.0019455,0.0057404,8.8118e-09,0.6,0.76,0
0.027122,0.031948,0.0054796,-2.709e-05,0.00054525,0.0013635,0,0,0.054278,-0.0062957,0,0.029996,0,0,0,0.0057987,-0.0003462,0.00054525,13.172,0.0019993,0.0057512,8.984e-09,0.62,0.76,0
0.028213,0.032942,0.0055498,5.7485e-05,0.00056072,0.0013646,0,0,0.054879,-0.0055356,0,0.030022,0,0,0,0.0058701,-0.00026288,0.00056072,13.212,0.002056,0.0057655,9.1696e-09,0.64,0.76,0
0.029317,0.033922,0.0056205,0.00014766,0.00057682,0.0013772,0,0,0.055481,-0.0047207,0,0.030299,0,0,0,0.0059475,-0.00017938,0.00057682,13.358,0.002115,0.005786,9.3781e-09,0.66,0.76,0
0.030433,0.034892,0.0056924,0.00024043,0.00059329,0.0014012,0,0,0.056091,-0.0038814,0,0.030828,0,0,0,0.0060315,-9.8625e-05,0.00059329,13.602,0.0021754,0.0058151,9.6192e-09,0.68,0.76,0
0.031561,0.035854,0.0057661,0.00033287,0.0006099,0.0014359,0,0,0.056718,-0.0030473,0,0.031591,0,0,0,0.0061223,-2.3281e-05,0.0006099,13.93,0.0022363,0.0058547,9.9018e-09,0.7,0.76,0
0.032701,0.036813,0.0058417,0.00042237,0.00062641,0.0014799,0,0,0.057368,-0.0022444,0,0.032557,0,0,0,0.0062195,4.4602e-05,0.00062641,14.32,0.0022968,0.0059055,1.0232e-08,0.72,0.76,0
0.033855,0.037772,0.0059189,0.00050688,0.00064258,0.001531,0,0,0.05804,-0.0014927,0,0.033682,0,0,0,0.006322,0.00010379,0.00064258,14.75,0.0023561,0.0059671,1.0613e-08,0.74,0.76,0
0.035023,0.038731,0.0059972,0.000585,0.00065822,0.0015871,0,0,0.058729,-0.0008054,0,0.034916,0,0,0,0.0064282,0.00015392,0.00065822,15.196,0.0024135,0.006038,1.104e-08,0.76,0.76,0
0.036205,0.039693,0.0060754,0.00065597,0.00067314,0.0016456,0,0,0.059425,-0.00018882,0,0.036202,0,0,0,0.0065359,0.00019545,0.00067314,15.635,0.0024682,0.0061157,1.1506e-08,0.78,0.76,0
0.0374,0.040658,0.0061524,0.00071952,0.00068719,0.0017039,0,0,0.060117,0.00035561,0,0.037486,0,0,0,0.0066425,0.00022935,0.00068719,16.049,0.0025197,0.006197,1.1998e-08,0.8,0.76,0
0.038609,0.041625,0.0062266,0.00077557,0.00070022,0.0017598,0,0,0.06079,0.00082887,0,0.038715,0,0,0,0.0067453,0.00025683,0.00070022,16.424,0.0025675,0.0062786,1.2498e-08,0.82,0.76,0
0.039832,0.042592,0.0062969,0.00082401,0.00071209,0.001811,0,0,0.061433,0.0012311,0,0.039842,0,0,0,0.0068418,0.00027902,0.00071209,16.748,0.002611,0.0063574,1.299e-08,0.84,0.76,0
0.041066,0.043558,0.0063621,0.00086436,0.00072265,0.0018557,0,0,0.062034,0.0015588,0,0.040826,0,0,0,0.0069299,0.00029659,0.00072265,17.011,0.0026497,0.0064309,1.3457e-08,0.86,0.76,0
0.042313,0.044519,0.0064219,0.00089553,0.00073174,0.0018926,0,0,0.062591,0.0018017,0,0.041637,0,0,0,0.0070079,0.00030953,0.00073174,17.204,0.0026831,0.0064975,1.3888e-08,0.88,0.76,0
0.04357,0.045472,0.0064762,0.00091571,0.00073919,0.0019205,0,0,0.063107,0.0019417,0,0.042251,0,0,0,0.007075,0.00031687,0.00073919,17.318,0.0027103,0.0065572,1.4278e-08,0.9,0.76,0
0.044837,0.046414,0.0065256,0.00092227,0.00074479,0.0019391,0,0,0.063589,0.0019523,0,0.042661,0,0,0,0.0071312,0.00031664,0.00074479,17.344,0.0027309,0.0066109,1.463e-08,0.92,0.76,0
0.046114,0.047341,0.0065715,0.00091197,0.00074835,0.0019488,0,0,0.064055,0.0017998,0,0.042873,0,0,0,0.0071776,0.00030585,0.00074835,17.277,0.0027439,0.0066615,1.4957e-08,0.94,0.76,0
0.047399,0.048249,0.0066153,0.0008812,0.00074966,0.0019504,0,0,0.064523,0.001447,0,0.042909,0,0,0,0.0072159,0.00028068,0.00074966,17.113,0.0027487,0.006713,1.5282e-08,0.96,0.76,0
0.048695,0.049136,0.0066589,0.00082648,0.00074854,0.0019457,0,0,0.065014,0.00085737,0,0.042806,0,0,0,0.0072484,0.00023697,0.00074854,16.856,0.0027446,0.0067701,1.5631e-08,0.98,0.76,0
0.05,0.05,0.0066751,0.00074168,0.00074168,0.0019641,0,0,0.065268,-2.9057e-17,0,0.04321,0,0,0,0.0072663,0.00015044,0.00074168,16.753,0.0027195,0.0068395,1.6019e-08,1,0.76,0
0,0,0.0034481,0.00038312,0.00038312,0.0013146,0,0,0.033715,4.3368e-19,0,0.028922,0,0,0,0.0039347,-0.00010349,0.00038312,20.312,0.0014048,0.0038182,2.703e-09,0,0.78,0
0.00067429,0.00057843,0.003465,0.00028749,0.00037525,0.0012849,0,0,0.033988,-0.00096542,0,0.028268,0,0,0,0.0039196,-0.00016707,0.00037525,19.482,0.0013759,0.0038443,2.7232e-09,0.02,0.78,0
0.0013595,0.0012082,0.00351,0.00021138,0.00037214,0.0013173,0,0,0.034516,-0.0017683,0,0.02898,0,0,0,0.0039715,-0.0002501,0.00037214,19.307,0.0013645,0.0039474,2.8962e-09,0.04,0.78,0
0.0020549,0.0018905,0.0035535,0.00015093,0.00037044,0.0013532,0,0,0.035013,-0.0024146,0,0.029771,0,0,0,0.004026,-0.00032162,0.00037044,19.25,0.0013583,0.0040462,3.0695e-09,0.06,0.78,0
0.00276,0.0026255,0.003596,0.00010462,0.00037006,0.0013902,0,0,0.035485,-0.0029198,0,0.030583,0,0,0,0.0040819,-0.00038127,0.00037006,19.266,0.0013569,0.004139,3.2408e-09,0.08,0.78,0
0.0034744,0.003412,0.0036384,7.0357e-05,0.00037087,0.0014262,0,0,0.035942,-0.0033057,0,0.031377,0,0,0,0.0041384,-0.00042966,0.00037087,19.32,0.0013599,0.004225,3.4096e-09,0.1,0.78,0
0.0041977,0.0042485,0.0036815,4.5718e-05,0.00037272,0.0014601,0,0,0.036396,-0.003597,0,0.032122,0,0,0,0.0041952,-0.00046804,0.00037272,19.385,0.0013666,0.0043049,3.5764e-09,0.12,0.78,0
0.0049302,0.0051325,0.0037262,2.8278e-05,0.00037545,0.0014911,0,0,0.036859,-0.0038189,0,0.032803,0,0,0,0.0042525,-0.00049803,0.00037545,19.442,0.0013767,0.0043796,3.7427e-09,0.14,0.78,0
0.0056721,0.0060614,0.0037733,1.577e-05,0.00037891,0.0015188,0,0,0.037338,-0.0039945,0,0.033415,0,0,0,0.0043105,-0.00052138,0.00037891,19.477,0.0013893,0.0044505,3.9103e-09,0.16,0.78,0
0.0064237,0.0070321,0.0038233,6.1911e-06,0.00038294,0.0015434,0,0,0.037844,-0.0041443,0,0.033955,0,0,0,0.0043692,-0.00053979,0.00038294,19.481,0.0014041,0.0045189,4.0812e-09,0.18,0.78,0
0.0071858,0.0080415,0.0038765,-2.1621e-06,0.00038744,0.0015649,0,0,0.03838,-0.0042856,0,0.034427,0,0,0,0.0044291,-0.00055479,0.00038744,19.45,0.0014206,0.004586,4.2573e-09,0.2,0.78,0
0.0079589,0.0090864,0.0039334,-1.0697e-05,0.00039227,0.0015834,0,0,0.038952,-0.0044326,0,0.034834,0,0,0,0.0044903,-0.00056768,0.00039227,19.381,0.0014383,0.0046529,4.4404e-09,0.22,0.78,0
0.0087439,0.010163,0.0039939,-2.0538e-05,0.00039734,0.0015989,0,0,0.039563,-0.0045967,0,0.035176,0,0,0,0.0045529,-0.00057952,0.00039734,19.27,0.0014569,0.0047204,4.6319e-09,0.24,0.78,0
0.0095414,0.011269,0.0040584,-3.2544e-05,0.00040258,0.0016115,0,0,0.040214,-0.0047864,0,0.035453,0,0,0,0.0046169,-0.00059109,0.00040258,19.116,0.0014761,0.0047891,4.8329e-09,0.26,0.78,0
0.010352,0.0124,0.0041267,-4.7307e-05,0.00040794,0.001621,0,0,0.040906,-0.0050077,0,0.035662,0,0,0,0.0046823,-0.00060289,0.00040794,18.919,0.0014958,0.0048592,5.044e-09,0.28,0.78,0
0.011178,0.013552,0.0041988,-6.5145e-05,0.00041337,0.0016271,0,0,0.04164,-0.0052637,0,0.035797,0,0,0,0.0047488,-0.00061513,0.00041337,18.675,0.0015157,0.0049308,5.2655e-09,0.3,0.78,0
0.012018,0.014722,0.0042748,-8.6083e-05,0.00041887,0.0016296,0,0,0.042415,-0.0055545,0,0.035851,0,0,0,0.0048165,-0.00062774,0.00041887,18.387,0.0015359,0.0050037,5.4972e-09,0.32,0.78,0
0.012874,0.015906,0.0043543,-0.00010983,0.00042445,0.0016278,0,0,0.043229,-0.005877,0,0.035813,0,0,0,0.0048849,-0.00064037,0.00042445,18.052,0.0015563,0.0050773,5.7382e-09,0.34,0.78,0
0.013747,0.017099,0.0044371,-0.00013574,0.00043014,0.0016215,0,0,0.044077,-0.0062247,0,0.035674,0,0,0,0.0049538,-0.00065237,0.00043014,17.672,0.0015772,0.0051509,5.9873e-09,0.36,0.78,0
0.014637,0.018298,0.0045228,-0.00016284,0.000436,0.0016103,0,0,0.044955,-0.0065873,0,0.035426,0,0,0,0.0050228,-0.00066286,0.000436,17.251,0.0015987,0.0052237,6.2427e-09,0.38,0.78,0
0.015545,0.019498,0.0046109,-0.0001898,0.00044211,0.0015938,0,0,0.045856,-0.0069509,0,0.035063,0,0,0,0.0050918,-0.00067073,0.00044211,16.792,0.0016211,0.0052946,6.5021e-09,0.4,0.78,0
0.016472,0.020695,0.0047006,-0.00021497,0.00044856,0.0015721,0,0,0.046772,-0.0072989,0,0.034586,0,0,0,0.0051604,-0.00067475,0.00044856,16.302,0.0016447,0.0053624,6.763e-09,0.42,0.78,0
0.017416,0.021884,0.0047912,-0.00023653,0.00045547,0.0015455,0,0,0.047693,-0.007612,0,0.034,0,0,0,0.0052283,-0.00067358,0.00045547,15.791,0.0016701,0.0054262,7.0228e-09,0.44,0.78,0
0.018379,0.023063,0.004882,-0.0002525,0.00046295,0.0015145,0,0,0.04861,-0.00787,0,0.033319,0,0,0,0.0052955,-0.00066594,0.00046295,15.269,0.0016975,0.0054848,7.2789e-09,0.46,0.78,0
0.019361,0.024227,0.0049723,-0.00026099,0.00047113,0.0014803,0,0,0.049513,-0.0080532,0,0.032566,0,0,0,0.0053619,-0.00065067,0.00047113,14.749,0.0017275,0.0055376,7.5292e-09,0.48,0.78,0
0.02036,0.025373,0.0050612,-0.00026026,0.0004801,0.0014441,0,0,0.050392,-0.0081439,0,0.03177,0,0,0,0.0054278,-0.00062689,0.0004801,14.245,0.0017603,0.0055842,7.7718e-09,0.5,0.78,0
0.021376,0.026501,0.0051484,-0.00024895,0.00048995,0.0014077,0,0,0.051243,-0.0081279,0,0.03097,0,0,0,0.0054935,-0.00059404,0.00048995,13.774,0.0017965,0.0056244,8.0061e-09,0.52,0.78,0
0.02241,0.027607,0.0052336,-0.00022617,0.00050074,0.001373,0,0,0.052061,-0.007996,0,0.030205,0,0,0,0.0055594,-0.00055199,0.00050074,13.35,0.001836,0.0056589,8.2321e-09,0.54,0.78,0
0.023459,0.028691,0.0053165,-0.00019159,0.00051249,0.0013419,0,0,0.052844,-0.0077449,0,0.029521,0,0,0,0.005626,-0.0005011,0.00051249,12.989,0.0018791,0.0056885,8.451e-09,0.56,0.78,0
0.024523,0.029754,0.0053975,-0.00014546,0.0005252,0.0013164,0,0,0.053595,-0.0073772,0,0.028961,0,0,0,0.0056942,-0.00044221,0.0005252,12.704,0.0019257,0.0057145,8.6655e-09,0.58,0.78,0
0.025603,0.030797,0.0054767,-8.8644e-05,0.00053881,0.0012984,0,0,0.054317,-0.006902,0,0.028565,0,0,0,0.0057648,-0.00037666,0.00053881,12.507,0.0019756,0.0057387,8.8796e-09,0.6,0.78,0
0.026696,0.031821,0.0055548,-2.2552e-05,0.00055322,0.0012894,0,0,0.055017,-0.0063336,0,0.028367,0,0,0,0.0058385,-0.00030622,0.00055322,12.407,0.0020285,0.0057632,9.0989e-09,0.62,0.78,0
0.027803,0.03283,0.0056323,5.0958e-05,0.00056832,0.0012905,0,0,0.055704,-0.005691,0,0.028392,0,0,0,0.0059162,-0.000233,0.00056832,12.409,0.0020839,0.0057903,9.3303e-09,0.64,0.78,0
0.028924,0.033825,0.0057098,0.0001297,0.00058395,0.0013025,0,0,0.056384,-0.0049967,0,0.028654,0,0,0,0.0059989,-0.00015933,0.00058395,12.512,0.0021412,0.0058222,9.5819e-09,0.66,0.78,0
0.030059,0.03481,0.005788,0.00021136,0.00059993,0.0013252,0,0,0.057068,-0.0042743,0,0.029155,0,0,0,0.0060869,-8.7547e-05,0.00059993,12.71,0.0021997,0.005861,9.8623e-09,0.68,0.78,0
0.031207,0.035788,0.0058671,0.00029366,0.00061608,0.0013583,0,0,0.057761,-0.0035465,0,0.029884,0,0,0,0.0061805,-1.9761e-05,0.00061608,12.993,0.002259,0.0059081,1.0179e-08,0.7,0.78,0
0.032369,0.036762,0.0059474,0.0003746,0.0006322,0.0014007,0,0,0.058467,-0.0028335,0,0.030815,0,0,0,0.0062796,4.2349e-05,0.0006322,13.344,0.0023181,0.0059643,1.0538e-08,0.72,0.78,0
0.033546,0.037735,0.0060286,0.00045258,0.00064811,0.0014507,0,0,0.059185,-0.0021508,0,0.031917,0,0,0,0.0063834,9.7713e-05,0.00064811,13.745,0.0023764,0.0060294,1.0942e-08,0.74,0.78,0
0.034736,0.038708,0.00611,0.0005265,0.00066365,0.0015065,0,0,0.05991,-0.0015088,0,0.033144,0,0,0,0.0064906,0.00014594,0.00066365,14.176,0.0024334,0.0061023,1.1388e-08,0.76,0.78,0
0.035942,0.039682,0.0061909,0.0005957,0.00067866,0.0015659,0,0,0.060635,-0.00091256,0,0.03445,0,0,0,0.0065993,0.00018727,0.00067866,14.618,0.0024884,0.006181,1.187e-08,0.78,0.78,0
0.037162,0.040658,0.0062699,0.00065989,0.00069297,0.0016265,0,0,0.061346,-0.00036388,0,0.035783,0,0,0,0.0067073,0.00022243,0.00069297,15.054,0.0025409,0.0062629,1.2377e-08,0.8,0.78,0
0.038396,0.041635,0.0063456,0.00071893,0.00070645,0.001686,0,0,0.062031,0.0001372,0,0.037093,0,0,0,0.0068121,0.00025239,0.00070645,15.467,0.0025903,0.0063449,1.2893e-08,0.82,0.78,0
0.039643,0.042611,0.0064168,0.0007725,0.00071893,0.0017422,0,0,0.062677,0.00058924,0,0.038327,0,0,0,0.0069112,0.00027808,0.00071893,15.844,0.0026361,0.0064241,1.34e-08,0.84,0.78,0
0.040903,0.043584,0.0064825,0.0008199,0.00073024,0.0017927,0,0,0.063274,0.00098633,0,0.039439,0,0,0,0.0070023,0.0003001,0.00073024,16.17,0.0026775,0.0064978,1.3882e-08,0.86,0.78,0
0.042174,0.044551,0.006542,0.00085973,0.00074017,0.0018356,0,0,0.06382,0.0013152,0,0.040382,0,0,0,0.0070833,0.00031836,0.00074017,16.433,0.002714,0.0065642,1.4325e-08,0.88,0.78,0
0.043456,0.045508,0.0065954,0.00088966,0.00074851,0.0018692,0,0,0.064316,0.0015527,0,0.041122,0,0,0,0.0071532,0.00033185,0.00074851,16.616,0.0027445,0.0066229,1.4721e-08,0.9,0.78,0
0.044747,0.04645,0.0066435,0.00090641,0.00075499,0.0018925,0,0,0.064773,0.0016656,0,0.041635,0,0,0,0.0072115,0.00033838,0.00075499,16.707,0.0027683,0.0066746,1.5072e-08,0.92,0.78,0
0.046047,0.047375,0.0066876,0.00090587,0.00075935,0.0019052,0,0,0.065211,0.0016117,0,0.041914,0,0,0,0.007259,0.00033454,0.00075935,16.693,0.0027843,0.0067221,1.5391e-08,0.94,0.78,0
0.047355,0.048277,0.0067297,0.00088353,0.00076132,0.001908,0,0,0.065652,0.0013443,0,0.041976,0,0,0,0.0072973,0.00031592,0.00076132,16.567,0.0027915,0.0067697,1.5702e-08,0.96,0.78,0
0.048673,0.049153,0.0067716,0.0008351,0.00076067,0.0019027,0,0,0.06612,0.00081874,0,0.04186,0,0,0,0.0073291,0.00027761,0.00076067,16.33,0.0027891,0.0068228,1.6036e-08,0.98,0.78,0
0.05,0.05,0.0067872,0.00075413,0.00075413,0.0019259,0,0,0.066364,-6.7925e-17,0,0.042369,0,0,0,0.0073495,0.00019178,0.00075413,16.278,0.0027652,0.0068938,1.645e-08,1,0.78,0
0,0,0.0032436,0.0003604,0.0003604,0.0012688,0,0,0.031715,5.9631e-19,0,0.027913,0,0,0,0.0037224,-0.00011841,0.0003604,20.676,0.0013215,0.0036252,2.3037e-09,0,0.8,0
0.0006343,0.00055826,0.0032622,0.00025597,0.00035182,0.0012367,0,0,0.032015,-0.0010544,0,0.027208,0,0,0,0.0037056,-0.00018742,0.00035182,19.723,0.00129,0.0036534,2.3216e-09,0.02,0.8,0
0.0012806,0.0011714,0.0033118,0.00017509,0.00034869,0.0012708,0,0,0.032594,-0.0019096,0,0.027958,0,0,0,0.003762,-0.00027515,0.00034869,19.509,0.0012785,0.0037642,2.4876e-09,0.04,0.8,0
0.0019381,0.0018406,0.0033599,0.00011301,0.00034729,0.0013079,0,0,0.033138,-0.002577,0,0.028775,0,0,0,0.0038212,-0.00034832,0.00034729,19.429,0.0012734,0.0038689,2.6531e-09,0.06,0.8,0
0.0026061,0.0025654,0.0034073,6.7493e-05,0.00034748,0.0013452,0,0,0.033658,-0.0030799,0,0.029594,0,0,0,0.0038817,-0.00040693,0.00034748,19.427,0.0012741,0.0039657,2.8164e-09,0.08,0.8,0
0.0032844,0.0033444,0.0034553,3.5593e-05,0.00034909,0.0013805,0,0,0.034169,-0.0034485,0,0.030371,0,0,0,0.0039431,-0.00045213,0.00034909,19.458,0.00128,0.0040544,2.9774e-09,0.1,0.8,0
0.0039729,0.0041752,0.003505,1.4187e-05,0.00035192,0.0014126,0,0,0.034684,-0.003715,0,0.031078,0,0,0,0.004005,-0.00048584,0.00035192,19.492,0.0012904,0.0041361,3.1374e-09,0.12,0.8,0
0.0046717,0.005055,0.0035573,3.0136e-07,0.00035576,0.001441,0,0,0.035217,-0.00391,0,0.031703,0,0,0,0.0040678,-0.00051023,0.00035576,19.508,0.0013044,0.0042124,3.2985e-09,0.14,0.8,0
0.0053815,0.0059806,0.003613,-8.6713e-06,0.00036043,0.0014656,0,0,0.035778,-0.0040601,0,0.032244,0,0,0,0.0041318,-0.00052749,0.00036043,19.493,0.0013216,0.0042849,3.4629e-09,0.16,0.8,0
0.0061029,0.0069485,0.0036725,-1.4902e-05,0.00036576,0.0014866,0,0,0.036374,-0.0041873,0,0.032706,0,0,0,0.0041972,-0.00053961,0.00036576,19.44,0.0013411,0.0043553,3.6326e-09,0.18,0.8,0
0.0068365,0.0079553,0.0037362,-2.0131e-05,0.0003716,0.0015043,0,0,0.03701,-0.0043091,0,0.033094,0,0,0,0.0042643,-0.00054829,0.0003716,19.346,0.0013625,0.004425,3.8098e-09,0.2,0.8,0
0.0075833,0.0089975,0.0038041,-2.5713e-05,0.00037783,0.0015188,0,0,0.037688,-0.004439,0,0.033414,0,0,0,0.0043333,-0.00055493,0.00037783,19.21,0.0013854,0.004495,3.9959e-09,0.22,0.8,0
0.008344,0.010071,0.0038762,-3.267e-05,0.00038435,0.0015304,0,0,0.03841,-0.0045872,0,0.033669,0,0,0,0.0044041,-0.00056057,0.00038435,19.031,0.0014093,0.0045661,4.1923e-09,0.24,0.8,0
0.0091197,0.011173,0.0039524,-4.1732e-05,0.00039107,0.0015391,0,0,0.039175,-0.0047608,0,0.03386,0,0,0,0.0044766,-0.00056598,0.00039107,18.81,0.0014339,0.0046387,4.3999e-09,0.26,0.8,0
0.009911,0.0123,0.0040326,-5.3364e-05,0.00039792,0.0015447,0,0,0.039982,-0.0049642,0,0.033984,0,0,0,0.0045509,-0.00057161,0.00039792,18.547,0.0014591,0.0047131,4.6193e-09,0.28,0.8,0
0.010719,0.013447,0.0041167,-6.7773e-05,0.00040489,0.0015471,0,0,0.040829,-0.0051993,0,0.034037,0,0,0,0.0046265,-0.00057766,0.00040489,18.241,0.0014846,0.0047891,4.8507e-09,0.3,0.8,0
0.011544,0.014612,0.0042043,-8.4904e-05,0.00041194,0.001546,0,0,0.041716,-0.0054652,0,0.034012,0,0,0,0.0047034,-0.00058406,0.00041194,17.894,0.0015104,0.0048665,5.0937e-09,0.32,0.8,0
0.012388,0.015789,0.0042952,-0.00010443,0.00041907,0.001541,0,0,0.042637,-0.0057585,0,0.033902,0,0,0,0.0047812,-0.00059048,0.00041907,17.506,0.0015366,0.0049448,5.3477e-09,0.34,0.8,0
0.01325,0.016976,0.004389,-0.00012574,0.00042632,0.0015318,0,0,0.043589,-0.0060727,0,0.0337,0,0,0,0.0048596,-0.0005964,0.00042632,17.08,0.0015632,0.0050234,5.6116e-09,0.36,0.8,0
0.014131,0.018168,0.0044852,-0.00014795,0.00043373,0.0015181,0,0,0.044567,-0.0063984,0,0.033399,0,0,0,0.0049384,-0.00060107,0.00043373,16.619,0.0015903,0.0051014,5.8838e-09,0.38,0.8,0
0.015032,0.019361,0.0045834,-0.0001699,0.00044135,0.0014999,0,0,0.045562,-0.0067237,0,0.032997,0,0,0,0.0050171,-0.00060359,0.00044135,16.128,0.0016183,0.0051779,6.1624e-09,0.4,0.8,0
0.015954,0.020551,0.0046828,-0.00019022,0.00044925,0.001477,0,0,0.046569,-0.0070342,0,0.032495,0,0,0,0.0050955,-0.00060296,0.00044925,15.612,0.0016473,0.005252,6.4453e-09,0.42,0.8,0
0.016895,0.021735,0.0047827,-0.00020736,0.00045754,0.00145,0,0,0.047577,-0.0073139,0,0.0319,0,0,0,0.0051735,-0.00059811,0.00045754,15.082,0.0016776,0.0053229,6.7302e-09,0.44,0.8,0
0.017857,0.022908,0.0048825,-0.00021973,0.00046628,0.0014194,0,0,0.048579,-0.0075461,0,0.031228,0,0,0,0.0052508,-0.00058803,0.00046628,14.546,0.0017097,0.0053896,7.0148e-09,0.46,0.8,0
0.018838,0.024069,0.0049816,-0.00022577,0.00047558,0.0013862,0,0,0.049566,-0.0077148,0,0.030497,0,0,0,0.0053276,-0.00057181,0.00047558,14.016,0.0017438,0.0054517,7.2972e-09,0.48,0.8,0
0.019839,0.025214,0.0050792,-0.00022408,0.00048551,0.0013517,0,0,0.05053,-0.0078055,0,0.029737,0,0,0,0.0054038,-0.00054872,0.00048551,13.505,0.0017802,0.0055087,7.5757e-09,0.5,0.8,0
0.020859,0.026341,0.005175,-0.00021356,0.00049614,0.0013173,0,0,0.051467,-0.0078067,0,0.028979,0,0,0,0.0054798,-0.00051833,0.00049614,13.027,0.0018192,0.0055607,7.8494e-09,0.52,0.8,0
0.021898,0.02745,0.0052687,-0.00019346,0.00050752,0.0012847,0,0,0.052373,-0.0077107,0,0.028262,0,0,0,0.0055557,-0.00048051,0.00050752,12.596,0.0018609,0.0056079,8.1182e-09,0.54,0.8,0
0.022954,0.028539,0.0053602,-0.00016348,0.00051967,0.0012557,0,0,0.053246,-0.0075147,0,0.027625,0,0,0,0.0056323,-0.00043554,0.00051967,12.225,0.0019055,0.0056511,8.3829e-09,0.56,0.8,0
0.024028,0.029608,0.0054497,-0.00012382,0.00053258,0.0012321,0,0,0.054088,-0.0072205,0,0.027107,0,0,0,0.0057099,-0.00038406,0.00053258,11.926,0.0019528,0.0056913,8.6457e-09,0.58,0.8,0
0.025118,0.03066,0.0055374,-7.5139e-05,0.00054622,0.0012156,0,0,0.054903,-0.006835,0,0.026743,0,0,0,0.0057893,-0.00032711,0.00054622,11.711,0.0020028,0.0057299,8.9101e-09,0.6,0.8,0
0.026224,0.031694,0.0056238,-1.8514e-05,0.00056052,0.0012075,0,0,0.055696,-0.0063694,0,0.026566,0,0,0,0.0058713,-0.00026608,0.00056052,11.586,0.0020553,0.0057687,9.1808e-09,0.62,0.8,0
0.027346,0.032714,0.0057094,4.4611e-05,0.0005754,0.001209,0,0,0.056474,-0.0058387,0,0.026598,0,0,0,0.0059566,-0.00020263,0.0005754,11.558,0.0021098,0.0058095,9.464e-09,0.64,0.8,0
0.028483,0.033722,0.0057948,0.00011256,0.00059074,0.0012207,0,0,0.057245,-0.00526,0,0.026854,0,0,0,0.0060459,-0.00013856,0.00059074,11.625,0.002166,0.005854,9.7666e-09,0.66,0.8,0
0.029635,0.034721,0.0058805,0.00018355,0.00060641,0.0012427,0,0,0.058015,-0.0046514,0,0.027339,0,0,0,0.0061398,-7.5717e-05,0.00060641,11.785,0.0022235,0.0059041,1.0096e-08,0.68,0.8,0
0.030804,0.035712,0.0059669,0.00025589,0.00062228,0.0012748,0,0,0.05879,-0.0040303,0,0.028046,0,0,0,0.0062385,-1.5755e-05,0.00062228,12.029,0.0022817,0.0059609,1.0459e-08,0.7,0.8,0
0.031987,0.0367,0.0060539,0.00032806,0.00063819,0.0013162,0,0,0.059573,-0.0034115,0,0.028957,0,0,0,0.0063419,3.9984e-05,0.00063819,12.345,0.00234,0.0060252,1.0861e-08,0.72,0.8,0
0.033186,0.037686,0.0061414,0.00039888,0.00065402,0.0013657,0,0,0.060361,-0.0028066,0,0.030046,0,0,0,0.0064496,9.062e-05,0.00065402,12.719,0.0023981,0.0060969,1.1305e-08,0.74,0.8,0
0.034402,0.038671,0.0062287,0.00046757,0.00066963,0.0014218,0,0,0.06115,-0.0022227,0,0.031279,0,0,0,0.0065605,0.0001358,0.00066963,13.135,0.0024553,0.0061751,1.1789e-08,0.76,0.8,0
0.035632,0.039657,0.006315,0.00053368,0.00068487,0.0014825,0,0,0.061932,-0.0016631,0,0.032615,0,0,0,0.006673,0.0001757,0.00068487,13.575,0.0025112,0.0062582,1.2308e-08,0.78,0.8,0
0.036879,0.040643,0.006399,0.00059705,0.0006996,0.0015458,0,0,0.062693,-0.0011281,0,0.034008,0,0,0,0.0067851,0.0002109,0.0006996,14.026,0.0025652,0.006344,1.2851e-08,0.8,0.8,0
0.03814,0.041631,0.0064793,0.00065761,0.00071369,0.0016095,0,0,0.063421,-0.00061681,0,0.035409,0,0,0,0.0068946,0.00024228,0.00071369,14.47,0.0026169,0.0064296,1.3404e-08,0.82,0.8,0
0.039416,0.042616,0.0065544,0.00071513,0.00072695,0.0016711,0,0,0.064102,-0.00013011,0,0.036764,0,0,0,0.0069988,0.00027071,0.00072695,14.893,0.0026655,0.006512,1.3948e-08,0.84,0.8,0
0.040704,0.043598,0.0066232,0.00076886,0.0007392,0.0017281,0,0,0.064724,0.00032624,0,0.038018,0,0,0,0.0070952,0.00029681,0.0007392,15.278,0.0027104,0.0065883,1.4465e-08,0.86,0.8,0
0.042005,0.044572,0.0066848,0.00081728,0.0007502,0.0017779,0,0,0.06528,0.0007378,0,0.039114,0,0,0,0.0071814,0.00032059,0.0007502,15.608,0.0027508,0.0066565,1.4935e-08,0.88,0.8,0
0.043315,0.045534,0.0067391,0.00085769,0.00075968,0.0018182,0,0,0.065774,0.0010781,0,0.039999,0,0,0,0.0072558,0.00034102,0.00075968,15.864,0.0027855,0.0067152,1.5349e-08,0.9,0.8,0
0.044636,0.046481,0.0067869,0.00088613,0.00076731,0.0018469,0,0,0.066216,0.001307,0,0.040632,0,0,0,0.0073173,0.00035573,0.00076731,16.023,0.0028135,0.0067652,1.5704e-08,0.92,0.8,0
0.045964,0.047405,0.0068299,0.00089741,0.00077273,0.0018632,0,0,0.066629,0.0013715,0,0.040991,0,0,0,0.0073666,0.00036078,0.00077273,16.067,0.0028334,0.0068092,1.6015e-08,0.94,0.8,0
0.047301,0.048302,0.0068703,0.00088572,0.0007756,0.0018674,0,0,0.067041,0.0012113,0,0.041083,0,0,0,0.0074052,0.00035082,0.0007756,15.984,0.0028439,0.0068518,1.6307e-08,0.96,0.8,0
0.048646,0.049169,0.0069103,0.00084547,0.00077558,0.0018613,0,0,0.067482,0.00076879,0,0.040949,0,0,0,0.007436,0.00031979,0.00077558,15.771,0.0028438,0.0068996,1.6622e-08,0.98,0.8,0
0.05,0.05,0.0069252,0.00076947,0.00076947,0.0018897,0,0,0.067713,-1.7109e-16,0,0.041572,0,0,0,0.007459,0.00023569,0.00076947,15.774,0.0028214,0.0069718,1.7061e-08,1,0.8,0
0,0,0.0030232,0.00033591,0.00033591,0.0012188,0,0,0.02956,4.3368e-19,0,0.026813,0,0,0,0.0034936,-0.00013451,0.00033591,21.105,0.0012316,0.0034172,1.9192e-09,0,0.82,0
0.00059119,0.00053626,0.0030436,0.00022231,0.00032659,0.0011838,0,0,0.029887,-0.0011471,0,0.026043,0,0,0,0.0034745,-0.00020858,0.00032659,20.001,0.0011975,0.0034468,1.9333e-09,0.02,0.82,0
0.0011955,0.0011318,0.003098,0.00013712,0.00032351,0.0012197,0,0,0.03052,-0.0020503,0,0.026833,0,0,0,0.0035357,-0.00030059,0.00032351,19.742,0.0011862,0.0035655,2.0896e-09,0.04,0.82,0
0.001812,0.0017875,0.003151,7.446e-05,0.00032255,0.0012578,0,0,0.031113,-0.002729,0,0.027671,0,0,0,0.0035998,-0.00037428,0.00032255,19.635,0.0011827,0.0036755,2.2444e-09,0.06,0.82,0
0.00244,0.0025023,0.003204,3.0994e-05,0.0003235,0.0012947,0,0,0.031685,-0.0032175,0,0.028483,0,0,0,0.0036652,-0.00043023,0.0003235,19.608,0.0011862,0.0037754,2.3968e-09,0.08,0.82,0
0.0030794,0.0032741,0.0032583,2.686e-06,0.0003261,0.0013283,0,0,0.032254,-0.0035576,0,0.029222,0,0,0,0.0037315,-0.00047047,0.0003261,19.607,0.0011957,0.0038657,2.5475e-09,0.1,0.82,0
0.0037302,0.0040999,0.0033155,-1.4496e-05,0.00033009,0.0013575,0,0,0.032839,-0.0037905,0,0.029866,0,0,0,0.0037987,-0.00049778,0.00033009,19.596,0.0012104,0.0039482,2.6985e-09,0.12,0.82,0
0.0043929,0.0049761,0.0033765,-2.4131e-05,0.00033523,0.0013822,0,0,0.033453,-0.003953,0,0.030409,0,0,0,0.0038674,-0.00051508,0.00033523,19.554,0.0012292,0.0040253,2.8523e-09,0.14,0.82,0
0.0050683,0.005899,0.003442,-2.9153e-05,0.00034128,0.0014026,0,0,0.034108,-0.0040748,0,0.030857,0,0,0,0.0039379,-0.00052506,0.00034128,19.472,0.0012514,0.004099,3.0115e-09,0.16,0.82,0
0.0057573,0.0068646,0.0035124,-3.1837e-05,0.00034806,0.0014191,0,0,0.034808,-0.0041788,0,0.031221,0,0,0,0.0040106,-0.00053004,0.00034806,19.344,0.0012762,0.0041715,3.1784e-09,0.18,0.82,0
0.0064607,0.0078691,0.0035877,-3.3892e-05,0.00035538,0.0014323,0,0,0.035555,-0.004282,0,0.03151,0,0,0,0.0040856,-0.00053187,0.00035538,19.172,0.0013031,0.004244,3.355e-09,0.2,0.82,0
0.0071795,0.0089088,0.0036677,-3.6563e-05,0.00036311,0.0014424,0,0,0.03635,-0.0043964,0,0.031733,0,0,0,0.0041631,-0.00053198,0.00036311,18.956,0.0013314,0.0043177,3.5426e-09,0.22,0.82,0
0.0079147,0.0099799,0.0037522,-4.0733e-05,0.00037115,0.0014498,0,0,0.037192,-0.0045307,0,0.031895,0,0,0,0.0042429,-0.0005314,0.00037115,18.698,0.0013609,0.0043931,3.7425e-09,0.24,0.82,0
0.0086671,0.011079,0.003841,-4.6987e-05,0.0003794,0.0014544,0,0,0.038078,-0.0046903,0,0.031997,0,0,0,0.0043248,-0.00053082,0.0003794,18.401,0.0013911,0.0044706,3.9554e-09,0.26,0.82,0
0.0094378,0.012201,0.0039337,-5.566e-05,0.0003878,0.0014562,0,0,0.039005,-0.0048781,0,0.032037,0,0,0,0.0044087,-0.00053067,0.0003878,18.066,0.0014219,0.0045502,4.1817e-09,0.28,0.82,0
0.010227,0.013344,0.00403,-6.6857e-05,0.00039631,0.0014551,0,0,0.03997,-0.0050949,0,0.032012,0,0,0,0.0044942,-0.00053107,0.00039631,17.694,0.0014532,0.0046317,4.4216e-09,0.3,0.82,0
0.011037,0.014504,0.0041295,-8.0459e-05,0.00040491,0.0014507,0,0,0.040971,-0.005339,0,0.031916,0,0,0,0.004581,-0.00053196,0.00040491,17.287,0.0014847,0.0047149,4.6748e-09,0.32,0.82,0
0.011866,0.015676,0.0042319,-9.6124e-05,0.00041358,0.0014429,0,0,0.042002,-0.0056068,0,0.031744,0,0,0,0.0046689,-0.00053305,0.00041358,16.847,0.0015165,0.0047991,4.9406e-09,0.34,0.82,0
0.012717,0.016856,0.0043368,-0.00011328,0.00042235,0.0014313,0,0,0.043059,-0.005892,0,0.031488,0,0,0,0.0047574,-0.00053387,0.00042235,16.376,0.0015486,0.0048838,5.2181e-09,0.36,0.82,0
0.013588,0.018042,0.0044435,-0.00013115,0.00043124,0.0014157,0,0,0.044135,-0.0061863,0,0.031145,0,0,0,0.0048462,-0.0005338,0.00043124,15.877,0.0015812,0.0049683,5.506e-09,0.38,0.82,0
0.014482,0.019229,0.0045517,-0.00014874,0.00044029,0.0013961,0,0,0.045225,-0.0064794,0,0.030713,0,0,0,0.0049351,-0.00053211,0.00044029,15.355,0.0016144,0.0050517,5.8027e-09,0.4,0.82,0
0.015397,0.020413,0.0046606,-0.0001649,0.00044957,0.0013726,0,0,0.046322,-0.0067592,0,0.030196,0,0,0,0.0050237,-0.00052799,0.00044957,14.817,0.0016484,0.0051332,6.1064e-09,0.42,0.82,0
0.016335,0.021591,0.0047697,-0.00017836,0.00045914,0.0013455,0,0,0.047417,-0.0070125,0,0.029601,0,0,0,0.0051119,-0.00052058,0.00045914,14.27,0.0016835,0.0052122,6.415e-09,0.44,0.82,0
0.017294,0.022761,0.0048784,-0.00018781,0.00046906,0.0013156,0,0,0.048502,-0.0072256,0,0.028942,0,0,0,0.0051996,-0.00050906,0.00046906,13.723,0.0017199,0.0052879,6.7267e-09,0.46,0.82,0
0.018275,0.023918,0.004986,-0.00019201,0.0004794,0.0012836,0,0,0.049572,-0.0073854,0,0.028239,0,0,0,0.0052867,-0.00049273,0.0004794,13.186,0.0017578,0.0053599,7.0396e-09,0.48,0.82,0
0.019277,0.025061,0.0050921,-0.00018981,0.00049023,0.0012507,0,0,0.05062,-0.0074804,0,0.027515,0,0,0,0.0053733,-0.000471,0.00049023,12.671,0.0017975,0.0054279,7.3525e-09,0.5,0.82,0
0.0203,0.026188,0.0051963,-0.00018033,0.0005016,0.0012183,0,0,0.051642,-0.0075012,0,0.026802,0,0,0,0.0054595,-0.00044351,0.0005016,12.19,0.0018392,0.0054918,7.6643e-09,0.52,0.82,0
0.021343,0.027298,0.0052984,-0.00016297,0.00051354,0.0011879,0,0,0.052633,-0.0074417,0,0.026133,0,0,0,0.0055456,-0.00041015,0.00051354,11.755,0.001883,0.0055518,7.9749e-09,0.54,0.82,0
0.022405,0.028391,0.0053984,-0.00013747,0.00052609,0.001161,0,0,0.053595,-0.0072992,0,0.025543,0,0,0,0.005632,-0.00037111,0.00052609,11.378,0.001929,0.0056086,8.2851e-09,0.56,0.82,0
0.023487,0.029465,0.0054964,-0.00010395,0.00053924,0.0011393,0,0,0.054529,-0.0070752,0,0.025066,0,0,0,0.0057193,-0.00032687,0.00053924,11.07,0.0019772,0.005663,8.5967e-09,0.58,0.82,0
0.024586,0.030524,0.0055927,-6.2914e-05,0.00055298,0.0011243,0,0,0.055437,-0.0067748,0,0.024735,0,0,0,0.005808,-0.00027823,0.00055298,10.841,0.0020276,0.0057162,8.9126e-09,0.6,0.82,0
0.025704,0.031567,0.0056878,-1.5174e-05,0.00056726,0.0011173,0,0,0.056325,-0.0064068,0,0.02458,0,0,0,0.0058988,-0.00022625,0.00056726,10.698,0.0020799,0.0057694,9.2372e-09,0.62,0.82,0
0.026839,0.032596,0.005782,3.8175e-05,0.00058202,0.0011192,0,0,0.0572,-0.0059823,0,0.024622,0,0,0,0.0059924,-0.00017219,0.00058202,10.645,0.0021341,0.0058242,9.5758e-09,0.64,0.82,0
0.027992,0.033614,0.0058761,9.5872e-05,0.0005972,0.0011308,0,0,0.058068,-0.0055146,0,0.024877,0,0,0,0.0060894,-0.00011746,0.0005972,10.684,0.0021897,0.0058822,9.9347e-09,0.66,0.82,0
0.029162,0.034624,0.0059703,0.0001566,0.00061269,0.0011523,0,0,0.058934,-0.0050171,0,0.02535,0,0,0,0.0061904,-6.3459e-05,0.00061269,10.812,0.0022465,0.0059447,1.0321e-08,0.68,0.82,0
0.030349,0.035627,0.0060651,0.00021909,0.00062842,0.0011837,0,0,0.059804,-0.0045026,0,0.026041,0,0,0,0.0062957,-1.1476e-05,0.00062842,11.023,0.0023042,0.0060128,1.074e-08,0.7,0.82,0
0.031554,0.036626,0.0061605,0.00028229,0.00064428,0.0012244,0,0,0.060678,-0.0039819,0,0.026937,0,0,0,0.0064053,3.7447e-05,0.00064428,11.308,0.0023624,0.0060872,1.1197e-08,0.72,0.82,0
0.032777,0.037623,0.0062562,0.00034537,0.00066016,0.0012736,0,0,0.061557,-0.0034627,0,0.028019,0,0,0,0.006519,8.2623e-05,0.00066016,11.657,0.0024206,0.0061679,1.1696e-08,0.74,0.82,0
0.034016,0.038619,0.0063518,0.00040786,0.00067597,0.0013301,0,0,0.062434,-0.0029492,0,0.029262,0,0,0,0.0066359,0.00012379,0.00067597,12.056,0.0024785,0.0062543,1.2235e-08,0.76,0.82,0
0.035274,0.039616,0.0064462,0.00046959,0.00069158,0.0013924,0,0,0.063301,-0.002442,0,0.030633,0,0,0,0.0067547,0.00016112,0.00069158,12.492,0.0025358,0.006345,1.2811e-08,0.78,0.82,0
0.036548,0.040613,0.0065383,0.00053063,0.00070689,0.0014587,0,0,0.064145,-0.0019389,0,0.032091,0,0,0,0.0068737,0.00019518,0.00070689,12.951,0.0025919,0.006438,1.3413e-08,0.8,0.82,0
0.03784,0.04161,0.0066264,0.00059115,0.00072175,0.0015269,0,0,0.064951,-0.0014366,0,0.033592,0,0,0,0.0069907,0.00022683,0.00072175,13.42,0.0026464,0.0065305,1.4027e-08,0.82,0.82,0
0.039147,0.042606,0.0067088,0.00065117,0.000736,0.0015947,0,0,0.065701,-0.00093312,0,0.035083,0,0,0,0.007103,0.00025703,0.000736,13.883,0.0026987,0.0066195,1.4634e-08,0.84,0.82,0
0.040468,0.043597,0.006784,0.00071023,0.00074943,0.0016591,0,0,0.066381,-0.00043116,0,0.0365,0,0,0,0.0072077,0.00028658,0.00074943,14.324,0.0027479,0.0067017,1.521e-08,0.86,0.82,0
0.041802,0.04458,0.0068508,0.00076694,0.00076177,0.0017172,0,0,0.066979,5.6838e-05,0,0.037777,0,0,0,0.007302,0.00031573,0.00076177,14.722,0.0027932,0.0067742,1.5733e-08,0.88,0.82,0
0.043147,0.045551,0.0069085,0.00081849,0.0007727,0.0017655,0,0,0.067494,0.00050369,0,0.038842,0,0,0,0.0073833,0.00034367,0.0007727,15.053,0.0028332,0.0068353,1.6184e-08,0.9,0.82,0
0.044502,0.046503,0.0069579,0.0008603,0.00078182,0.0018013,0,0,0.067937,0.00086323,0,0.039628,0,0,0,0.0074503,0.00036794,0.00078182,15.288,0.0028667,0.0068847,1.6556e-08,0.92,0.82,0
0.045864,0.04743,0.0070007,0.00088592,0.00078867,0.0018224,0,0,0.068333,0.0010698,0,0.040092,0,0,0,0.0075026,0.000384,0.00078867,15.399,0.0028918,0.0069252,1.6861e-08,0.94,0.82,0
0.047235,0.048325,0.0070397,0.00088767,0.00079274,0.0018286,0,0,0.068717,0.0010442,0,0.040229,0,0,0,0.0075422,0.0003852,0.00079274,15.365,0.0029067,0.0069622,1.7132e-08,0.96,0.82,0
0.048613,0.049183,0.0070779,0.00085791,0.00079358,0.0018218,0,0,0.069128,0.00070756,0,0.040079,0,0,0,0.0075722,0.0003636,0.00079358,15.181,0.0029098,0.0070035,1.7419e-08,0.98,0.82,0
0.05,0.05,0.0070921,0.00078801,0.00078801,0.001856,0,0,0.069345,-2.4075e-16,0,0.040831,0,0,0,0.0075979,0.00028218,0.00078801,15.245,0.0028894,0.0070764,1.7886e-08,1,0.82,0
0,0,0.0027829,0.00030921,0.00030921,0.0011645,0,0,0.027211,-4.8789e-19,0,0.025619,0,0,0,0.0032448,-0.00015271,0.00030921,21.637,0.0011338,0.0031918,1.5527e-09,0,0.84,0
0.00054421,0.00051237,0.0028053,0.00018618,0.00029915,0.0011257,0,0,0.027568,-0.0012427,0,0.024766,0,0,0,0.0032226,-0.00023117,0.00029915,20.341,0.0010969,0.0032215,1.5615e-09,0.02,0.84,0
0.0011027,0.0010894,0.0028649,9.7536e-05,0.00029624,0.0011635,0,0,0.028255,-0.0021858,0,0.025597,0,0,0,0.0032891,-0.00032664,0.00029624,20.03,0.0010862,0.003348,1.7048e-09,0.04,0.84,0
0.0016744,0.0017314,0.0029234,3.5845e-05,0.00029592,0.0012021,0,0,0.028902,-0.0028608,0,0.026447,0,0,0,0.0033583,-0.00039911,0.00029592,19.891,0.001085,0.0034626,1.846e-09,0.06,0.84,0
0.0022588,0.0024367,0.0029825,-3.8443e-06,0.00029786,0.0012378,0,0,0.029531,-0.0033188,0,0.027231,0,0,0,0.0034288,-0.00045018,0.00029786,19.829,0.0010922,0.0035643,1.9848e-09,0.08,0.84,0
0.0028556,0.0032021,0.0030442,-2.7086e-05,0.00030171,0.0012684,0,0,0.030168,-0.0036168,0,0.027905,0,0,0,0.0035003,-0.00048318,0.00030171,19.778,0.0011063,0.0036548,2.1228e-09,0.1,0.84,0
0.0034655,0.0040236,0.0031103,-3.9017e-05,0.00030713,0.0012934,0,0,0.030835,-0.0038076,0,0.028455,0,0,0,0.0035734,-0.00050211,0.00030713,19.7,0.0011261,0.0037372,2.2628e-09,0.12,0.84,0
0.004089,0.0048969,0.0031817,-4.3835e-05,0.00031378,0.0013131,0,0,0.031547,-0.0039338,0,0.028888,0,0,0,0.0036486,-0.00051078,0.00031378,19.576,0.0011505,0.0038146,2.4078e-09,0.14,0.84,0
0.0047273,0.0058176,0.0032589,-4.4704e-05,0.00032142,0.0013282,0,0,0.032312,-0.0040273,0,0.02922,0,0,0,0.0037266,-0.00051245,0.00032142,19.401,0.0011785,0.0038897,2.5606e-09,0.16,0.84,0
0.0053815,0.0067814,0.0033418,-4.3887e-05,0.00032979,0.0013394,0,0,0.033132,-0.0041105,0,0.029468,0,0,0,0.0038076,-0.0005097,0.00032979,19.176,0.0012092,0.0039648,2.7235e-09,0.18,0.84,0
0.0060526,0.007784,0.0034303,-4.2957e-05,0.00033873,0.0013476,0,0,0.034007,-0.0041986,0,0.029646,0,0,0,0.0038918,-0.00050446,0.00033873,18.905,0.001242,0.0040412,2.8984e-09,0.2,0.84,0
0.0067418,0.0088216,0.0035238,-4.2979e-05,0.00034808,0.001353,0,0,0.034933,-0.0043017,0,0.029766,0,0,0,0.003979,-0.00049813,0.00034808,18.593,0.0012763,0.0041197,3.0865e-09,0.22,0.84,0
0.00745,0.0098901,0.003622,-4.4651e-05,0.00035773,0.001356,0,0,0.035906,-0.0044262,0,0.029832,0,0,0,0.0040689,-0.00049165,0.00035773,18.244,0.0013117,0.0042008,3.2888e-09,0.24,0.84,0
0.008178,0.010986,0.0037242,-4.8397e-05,0.00036758,0.0013567,0,0,0.036923,-0.0045758,0,0.029847,0,0,0,0.0041614,-0.00048562,0.00036758,17.863,0.0013478,0.0042847,3.506e-09,0.26,0.84,0
0.0089269,0.012105,0.0038301,-5.4423e-05,0.00037757,0.001355,0,0,0.037978,-0.0047519,0,0.02981,0,0,0,0.0042561,-0.00048036,0.00037757,17.45,0.0013844,0.0043711,3.7384e-09,0.28,0.84,0
0.0096972,0.013244,0.0039392,-6.274e-05,0.00038765,0.0013507,0,0,0.039067,-0.0049543,0,0.029715,0,0,0,0.0043524,-0.00047594,0.00038765,17.01,0.0014214,0.0044597,3.986e-09,0.3,0.84,0
0.01049,0.014398,0.0040511,-7.3183e-05,0.00039779,0.0013435,0,0,0.040187,-0.0051807,0,0.029558,0,0,0,0.0044502,-0.00047225,0.00039779,16.543,0.0014586,0.0045502,4.2485e-09,0.32,0.84,0
0.011305,0.015565,0.0041653,-8.5408e-05,0.00040799,0.0013334,0,0,0.041331,-0.0054274,0,0.029334,0,0,0,0.004549,-0.00046902,0.00040799,16.051,0.001496,0.004642,4.5255e-09,0.34,0.84,0
0.012143,0.01674,0.0042814,-9.8901e-05,0.00041825,0.0013198,0,0,0.042494,-0.0056886,0,0.029036,0,0,0,0.0046483,-0.00046584,0.00041825,15.537,0.0015336,0.0047345,4.8161e-09,0.36,0.84,0
0.013004,0.01792,0.0043988,-0.00011298,0.00042858,0.0013029,0,0,0.043672,-0.0059571,0,0.028663,0,0,0,0.004748,-0.00046219,0.00042858,15.004,0.0015715,0.0048268,5.1191e-09,0.38,0.84,0
0.01389,0.019102,0.004517,-0.00012681,0.00043902,0.0012825,0,0,0.044858,-0.0062241,0,0.028214,0,0,0,0.0048476,-0.00045744,0.00043902,14.457,0.0016097,0.0049185,5.4332e-09,0.4,0.84,0
0.014799,0.020281,0.0046355,-0.00013944,0.00044961,0.0012587,0,0,0.046045,-0.0064795,0,0.027692,0,0,0,0.004947,-0.00045094,0.00044961,13.9,0.0016485,0.0050088,5.7568e-09,0.42,0.84,0
0.015731,0.021454,0.0047537,-0.00014985,0.00046039,0.0012321,0,0,0.047226,-0.0067126,0,0.027106,0,0,0,0.0050459,-0.00044201,0.00046039,13.34,0.0016881,0.0050969,6.0883e-09,0.44,0.84,0
0.016688,0.022619,0.0048711,-0.00015698,0.00047141,0.001203,0,0,0.048396,-0.0069123,0,0.026467,0,0,0,0.0051441,-0.00043,0.00047141,12.786,0.0017285,0.0051825,6.4261e-09,0.46,0.84,0
0.017667,0.023774,0.0049872,-0.00015983,0.00048273,0.0011725,0,0,0.049549,-0.0070682,0,0.025794,0,0,0,0.0052417,-0.00041433,0.00048273,12.247,0.00177,0.0052651,6.7685e-09,0.48,0.84,0
0.01867,0.024915,0.0051016,-0.0001575,0.00049441,0.0011414,0,0,0.050679,-0.007171,0,0.025111,0,0,0,0.0053386,-0.00039454,0.00049441,11.732,0.0018128,0.0053444,7.1145e-09,0.5,0.84,0
0.019695,0.026041,0.005214,-0.00014928,0.00050647,0.001111,0,0,0.051783,-0.0072133,0,0.024443,0,0,0,0.0054351,-0.00037033,0.00050647,11.252,0.0018571,0.0054205,7.4632e-09,0.52,0.84,0
0.020741,0.027152,0.0053244,-0.00013469,0.00051897,0.0010827,0,0,0.052859,-0.0071902,0,0.02382,0,0,0,0.0055313,-0.0003416,0.00051897,10.819,0.0019029,0.0054934,7.8145e-09,0.54,0.84,0
0.021809,0.028247,0.0054327,-0.0001135,0.00053192,0.001058,0,0,0.053908,-0.0070996,0,0.023275,0,0,0,0.0056276,-0.00030846,0.00053192,10.441,0.0019504,0.0055637,8.1692e-09,0.56,0.84,0
0.022897,0.029325,0.0055391,-8.5804e-05,0.00054533,0.0010381,0,0,0.054931,-0.0069424,0,0.022838,0,0,0,0.0057245,-0.00027127,0.00054533,10.13,0.0019995,0.0056321,8.5289e-09,0.58,0.84,0
0.024006,0.030389,0.0056439,-5.1948e-05,0.0005592,0.0010245,0,0,0.055932,-0.0067226,0,0.022539,0,0,0,0.0058226,-0.00023062,0.0005592,9.8927,0.0020504,0.0056995,8.8964e-09,0.6,0.84,0
0.025135,0.031438,0.0057476,-1.2545e-05,0.00057351,0.0010184,0,0,0.056915,-0.0064466,0,0.022404,0,0,0,0.0059224,-0.00018729,0.00057351,9.7366,0.0021029,0.005767,9.2755e-09,0.62,0.84,0
0.026283,0.032475,0.0058507,3.16e-05,0.00058823,0.0010207,0,0,0.057887,-0.006123,0,0.022455,0,0,0,0.0060246,-0.00014224,0.00058823,9.6655,0.0021569,0.005836,9.6713e-09,0.64,0.84,0
0.02745,0.033502,0.0059537,7.956e-05,0.00060333,0.0010321,0,0,0.058854,-0.0057615,0,0.022707,0,0,0,0.0061298,-9.6516e-05,0.00060333,9.6811,0.0022122,0.0059076,1.009e-08,0.66,0.84,0
0.028637,0.03452,0.0060571,0.00013038,0.00061875,0.0010531,0,0,0.059822,-0.0053721,0,0.023169,0,0,0,0.0062387,-5.1186e-05,0.00061875,9.7821,0.0022687,0.0059831,1.0537e-08,0.68,0.84,0
0.029843,0.035532,0.0061612,0.00018317,0.00063444,0.0010837,0,0,0.060794,-0.0049639,0,0.023842,0,0,0,0.0063516,-7.2217e-06,0.00063444,9.9645,0.0023263,0.0060635,1.1019e-08,0.7,0.84,0
0.031069,0.036541,0.0062661,0.00023722,0.00065034,0.0011237,0,0,0.061774,-0.0045443,0,0.024721,0,0,0,0.0064687,3.4594e-05,0.00065034,10.222,0.0023846,0.0061494,1.1541e-08,0.72,0.84,0
0.032314,0.037547,0.0063561,0.00030129,0.00066575,0.0011936,0,0,0.062594,-0.0040089,0,0.02626,0,0,0,0.006583,7.449e-05,0.00066575,10.759,0.0024411,0.0062339,1.2066e-08,0.74,0.84,0
0.033579,0.038553,0.0064958,0.00036189,0.00068577,0.0012504,0,0,0.06391,-0.0035626,0,0.027508,0,0,0,0.0067408,0.00011681,0.00068577,11.09,0.0025145,0.0063587,1.2849e-08,0.76,0.84,0
0.034864,0.039559,0.0065677,0.00041553,0.00069832,0.0013135,0,0,0.064563,-0.0031107,0,0.028897,0,0,0,0.0068363,0.00014683,0.00069832,11.561,0.0025605,0.0064315,1.3326e-08,0.78,0.84,0
0.036168,0.040566,0.0067036,0.0004773,0.00071809,0.0013826,0,0,0.06584,-0.0026487,0,0.030417,0,0,0,0.0069968,0.00018408,0.00071809,11.973,0.002633,0.006562,1.4189e-08,0.8,0.84,0
0.037491,0.041573,0.0067717,0.00053321,0.00073049,0.0014553,0,0,0.066453,-0.0021701,0,0.032017,0,0,0,0.0070945,0.00021042,0.00073049,12.506,0.0026785,0.0066393,1.4721e-08,0.82,0.84,0
0.038832,0.042579,0.0068948,0.0005975,0.00074923,0.0015267,0,0,0.067601,-0.0016691,0,0.033587,0,0,0,0.0072454,0.0002469,0.00074923,12.934,0.0027472,0.0067614,1.558e-08,0.84,0.84,0
0.04019,0.04358,0.006954,0.00065716,0.00076111,0.0016028,0,0,0.068122,-0.0011435,0,0.035261,0,0,0,0.0073385,0.00027267,0.00076111,13.49,0.0027907,0.0068347,1.6115e-08,0.86,0.84,0
0.041562,0.044574,0.007053,0.00072296,0.0007776,0.0016609,0,0,0.06903,-0.00060105,0,0.03654,0,0,0,0.0074624,0.00031362,0.0007776,13.845,0.0028512,0.0069284,1.6823e-08,0.88,0.84,0
0.042947,0.045555,0.0070981,0.00078203,0.00078802,0.0017301,0,0,0.069411,-6.5886e-05,0,0.038062,0,0,0,0.007541,0.00033917,0.00078802,14.358,0.0028894,0.0069882,1.7284e-08,0.9,0.84,0
0.044342,0.046515,0.0071675,0.00083814,0.00080057,0.0017546,0,0,0.070037,0.00041333,0,0.038601,0,0,0,0.0076214,0.00038429,0.00080057,14.503,0.0029354,0.0070382,1.7695e-08,0.92,0.84,0
0.045745,0.047448,0.0071982,0.00087652,0.00080747,0.0018041,0,0,0.070298,0.00075956,0,0.039691,0,0,0,0.0076768,0.00039788,0.00080747,14.858,0.0029607,0.007083,1.8045e-08,0.94,0.84,0
0.047156,0.048344,0.0072484,0.00089351,0.00081419,0.0017805,0,0,0.070777,0.00087249,0,0.039171,0,0,0,0.0077133,0.00042866,0.00081419,14.632,0.0029854,0.0070997,1.8197e-08,0.96,0.84,0
0.048574,0.049197,0.0072717,0.00087329,0.0008145,0.0018058,0,0,0.071029,0.00064671,0,0.039728,0,0,0,0.0077462,0.00039881,0.0008145,14.722,0.0029865,0.0071486,1.8548e-08,0.98,0.84,0
0.05,0.05,0.0072918,0.00081019,0.00081019,0.0018253,0,0,0.071297,-3.2049e-16,0,0.040157,0,0,0,0.0077704,0.0003315,0.00081019,14.695,0.0029707,0.0072115,1.8976e-08,1,0.84,0
0,0,0.002518,0.00027978,0.00027978,0.0011058,0,0,0.02462,2.1684e-19,0,0.024328,0,0,0,0.0029722,-0.00017439,0.00027978,22.329,0.0010259,0.0029458,1.2084e-09,0,0.86,0
0.00049241,0.00048655,0.0025294,0.00014734,0.00026767,0.0010375,0,0,0.024879,-0.0013237,0,0.022824,0,0,0,0.0029179,-0.00024115,0.00026767,20.529,0.00098147,0.0029379,1.1717e-09,0.02,0.86,0
0.0010003,0.0010444,0.0026202,5.9845e-05,0.000268,0.0011333,0,0,0.025874,-0.0022897,0,0.024932,0,0,0,0.0030497,-0.0003697,0.000268,20.759,0.00098267,0.0031494,1.3852e-09,0.04,0.86,0
0.0015226,0.001673,0.0026607,-1.8971e-06,0.00026588,0.0011214,0,0,0.026343,-0.0029455,0,0.024671,0,0,0,0.00307,-0.00041126,0.00026588,20.055,0.00097488,0.003197,1.4277e-09,0.06,0.86,0
0.0020586,0.0023695,0.0027507,-3.4001e-05,0.00027167,0.0012062,0,0,0.02727,-0.0033624,0,0.026537,0,0,0,0.0032006,-0.00048384,0.00027167,20.452,0.00099613,0.0033708,1.6388e-09,0.08,0.86,0
0.0026087,0.0031294,0.002797,-5.4342e-05,0.00027426,0.001188,0,0,0.02775,-0.0036147,0,0.026137,0,0,0,0.0032271,-0.00048447,0.00027426,19.903,0.0010056,0.0033964,1.6786e-09,0.1,0.86,0
0.0031736,0.0039476,0.0029003,-5.8076e-05,0.00028422,0.001251,0,0,0.028777,-0.0037653,0,0.027521,0,0,0,0.0033584,-0.00051613,0.00028422,20.111,0.0010422,0.0035428,1.8968e-09,0.12,0.86,0
0.0037544,0.0048188,0.0029711,-5.7582e-05,0.00029135,0.0012315,0,0,0.029477,-0.0038383,0,0.027092,0,0,0,0.0034086,-0.0004951,0.00029135,19.559,0.0010683,0.0035759,1.971e-09,0.14,0.86,0
0.0043526,0.0057379,0.0030623,-5.4448e-05,0.00030078,0.0012402,0,0,0.030377,-0.0039076,0,0.027285,0,0,0,0.0034956,-0.00048774,0.00030078,19.257,0.0011029,0.0036534,2.1166e-09,0.16,0.86,0
0.0049695,0.0067002,0.0031601,-5.0508e-05,0.00031096,0.0012456,0,0,0.03134,-0.0039761,0,0.027404,0,0,0,0.0035867,-0.0004771,0.00031096,18.905,0.0011402,0.0037327,2.2748e-09,0.18,0.86,0
0.0056063,0.0077012,0.0032637,-4.7065e-05,0.00032166,0.0012484,0,0,0.032362,-0.004056,0,0.027465,0,0,0,0.0036817,-0.00046505,0.00032166,18.511,0.0011794,0.0038147,2.4473e-09,0.2,0.86,0
0.006264,0.0087368,0.0033724,-4.4927e-05,0.00033275,0.0012492,0,0,0.033437,-0.0041545,0,0.027481,0,0,0,0.0037804,-0.00045284,0.00033275,18.084,0.0012201,0.0039002,2.6352e-09,0.22,0.86,0
0.0069437,0.0098029,0.0034856,-4.4574e-05,0.0003441,0.001248,0,0,0.034556,-0.0042754,0,0.027457,0,0,0,0.0038822,-0.00044123,0.0003441,17.631,0.0012617,0.0039892,2.8392e-09,0.24,0.86,0
0.0076463,0.010896,0.0036024,-4.6259e-05,0.00035562,0.0012451,0,0,0.035715,-0.0044206,0,0.027393,0,0,0,0.0039868,-0.00043066,0.00035562,17.157,0.0013039,0.0040815,3.0599e-09,0.26,0.86,0
0.0083723,0.012011,0.0037225,-5.0062e-05,0.00036724,0.0012403,0,0,0.036907,-0.0045903,0,0.027286,0,0,0,0.0040937,-0.0004213,0.00036724,16.663,0.0013465,0.0041769,3.2977e-09,0.28,0.86,0
0.0091226,0.013146,0.0038451,-5.5919e-05,0.00037892,0.0012333,0,0,0.038128,-0.0047832,0,0.027133,0,0,0,0.0042023,-0.00041314,0.00037892,16.153,0.0013894,0.0042748,3.5523e-09,0.3,0.86,0
0.0098975,0.014296,0.0039699,-6.3633e-05,0.00039063,0.001224,0,0,0.039372,-0.0049968,0,0.026929,0,0,0,0.0043123,-0.00040602,0.00039063,15.627,0.0014323,0.0043747,3.8238e-09,0.32,0.86,0
0.010697,0.015459,0.0040963,-7.2875e-05,0.00040234,0.0012121,0,0,0.040634,-0.0052274,0,0.026666,0,0,0,0.0044231,-0.00039965,0.00040234,15.088,0.0014753,0.004476,4.1116e-09,0.34,0.86,0
0.011523,0.016629,0.0042239,-8.319e-05,0.00041407,0.0011973,0,0,0.041908,-0.0054699,0,0.026341,0,0,0,0.0045344,-0.00039366,0.00041407,14.537,0.0015183,0.0045779,4.4149e-09,0.36,0.86,0
0.012374,0.017804,0.0043521,-9.4002e-05,0.00042581,0.0011796,0,0,0.04319,-0.005718,0,0.025952,0,0,0,0.0046457,-0.00038759,0.00042581,13.976,0.0015613,0.0046799,4.7327e-09,0.38,0.86,0
0.01325,0.01898,0.0044806,-0.00010463,0.0004376,0.001159,0,0,0.044473,-0.0059645,0,0.025498,0,0,0,0.0047569,-0.00038093,0.0004376,13.409,0.0016045,0.0047814,5.0641e-09,0.4,0.86,0
0.014153,0.020154,0.0046087,-0.0001143,0.00044944,0.0011356,0,0,0.045752,-0.0062012,0,0.024982,0,0,0,0.0048676,-0.00037314,0.00044944,12.841,0.001648,0.0048817,5.4074e-09,0.42,0.86,0
0.015081,0.021323,0.004714,-0.00012951,0.00045845,0.0011323,0,0,0.046811,-0.0064675,0,0.02491,0,0,0,0.0049656,-0.00038112,0.00045845,12.529,0.001681,0.0049803,5.7413e-09,0.44,0.86,0
0.016033,0.022484,0.0048605,-0.00014257,0.00047179,0.0011407,0,0,0.048276,-0.006758,0,0.025095,0,0,0,0.0051083,-0.00039038,0.00047179,12.257,0.0017299,0.0051223,6.2486e-09,0.46,0.86,0
0.017011,0.023635,0.004985,-0.00014439,0.00048406,0.0011118,0,0,0.04951,-0.006913,0,0.024459,0,0,0,0.0052156,-0.000375,0.00048406,11.718,0.0017749,0.0052144,6.6205e-09,0.48,0.86,0
0.018014,0.024774,0.0051076,-0.00014163,0.0004966,0.0010827,0,0,0.050721,-0.0070205,0,0.023818,0,0,0,0.0053221,-0.00035616,0.0004966,11.208,0.0018209,0.0053036,6.9988e-09,0.5,0.86,0
0.01904,0.0259,0.0052282,-0.00013363,0.00050946,0.0010545,0,0,0.051906,-0.007074,0,0.023198,0,0,0,0.0054281,-0.00033355,0.00050946,10.735,0.001868,0.0053898,7.383e-09,0.52,0.86,0
0.02009,0.027011,0.0053671,-0.00011019,0.00052569,0.00098351,0,0,0.053256,-0.0069947,0,0.021637,0,0,0,0.0055384,-0.00028144,0.00052569,9.8772,0.0019275,0.0054611,7.7528e-09,0.54,0.86,0
0.021163,0.028107,0.0054643,-9.1495e-05,0.00053728,0.00094674,0,0,0.054197,-0.0069165,0,0.020828,0,0,0,0.0056212,-0.00024839,0.00053728,9.4098,0.00197,0.0055189,8.0465e-09,0.56,0.86,0
0.022258,0.029188,0.0055788,-6.9265e-05,0.00055095,0.00092858,0,0,0.055306,-0.0068224,0,0.020429,0,0,0,0.0057275,-0.00021801,0.00055095,9.1007,0.0020202,0.0056008,8.4529e-09,0.58,0.86,0
0.023375,0.030255,0.0056919,-4.2122e-05,0.00056497,0.00091627,0,0,0.056396,-0.006678,0,0.020158,0,0,0,0.0058347,-0.00018498,0.00056497,8.8617,0.0020716,0.005682,8.8706e-09,0.6,0.86,0
0.024514,0.031309,0.005804,-1.0504e-05,0.00057935,0.00091091,0,0,0.057471,-0.0064884,0,0.02004,0,0,0,0.0059434,-0.00014987,0.00057935,8.6985,0.0021243,0.0057633,9.3035e-09,0.62,0.86,0
0.025674,0.032351,0.0059157,2.5009e-05,0.00059407,0.00091343,0,0,0.058538,-0.0062597,0,0.020095,0,0,0,0.0060541,-0.00011338,0.00059407,8.615,0.0021783,0.005846,9.7562e-09,0.64,0.86,0
0.026855,0.033384,0.0060277,6.3757e-05,0.00060914,0.00092453,0,0,0.059604,-0.0059992,0,0.02034,0,0,0,0.0061677,-7.6278e-05,0.00060914,8.6128,0.0022335,0.005931,1.0235e-08,0.66,0.86,0
0.028058,0.034409,0.0061403,0.00010507,0.00062454,0.0009447,0,0,0.060673,-0.0057142,0,0.020783,0,0,0,0.0062847,-3.9351e-05,0.00062454,8.6917,0.00229,0.0060196,1.0745e-08,0.68,0.86,0
0.029282,0.035429,0.0062541,0.00014835,0.00064025,0.00097417,0,0,0.061753,-0.0054109,0,0.021432,0,0,0,0.0064058,-3.3093e-06,0.00064025,8.8489,0.0023476,0.0061128,1.1294e-08,0.7,0.86,0
0.030528,0.036444,0.0063693,0.00019315,0.00065625,0.0010129,0,0,0.062844,-0.0050941,0,0.022284,0,0,0,0.0065312,3.1277e-05,0.00065625,9.0798,0.0024062,0.0062111,1.1887e-08,0.72,0.86,0
0.031796,0.037458,0.0064658,0.00022619,0.0006692,0.0010387,0,0,0.063763,-0.0048731,0,0.022851,0,0,0,0.0066342,5.7829e-05,0.0006692,9.2072,0.0024537,0.006293,1.2393e-08,0.74,0.86,0
0.033086,0.038472,0.0066213,0.0002762,0.00068974,0.0010949,0,0,0.065247,-0.004549,0,0.024087,0,0,0,0.0068049,9.259e-05,0.00068974,9.5199,0.0025291,0.0064345,1.3286e-08,0.76,0.86,0
0.034398,0.039486,0.0067011,0.00031956,0.00070207,0.0011582,0,0,0.06599,-0.0042076,0,0.025481,0,0,0,0.0069048,0.00011585,0.00070207,9.9754,0.0025743,0.0065157,1.382e-08,0.78,0.86,0
0.035733,0.040501,0.0068557,0.00037383,0.00072295,0.0012301,0,0,0.06746,-0.0038403,0,0.027061,0,0,0,0.0070813,0.00014825,0.00072295,10.392,0.0026508,0.0066643,1.4821e-08,0.8,0.86,0
0.03709,0.041517,0.0069334,0.00042336,0.00073568,0.001307,0,0,0.068175,-0.0034355,0,0.028755,0,0,0,0.0071861,0.00017074,0.00073568,10.939,0.0026975,0.0067506,1.5427e-08,0.82,0.86,0
0.038467,0.042533,0.0070775,0.00048546,0.0007563,0.0013869,0,0,0.069533,-0.0029792,0,0.030511,0,0,0,0.0073574,0.00020557,0.0007563,11.41,0.0027731,0.006893,1.6459e-08,0.84,0.86,0
0.039864,0.043545,0.0071472,0.00054592,0.00076931,0.0014736,0,0,0.070157,-0.0024573,0,0.032418,0,0,0,0.0074612,0.00023192,0.00076931,12.029,0.0028208,0.0069761,1.7088e-08,0.86,0.86,0
0.041279,0.04455,0.0072659,0.00061925,0.00078852,0.001547,0,0,0.071252,-0.0018619,0,0.034033,0,0,0,0.0076083,0.00027685,0.00078852,12.481,0.0028912,0.0070895,1.798e-08,0.88,0.86,0
0.042709,0.045543,0.00732,0.00069198,0.0008012,0.0016336,0,0,0.071707,-0.0012014,0,0.035938,0,0,0,0.0077007,0.00031124,0.0008012,13.12,0.0029377,0.0071571,1.8532e-08,0.9,0.86,0
0.044152,0.046515,0.0074011,0.00077015,0.00081712,0.0016754,0,0,0.072424,-0.00051673,0,0.036858,0,0,0,0.0078003,0.00037089,0.00081712,13.404,0.0029961,0.0072167,1.9055e-08,0.92,0.86,0
0.045603,0.047457,0.0074363,0.00083647,0.00082728,0.0017441,0,0,0.072699,0.00010112,0,0.03837,0,0,0,0.0078688,0.00040392,0.00082728,13.929,0.0030333,0.0072625,1.9448e-08,0.94,0.86,0
0.047062,0.048358,0.0074877,0.0008831,0.00083708,0.0017284,0,0,0.073156,0.00050624,0,0.038024,0,0,0,0.0079126,0.00045815,0.00083708,13.813,0.0030693,0.0072724,1.9573e-08,0.96,0.86,0
0.048527,0.049209,0.0075114,0.00088737,0.00083988,0.0017672,0,0,0.073387,0.0005224,0,0.038879,0,0,0,0.0079534,0.00044539,0.00083988,14.042,0.0030796,0.0073188,1.9937e-08,0.98,0.86,0
0.05,0.05,0.0075305,0.00083672,0.00083672,0.0017984,0,0,0.073632,-1.622e-16,0,0.039565,0,0,0,0.0079831,0.00038414,0.00083672,14.126,0.003068,0.0073831,2.0408e-08,1,0.86,0
0,0,0.002222,0.00024689,0.00024689,0.0010427,0,0,0.021726,-2.1684e-19,0,0.022939,0,0,0,0.0026706,-0.00020167,0.00024689,23.277,0.00090527,0.0026763,8.9202e-10,0,0.88,0
0.00043453,0.00045878,0.0022342,0.00010149,0.00023357,0.00095954,0,0,0.022007,-0.0014529,0,0.02111,0,0,0,0.0026023,-0.00026667,0.00023357,20.991,0.00085641,0.0026545,8.4679e-10,0.02,0.88,0
0.00088587,0.00099707,0.0023334,1.4716e-05,0.00023481,0.0010576,0,0,0.023085,-0.0024211,0,0.023267,0,0,0,0.0027433,-0.00039518,0.00023481,21.186,0.00086099,0.0028757,1.0266e-09,0.04,0.88,0
0.0013527,0.0016131,0.0023793,-3.8635e-05,0.00023406,0.0010345,0,0,0.023597,-0.0029997,0,0.022759,0,0,0,0.0027615,-0.00042083,0.00023406,20.277,0.00085823,0.0029106,1.0535e-09,0.06,0.88,0
0.0018348,0.0023021,0.0024819,-5.8946e-05,0.0002423,0.0011129,0,0,0.024636,-0.0033137,0,0.024483,0,0,0,0.0029004,-0.00047744,0.0002423,20.609,0.00088842,0.0030817,1.2311e-09,0.08,0.88,0
0.0023329,0.0030578,0.0025367,-6.9056e-05,0.00024677,0.0010813,0,0,0.02519,-0.003474,0,0.02379,0,0,0,0.002927,-0.00045934,0.00024677,19.846,0.00090481,0.0030943,1.2586e-09,0.1,0.88,0
0.0028482,0.0038737,0.0026594,-6.399e-05,0.00025954,0.0011337,0,0,0.026398,-0.0035588,0,0.024941,0,0,0,0.0030696,-0.00047415,0.00025954,19.89,0.00095165,0.0032398,1.4491e-09,0.12,0.88,0
0.0033825,0.0047434,0.0027433,-6.4255e-05,0.0002679,0.0011344,0,0,0.027229,-0.0036538,0,0.024957,0,0,0,0.0031444,-0.00046534,0.0002679,19.471,0.00098232,0.0033047,1.5504e-09,0.14,0.88,0
0.0039374,0.0056613,0.0028518,-5.7765e-05,0.0002794,0.0011361,0,0,0.028296,-0.0037089,0,0.024995,0,0,0,0.0032429,-0.00044884,0.0002794,18.994,0.0010245,0.0033868,1.6885e-09,0.16,0.88,0
0.0045143,0.0066223,0.0029672,-5.1469e-05,0.00029157,0.0011354,0,0,0.029432,-0.0037734,0,0.024978,0,0,0,0.0033465,-0.00043083,0.00029157,18.476,0.0010691,0.003473,1.8416e-09,0.18,0.88,0
0.0051146,0.0076218,0.0030883,-4.6274e-05,0.00030421,0.0011329,0,0,0.030625,-0.0038553,0,0.024925,0,0,0,0.0034549,-0.00041288,0.00030421,17.931,0.0011154,0.0035638,2.0111e-09,0.2,0.88,0
0.0057393,0.0086554,0.0032142,-4.2675e-05,0.00031715,0.0011293,0,0,0.031867,-0.0039581,0,0.024844,0,0,0,0.0035674,-0.00039593,0.00031715,17.37,0.0011629,0.0036593,2.198e-09,0.22,0.88,0
0.0063893,0.0097191,0.0033438,-4.0918e-05,0.00033029,0.0011245,0,0,0.033149,-0.0040833,0,0.024739,0,0,0,0.0036834,-0.00038045,0.00033029,16.801,0.0012111,0.0037592,2.4029e-09,0.24,0.88,0
0.0070653,0.010809,0.0034766,-4.1093e-05,0.00034355,0.0011186,0,0,0.034463,-0.004231,0,0.024609,0,0,0,0.0038021,-0.00036666,0.00034355,16.228,0.0012597,0.003863,2.6265e-09,0.26,0.88,0
0.0077678,0.011921,0.0036117,-4.3176e-05,0.00035685,0.0011113,0,0,0.035803,-0.0044003,0,0.024449,0,0,0,0.003923,-0.00035456,0.00035685,15.652,0.0013085,0.00397,2.8689e-09,0.28,0.88,0
0.0084974,0.013052,0.0037486,-4.7044e-05,0.00037016,0.0011024,0,0,0.037163,-0.0045892,0,0.024253,0,0,0,0.0040456,-0.000344,0.00037016,15.076,0.0013572,0.0040796,3.1301e-09,0.3,0.88,0
0.0092544,0.014198,0.0038869,-5.249e-05,0.00038344,0.0010916,0,0,0.038538,-0.0047952,0,0.024016,0,0,0,0.0041692,-0.00033477,0.00038344,14.498,0.0014059,0.0041913,3.4101e-09,0.32,0.88,0
0.010039,0.015356,0.004026,-5.9214e-05,0.00039668,0.0010787,0,0,0.039923,-0.0050148,0,0.023732,0,0,0,0.0042934,-0.00032657,0.00039668,13.92,0.0014545,0.0043041,3.7085e-09,0.34,0.88,0
0.010851,0.016522,0.0041655,-6.6831e-05,0.00040987,0.0010635,0,0,0.041312,-0.0052437,0,0.023396,0,0,0,0.0044177,-0.00031902,0.00040987,13.341,0.0015029,0.0044176,4.0245e-09,0.36,0.88,0
0.011691,0.017692,0.004305,-7.4873e-05,0.00042301,0.0010457,0,0,0.042702,-0.0054767,0,0.023006,0,0,0,0.0045418,-0.00031173,0.00042301,12.762,0.001551,0.0045311,4.3573e-09,0.38,0.88,0
0.012559,0.018863,0.0044439,-8.2795e-05,0.00043611,0.0010255,0,0,0.044085,-0.0057079,0,0.022561,0,0,0,0.0046653,-0.00030428,0.00043611,12.187,0.0015991,0.0046439,4.706e-09,0.4,0.88,0
0.013455,0.020033,0.0045818,-9e-05,0.00044918,0.001003,0,0,0.045459,-0.005931,0,0.022065,0,0,0,0.004788,-0.00029621,0.00044918,11.618,0.001647,0.0047555,5.0692e-09,0.42,0.88,0
0.014378,0.021198,0.0046959,-9.3767e-05,0.00046021,0.00096003,0,0,0.046592,-0.0060937,0,0.021121,0,0,0,0.0048811,-0.00027903,0.00046021,10.922,0.0016874,0.0048331,5.3439e-09,0.44,0.88,0
0.015328,0.022355,0.0048547,-8.5649e-05,0.00047691,0.00088933,0,0,0.048156,-0.0061881,0,0.019565,0,0,0,0.0050099,-0.00024086,0.00047691,9.9001,0.0017487,0.0049312,5.7214e-09,0.46,0.88,0
0.016304,0.023503,0.0049875,-8.7142e-05,0.00049003,0.00086283,0,0,0.049472,-0.0063489,0,0.018982,0,0,0,0.0051302,-0.00022984,0.00049003,9.3904,0.0017968,0.0050388,6.1209e-09,0.48,0.88,0
0.017306,0.02464,0.005118,-8.5959e-05,0.0005032,0.00083627,0,0,0.050762,-0.0064808,0,0.018398,0,0,0,0.005249,-0.00021705,0.0005032,8.9087,0.0018451,0.0051439,6.5308e-09,0.5,0.88,0
0.018334,0.025764,0.0052461,-8.174e-05,0.00051643,0.0008106,0,0,0.052026,-0.0065799,0,0.017833,0,0,0,0.0053666,-0.00020234,0.00051643,8.4623,0.0018936,0.0052467,6.9507e-09,0.52,0.88,0
0.019387,0.026874,0.0053919,-7.881e-05,0.00053131,0.0008227,0,0,0.053466,-0.0067113,0,0.0181,0,0,0,0.0055129,-0.00019985,0.00053131,8.3698,0.0019481,0.0053846,7.5221e-09,0.54,0.88,0
0.020465,0.02797,0.0054945,-7.1375e-05,0.00054231,0.00082777,0,0,0.054474,-0.0067506,0,0.018211,0,0,0,0.005615,-0.00019187,0.00054231,8.2824,0.0019885,0.0054768,7.9285e-09,0.56,0.88,0
0.021566,0.029052,0.0056165,-5.4218e-05,0.00055623,0.00081123,0,0,0.055663,-0.0067149,0,0.017847,0,0,0,0.0057303,-0.00016799,0.00055623,7.9832,0.0020395,0.0055716,8.3793e-09,0.58,0.88,0
0.022691,0.030122,0.0057373,-3.3273e-05,0.0005704,0.00080007,0,0,0.056836,-0.0066404,0,0.017602,0,0,0,0.0058461,-0.00014215,0.0005704,7.7492,0.0020915,0.0056657,8.8448e-09,0.6,0.88,0
0.02384,0.031179,0.0058572,-8.8465e-06,0.00058484,0.00079528,0,0,0.057996,-0.0065305,0,0.017496,0,0,0,0.0059632,-0.00011475,0.00058484,7.5854,0.0021444,0.0057601,9.3289e-09,0.62,0.88,0
0.025011,0.032225,0.0059771,1.8656e-05,0.00059957,0.00079774,0,0,0.059153,-0.0063901,0,0.01755,0,0,0,0.006082,-8.6301e-05,0.00059957,7.4952,0.0021984,0.0058556,9.8365e-09,0.64,0.88,0
0.026206,0.033262,0.0060975,4.878e-05,0.00061463,0.00080815,0,0,0.060311,-0.0062243,0,0.017779,0,0,0,0.0062036,-5.7334e-05,0.00061463,7.4804,0.0022536,0.0059534,1.0373e-08,0.66,0.88,0
0.027424,0.034291,0.0062191,8.1074e-05,0.00063002,0.00082704,0,0,0.06148,-0.0060383,0,0.018195,0,0,0,0.0063286,-2.841e-05,0.00063002,7.541,0.0023101,0.0060547,1.0946e-08,0.68,0.88,0
0.028665,0.035316,0.0063425,0.00011516,0.00064576,0.00085477,0,0,0.062664,-0.0058367,0,0.018805,0,0,0,0.0064577,-3.6109e-08,0.00064576,7.6754,0.0023678,0.0061602,1.1563e-08,0.7,0.88,0
0.02993,0.036337,0.0064681,0.00015079,0.00066189,0.00089149,0,0,0.063869,-0.0056222,0,0.019613,0,0,0,0.0065915,2.7394e-05,0.00066189,7.8805,0.0024269,0.006271,1.223e-08,0.72,0.88,0
0.03122,0.037356,0.0065963,0.00018792,0.00067842,0.00093724,0,0,0.065097,-0.0053955,0,0.020619,0,0,0,0.0067306,5.3657e-05,0.00067842,8.1522,0.0024875,0.0063875,1.2954e-08,0.74,0.88,0
0.032534,0.038376,0.0067269,0.00022676,0.00069537,0.00099189,0,0,0.066347,-0.0051547,0,0.021822,0,0,0,0.0068749,7.8768e-05,0.00069537,8.4858,0.0025497,0.0065098,1.3741e-08,0.76,0.88,0
0.033874,0.039396,0.0068595,0.00026783,0.00071274,0.0010552,0,0,0.067615,-0.0048939,0,0.023214,0,0,0,0.0070243,0.00010304,0.00071274,8.8765,0.0026134,0.0066375,1.4592e-08,0.78,0.88,0
0.035239,0.040418,0.0069932,0.00031203,0.00073052,0.0011268,0,0,0.068889,-0.0046034,0,0.024789,0,0,0,0.0071781,0.00012712,0.00073052,9.3195,0.0026786,0.0067695,1.5507e-08,0.8,0.88,0
0.036629,0.041442,0.0071263,0.00036061,0.00074869,0.0012059,0,0,0.070153,-0.0042689,0,0.02653,0,0,0,0.0073348,0.00015209,0.00074869,9.8102,0.0027452,0.0069038,1.6475e-08,0.82,0.88,0
0.038045,0.042466,0.0072564,0.00041521,0.00076716,0.0012916,0,0,0.071381,-0.0038714,0,0.028415,0,0,0,0.0074921,0.00017948,0.00076716,10.343,0.0028129,0.0070372,1.7478e-08,0.84,0.88,0
0.039485,0.043489,0.00738,0.0004777,0.00078577,0.0013819,0,0,0.072537,-0.0033888,0,0.030402,0,0,0,0.0076464,0.00021132,0.00078577,10.911,0.0028812,0.0071652,1.8484e-08,0.86,0.88,0
0.040946,0.044506,0.007493,0.00054983,0.00080428,0.0014736,0,0,0.073576,-0.002799,0,0.032419,0,0,0,0.0077928,0.00025003,0.00080428,11.5,0.002949,0.0072815,1.9441e-08,0.88,0.88,0
0.042428,0.045513,0.0075906,0.00063223,0.00082228,0.0015613,0,0,0.074451,-0.0020906,0,0.034349,0,0,0,0.0079248,0.00029796,0.00082228,12.084,0.003015,0.0073787,2.0282e-08,0.9,0.88,0
0.043924,0.0465,0.0076691,0.00072237,0.00083914,0.0016372,0,0,0.075129,-0.0012845,0,0.036019,0,0,0,0.0080356,0.00035584,0.00083914,12.619,0.0030769,0.0074499,2.0935e-08,0.92,0.88,0
0.045433,0.047455,0.0077279,0.00081144,0.00085393,0.001692,0,0,0.075613,-0.00046735,0,0.037224,0,0,0,0.0081196,0.00041972,0.00085393,13.036,0.0031311,0.0074922,2.1355e-08,0.94,0.88,0
0.046949,0.048366,0.0077708,0.00088189,0.00086527,0.001718,0,0,0.075961,0.00018281,0,0.037796,0,0,0,0.0081755,0.00047721,0.00086527,13.255,0.0031727,0.0075118,2.1574e-08,0.96,0.88,0
0.048471,0.049218,0.0078057,0.00090932,0.0008715,0.0017145,0,0,0.076276,0.00041606,0,0.037719,0,0,0,0.0082084,0.00050659,0.0008715,13.219,0.0031955,0.007526,2.172e-08,0.98,0.88,0
0.05,0.05,0.0078177,0.00086863,0.00086863,0.0017763,0,0,0.076439,-3.441e-17,0,0.039078,0,0,0,0.0082454,0.00044092,0.00086863,13.539,0.003185,0.0075996,2.2302e-08,1,0.88,0
0,0,0.0018861,0.00020957,0.00020957,0.00097518,0,0,0.018442,2.1684e-19,0,0.021454,0,0,0,0.0023338,-0.00023811,0.00020957,24.659,0.00076842,0.0023799,6.1052e-10,0,0.9,0
0.00036884,0.00042908,0.0019154,5.8387e-05,0.00019737,0.0009163,0,0,0.018898,-0.0015289,0,0.020159,0,0,0,0.0022914,-0.00031762,0.00019737,22.311,0.00072371,0.0023934,5.9574e-10,0.02,0.9,0
0.00075591,0.0009481,0.0019946,-2.678e-05,0.00019678,0.00095853,0,0,0.019776,-0.0024592,0,0.021088,0,0,0,0.0023769,-0.00040902,0.00019678,21.741,0.00072154,0.0025378,6.8092e-10,0.04,0.9,0
0.0011599,0.0015531,0.0020762,-6.6961e-05,0.00020092,0.00099127,0,0,0.020628,-0.0029467,0,0.021808,0,0,0,0.0024643,-0.00045515,0.00020092,21.386,0.0007367,0.002653,7.6493e-10,0.06,0.9,0
0.001581,0.0022364,0.0021653,-7.9833e-05,0.00020854,0.0010111,0,0,0.021524,-0.0031721,0,0.022245,0,0,0,0.0025535,-0.0004681,0.00020854,21.006,0.00076465,0.0027465,8.503e-10,0.08,0.9,0
0.0020208,0.0029894,0.0022652,-7.884e-05,0.00021863,0.0010199,0,0,0.022512,-0.0032722,0,0.022439,0,0,0,0.0026469,-0.0004605,0.00021863,20.516,0.00080166,0.0028296,9.4146e-10,0.1,0.9,0
0.0024815,0.0038039,0.0023765,-7.1926e-05,0.00023046,0.0010212,0,0,0.023607,-0.0033263,0,0.022467,0,0,0,0.0027465,-0.00044194,0.00023046,19.917,0.00084502,0.0029111,1.0428e-09,0.12,0.9,0
0.0029651,0.0046726,0.002498,-6.3159e-05,0.00024349,0.001018,0,0,0.0248,-0.0033731,0,0.022397,0,0,0,0.0028534,-0.00041851,0.00024349,19.242,0.00089279,0.0029963,1.1574e-09,0.14,0.9,0
0.0034735,0.0055895,0.0026278,-5.4542e-05,0.00025733,0.0010126,0,0,0.026076,-0.0034306,0,0.022276,0,0,0,0.0029671,-0.00039384,0.00025733,18.526,0.00094354,0.0030873,1.2876e-09,0.16,0.9,0
0.0040081,0.0065492,0.0027641,-4.7038e-05,0.00027171,0.001006,0,0,0.027416,-0.0035062,0,0.022132,0,0,0,0.003087,-0.00036995,0.00027171,17.796,0.00099626,0.003185,1.435e-09,0.18,0.9,0
0.0045702,0.007547,0.0029054,-4.1085e-05,0.00028643,0.00099897,0,0,0.028808,-0.0036026,0,0.021977,0,0,0,0.0032121,-0.00034784,0.00028643,17.07,0.0010502,0.003289,1.6007e-09,0.2,0.9,0
0.0051605,0.0085784,0.0030503,-3.6859e-05,0.00030135,0.0009917,0,0,0.030239,-0.0037203,0,0.021817,0,0,0,0.0033414,-0.00032797,0.00030135,16.36,0.0011049,0.0033987,1.7856e-09,0.22,0.9,0
0.0057797,0.0096396,0.0031981,-3.4398e-05,0.00031637,0.00098412,0,0,0.031699,-0.0038584,0,0.021651,0,0,0,0.0034741,-0.00031044,0.00031637,15.668,0.00116,0.0035134,1.9905e-09,0.24,0.9,0
0.0064284,0.010726,0.0033479,-3.3661e-05,0.00033142,0.00097605,0,0,0.033181,-0.0040159,0,0.021473,0,0,0,0.0036094,-0.00029517,0.00033142,14.999,0.0012152,0.003632,2.2159e-09,0.26,0.9,0
0.0071069,0.011835,0.0034991,-3.4549e-05,0.00034645,0.0009672,0,0,0.034679,-0.004191,0,0.021278,0,0,0,0.0037465,-0.00028196,0.00034645,14.349,0.0012703,0.0037539,2.4622e-09,0.28,0.9,0
0.0078156,0.012963,0.0036511,-3.6912e-05,0.00036142,0.00095725,0,0,0.036186,-0.0043816,0,0.021059,0,0,0,0.0038848,-0.00027057,0.00036142,13.717,0.0013252,0.0038781,2.7294e-09,0.3,0.9,0
0.0085544,0.014105,0.0038035,-4.055e-05,0.0003763,0.00094588,0,0,0.037699,-0.0045853,0,0.020809,0,0,0,0.0040237,-0.00026069,0.0003763,13.101,0.0013798,0.004004,3.0176e-09,0.32,0.9,0
0.0093235,0.015258,0.0039559,-4.5211e-05,0.00039107,0.00093282,0,0,0.039213,-0.0047991,0,0.020522,0,0,0,0.0041627,-0.000252,0.00039107,12.499,0.0014339,0.0041309,3.3265e-09,0.34,0.9,0
0.010123,0.016419,0.0041078,-5.0585e-05,0.00040572,0.00091783,0,0,0.040723,-0.0050193,0,0.020192,0,0,0,0.0043013,-0.00024416,0.00040572,11.909,0.0014876,0.0042579,3.6554e-09,0.36,0.9,0
0.010952,0.017585,0.0042587,-5.631e-05,0.00042024,0.00090081,0,0,0.042223,-0.0052421,0,0.019818,0,0,0,0.0044392,-0.00023681,0.00042024,11.331,0.0015409,0.0043846,4.0035e-09,0.38,0.9,0
0.011812,0.018752,0.0044084,-6.1975e-05,0.00043464,0.00088174,0,0,0.043711,-0.0054628,0,0.019398,0,0,0,0.004576,-0.00022961,0.00043464,10.764,0.0015937,0.0045103,4.3699e-09,0.4,0.9,0
0.012701,0.019917,0.0045563,-6.7134e-05,0.00044892,0.00086076,0,0,0.045181,-0.0056766,0,0.018937,0,0,0,0.0047114,-0.00022218,0.00044892,10.211,0.001646,0.0046346,4.7534e-09,0.42,0.9,0
0.013619,0.021077,0.0047022,-7.1319e-05,0.00046309,0.00083813,0,0,0.04663,-0.0058785,0,0.018439,0,0,0,0.0048451,-0.0002142,0.00046309,9.6745,0.001698,0.0047569,5.1527e-09,0.44,0.9,0
0.014566,0.022231,0.0048457,-7.4065e-05,0.00047717,0.00081428,0,0,0.048054,-0.0060636,0,0.017914,0,0,0,0.004977,-0.00020534,0.00047717,9.1578,0.0017496,0.004877,5.5665e-09,0.46,0.9,0
0.015541,0.023376,0.0049867,-7.4934e-05,0.00049118,0.00078981,0,0,0.049451,-0.0062272,0,0.017376,0,0,0,0.0051071,-0.00019531,0.00049118,8.6659,0.001801,0.0049947,5.9938e-09,0.48,0.9,0
0.016544,0.02451,0.005125,-7.3539e-05,0.00050515,0.00076542,0,0,0.050818,-0.0063655,0,0.016839,0,0,0,0.0052353,-0.0001839,0.00050515,8.2043,0.0018522,0.0051097,6.4337e-09,0.5,0.9,0
0.017574,0.025632,0.0052606,-6.9568e-05,0.0005191,0.00074197,0,0,0.052156,-0.0064754,0,0.016323,0,0,0,0.0053619,-0.00017093,0.0005191,7.7788,0.0019034,0.0052222,6.8857e-09,0.52,0.9,0
0.01863,0.026741,0.0053936,-6.2806e-05,0.00053308,0.00072039,0,0,0.053466,-0.0065548,0,0.015849,0,0,0,0.0054871,-0.00015631,0.00053308,7.3957,0.0019546,0.0053323,7.3499e-09,0.54,0.9,0
0.019713,0.027837,0.0055244,-5.3144e-05,0.00054712,0.00070165,0,0,0.05475,-0.0066029,0,0.015436,0,0,0,0.0056113,-0.00014006,0.00054712,7.0612,0.0020061,0.0054404,7.8271e-09,0.56,0.9,0
0.02082,0.028919,0.0056533,-4.0589e-05,0.00056127,0.00068675,0,0,0.056012,-0.0066204,0,0.015109,0,0,0,0.0057349,-0.00012225,0.00056127,6.781,0.002058,0.0055471,8.3192e-09,0.58,0.9,0
0.021953,0.029989,0.0057808,-2.5255e-05,0.00057555,0.00067665,0,0,0.057258,-0.0066089,0,0.014886,0,0,0,0.0058586,-0.00010307,0.00057555,6.5602,0.0021104,0.005653,8.829e-09,0.6,0.9,0
0.023111,0.031047,0.0059077,-7.3464e-06,0.00059004,0.00067226,0,0,0.058494,-0.0065712,0,0.01479,0,0,0,0.0059831,-8.2787e-05,0.00059004,6.403,0.0021635,0.0057591,9.3603e-09,0.62,0.9,0
0.024293,0.032096,0.0060347,1.2863e-05,0.00060476,0.00067436,0,0,0.059729,-0.0065108,0,0.014836,0,0,0,0.0061093,-6.1732e-05,0.00060476,6.3122,0.0022174,0.0058662,9.9184e-09,0.64,0.9,0
0.0255,0.033135,0.0061626,3.5073e-05,0.00061977,0.00068365,0,0,0.060971,-0.0064317,0,0.01504,0,0,0,0.006238,-4.0276e-05,0.00061977,6.2895,0.0022725,0.0059756,1.051e-08,0.66,0.9,0
0.026732,0.034168,0.0062923,5.8993e-05,0.00063513,0.00070067,0,0,0.062229,-0.0063375,0,0.015415,0,0,0,0.0063701,-1.8797e-05,0.00063513,6.3351,0.0023288,0.0060883,1.1141e-08,0.68,0.9,0
0.027989,0.035195,0.0064246,8.4397e-05,0.0006509,0.00072585,0,0,0.063511,-0.0062315,0,0.015969,0,0,0,0.0065066,2.361e-06,0.0006509,6.4483,0.0023866,0.0062055,1.1822e-08,0.7,0.9,0
0.029272,0.036219,0.0065602,0.00011117,0.00066714,0.00075949,0,0,0.064824,-0.0061156,0,0.016709,0,0,0,0.0066485,2.2936e-05,0.00066714,6.6268,0.0024462,0.006328,1.2561e-08,0.72,0.9,0
0.030582,0.037242,0.0066997,0.00013938,0.00068391,0.00080183,0,0,0.066174,-0.0059898,0,0.01764,0,0,0,0.0067963,4.2799e-05,0.00068391,6.8682,0.0025077,0.0064569,1.3367e-08,0.74,0.9,0
0.031919,0.038266,0.0068435,0.00016931,0.00070128,0.00085304,0,0,0.067564,-0.0058517,0,0.018767,0,0,0,0.0069508,6.2007e-05,0.00070128,7.1696,0.0025714,0.0065924,1.4249e-08,0.76,0.9,0
0.033285,0.03929,0.0069916,0.00020156,0.00071931,0.00091328,0,0,0.068995,-0.0056953,0,0.020092,0,0,0,0.0071123,8.0863e-05,0.00071931,7.5282,0.0026375,0.0067349,1.5216e-08,0.78,0.9,0
0.034679,0.040317,0.0071436,0.00023708,0.00073806,0.00098268,0,0,0.07046,-0.0055108,0,0.021619,0,0,0,0.0072806,9.9987e-05,0.00073806,7.9423,0.0027062,0.0068838,1.6269e-08,0.8,0.9,0
0.036103,0.041347,0.0072983,0.00027734,0.00075756,0.0010613,0,0,0.071948,-0.0052825,0,0.023349,0,0,0,0.0074552,0.00012041,0.00075756,8.4108,0.0027777,0.0070379,1.741e-08,0.82,0.9,0
0.037557,0.042378,0.0074538,0.00032433,0.00077782,0.0011491,0,0,0.073436,-0.0049883,0,0.02528,0,0,0,0.0076345,0.0001437,0.00077782,8.9334,0.002852,0.0071947,1.8627e-08,0.84,0.9,0
0.03904,0.04341,0.0076066,0.00038077,0.00079874,0.0012454,0,0,0.074887,-0.0045976,0,0.027399,0,0,0,0.0078153,0.00017215,0.00079874,9.5097,0.0029287,0.0073499,1.9893e-08,0.86,0.9,0
0.040552,0.044439,0.0077515,0.00045001,0.00082015,0.0013484,0,0,0.076245,-0.0040716,0,0.029664,0,0,0,0.0079926,0.00020896,0.00082015,10.136,0.0030072,0.0074967,2.1155e-08,0.88,0.9,0
0.04209,0.045459,0.0078813,0.00053554,0.00084168,0.0014537,0,0,0.077436,-0.0033675,0,0.031982,0,0,0,0.0081585,0.00025831,0.00084168,10.797,0.0030862,0.0076253,2.2322e-08,0.9,0.9,0
0.04365,0.046464,0.0079881,0.00063922,0.00086273,0.0015529,0,0,0.078379,-0.0024586,0,0.034164,0,0,0,0.0083027,0.00032454,0.00086273,11.455,0.0031633,0.0077232,2.3273e-08,0.92,0.9,0
0.045225,0.047439,0.0080668,0.0007558,0.00088226,0.0016324,0,0,0.07903,-0.0013911,0,0.035913,0,0,0,0.0084148,0.00040788,0.00088226,12.032,0.003235,0.0077805,2.3888e-08,0.94,0.9,0
0.046811,0.048366,0.0081196,0.00086521,0.00089848,0.0016775,0,0,0.079433,-0.00036599,0,0.036904,0,0,0,0.0084887,0.0004961,0.00089848,12.41,0.0032944,0.0077992,2.4147e-08,0.96,0.9,0
0.048403,0.049225,0.0081564,0.00093016,0.00090866,0.0016815,0,0,0.079726,0.00023648,0,0.036994,0,0,0,0.0085286,0.00055803,0.00090866,12.479,0.0033318,0.0078011,2.4218e-08,0.98,0.9,0
0.05,0.05,0.0081682,0.00090758,0.00090758,0.0017606,0,0,0.079867,1.4711e-17,0,0.038733,0,0,0,0.0085726,0.00050319,0.00090758,12.936,0.0033278,0.007875,2.486e-08,1,0.9,0
0,0,0.0014972,0.00016635,0.00016635,0.00090369,0,0,0.014639,1.0842e-19,0,0.019881,0,0,0,0.001954,-0.00029048,0.00016635,26.817,0.00060995,0.0020545,3.7223e-10,0,0.92,0
0.00029278,0.00039762,0.0015296,7.9039e-06,0.00015375,0.00083184,0,0,0.015135,-0.0016043,0,0.0183,0,0,0,0.0018961,-0.00035856,0.00015375,23.776,0.00056376,0.0020472,3.4934e-10,0.02,0.92,0
0.00060538,0.0008987,0.001619,-6.4534e-05,0.00015545,0.00087249,0,0,0.016099,-0.0024198,0,0.019195,0,0,0,0.0019896,-0.00043513,0.00015545,23.013,0.00056997,0.00219,4.101e-10,0.04,0.92,0
0.00093674,0.0014952,0.001715,-8.65e-05,0.00016285,0.0008963,0,0,0.017073,-0.0027428,0,0.019718,0,0,0,0.0020849,-0.00045646,0.00016285,22.429,0.00059711,0.0022953,4.7198e-10,0.06,0.92,0
0.0012883,0.0021752,0.0018245,-8.521e-05,0.00017392,0.000903,0,0,0.018156,-0.0028505,0,0.019866,0,0,0,0.0021838,-0.00044458,0.00017392,21.701,0.00063772,0.0023802,5.381e-10,0.08,0.92,0
0.001663,0.0029269,0.0019495,-7.5996e-05,0.00018735,0.00089873,0,0,0.019383,-0.0028968,0,0.019772,0,0,0,0.0022907,-0.00041727,0.00018735,20.793,0.00068694,0.002462,6.1346e-10,0.1,0.92,0
0.0020637,0.0037406,0.0020881,-6.4969e-05,0.00020231,0.00088908,0,0,0.020743,-0.0029401,0,0.01956,0,0,0,0.0024077,-0.00038464,0.00020231,19.776,0.0007418,0.0025501,7.0195e-10,0.12,0.92,0
0.0024927,0.0046084,0.0022367,-5.4516e-05,0.00021822,0.00087751,0,0,0.022204,-0.0030001,0,0.019305,0,0,0,0.0025342,-0.00035197,0.00021822,18.725,0.00080014,0.0026475,8.0608e-10,0.14,0.92,0
0.0029518,0.0055241,0.0023925,-4.5497e-05,0.0002347,0.00086579,0,0,0.023736,-0.0030822,0,0.019047,0,0,0,0.0026687,-0.00032167,0.0002347,17.692,0.00086056,0.0027546,9.2761e-10,0.16,0.92,0
0.0034421,0.0064821,0.0025531,-3.8163e-05,0.00025149,0.00085467,0,0,0.025317,-0.0031862,0,0.018803,0,0,0,0.0028096,-0.00029467,0.00025149,16.706,0.00092214,0.0028704,1.0679e-09,0.18,0.92,0
0.0039645,0.0074777,0.0027169,-3.253e-05,0.00026844,0.00084436,0,0,0.026933,-0.0033107,0,0.018576,0,0,0,0.0029555,-0.00027113,0.00026844,15.779,0.00098428,0.0029936,1.2283e-09,0.2,0.92,0
0.0045195,0.0085066,0.0028829,-2.8523e-05,0.00028544,0.00083475,0,0,0.028572,-0.0034536,0,0.018364,0,0,0,0.0031052,-0.00025088,0.00028544,14.916,0.0010466,0.0031227,1.4097e-09,0.22,0.92,0
0.0051074,0.0095648,0.0030502,-2.6037e-05,0.00030241,0.00082558,0,0,0.030225,-0.0036129,0,0.018163,0,0,0,0.0032577,-0.0002336,0.00030241,14.113,0.0011088,0.0032566,1.613e-09,0.24,0.92,0
0.0057285,0.010648,0.0032181,-2.4952e-05,0.00031931,0.00081651,0,0,0.031887,-0.0037869,0,0.017963,0,0,0,0.0034121,-0.00021892,0.00031931,13.364,0.0011708,0.003394,1.839e-09,0.26,0.92,0
0.0063828,0.011754,0.0033862,-2.5137e-05,0.00033611,0.00080715,0,0,0.033551,-0.0039737,0,0.017757,0,0,0,0.0035676,-0.00020647,0.00033611,12.662,0.0012324,0.0035341,2.0881e-09,0.28,0.92,0
0.0070705,0.012877,0.0035541,-2.6445e-05,0.00035277,0.00079714,0,0,0.035215,-0.0041713,0,0.017537,0,0,0,0.0037235,-0.00019589,0.00035277,12.001,0.0012935,0.003676,2.3607e-09,0.3,0.92,0
0.0077914,0.014015,0.0037213,-2.8709e-05,0.00036926,0.00078613,0,0,0.036873,-0.0043777,0,0.017295,0,0,0,0.0038794,-0.00018684,0.00036926,11.373,0.001354,0.0038187,2.6568e-09,0.32,0.92,0
0.0085454,0.015164,0.0038875,-3.1731e-05,0.00038557,0.00077383,0,0,0.038521,-0.0045904,0,0.017024,0,0,0,0.0040347,-0.00017899,0.00038557,10.774,0.0014138,0.0039617,2.9761e-09,0.34,0.92,0
0.0093323,0.016321,0.0040522,-3.5284e-05,0.00040169,0.00076003,0,0,0.040156,-0.0048067,0,0.016721,0,0,0,0.004189,-0.00017203,0.00040169,10.2,0.0014729,0.0041043,3.3182e-09,0.36,0.92,0
0.010152,0.017482,0.0042151,-3.9107e-05,0.0004176,0.00074458,0,0,0.041773,-0.0050238,0,0.016381,0,0,0,0.0043417,-0.00016566,0.0004176,9.6461,0.0015312,0.0042459,3.6823e-09,0.38,0.92,0
0.011003,0.018645,0.0043758,-4.2914e-05,0.00043329,0.00072747,0,0,0.043368,-0.0052383,0,0.016004,0,0,0,0.0044925,-0.0001596,0.00043329,9.1125,0.0015887,0.0043858,4.0673e-09,0.4,0.92,0
0.011886,0.019806,0.004534,-4.6391e-05,0.00044876,0.0007088,0,0,0.044938,-0.0054467,0,0.015594,0,0,0,0.0046412,-0.00015357,0.00044876,8.5984,0.0016455,0.0045238,4.4719e-09,0.42,0.92,0
0.012801,0.020962,0.0046894,-4.9219e-05,0.00046402,0.00068879,0,0,0.046479,-0.0056456,0,0.015154,0,0,0,0.0047875,-0.00014731,0.00046402,8.105,0.0017014,0.0046593,4.8948e-09,0.44,0.92,0
0.013746,0.022113,0.0048417,-5.1079e-05,0.00047906,0.00066781,0,0,0.047989,-0.0058315,0,0.014692,0,0,0,0.0049312,-0.00014059,0.00047906,7.6343,0.0017565,0.0047921,5.3346e-09,0.46,0.92,0
0.01472,0.023254,0.0049907,-5.167e-05,0.0004939,0.00064634,0,0,0.049465,-0.0060013,0,0.014219,0,0,0,0.0050722,-0.0001332,0.0004939,7.1895,0.001811,0.0049219,5.7901e-09,0.48,0.92,0
0.015724,0.024385,0.0051364,-5.073e-05,0.00050857,0.000625,0,0,0.050906,-0.0061523,0,0.01375,0,0,0,0.0052106,-0.00012497,0.00050857,6.7744,0.0018648,0.0050488,6.2601e-09,0.5,0.92,0
0.016757,0.025504,0.0052789,-4.8045e-05,0.00052309,0.0006045,0,0,0.052314,-0.0062825,0,0.013299,0,0,0,0.0053466,-0.00011578,0.00052309,6.3936,0.001918,0.0051727,6.7441e-09,0.52,0.92,0
0.017817,0.026611,0.0054184,-4.3467e-05,0.00053749,0.00058562,0,0,0.05369,-0.0063906,0,0.012884,0,0,0,0.0054805,-0.00010555,0.00053749,6.0515,0.0019708,0.0052939,7.2422e-09,0.54,0.92,0
0.018904,0.027706,0.0055552,-3.692e-05,0.00055183,0.00056919,0,0,0.055038,-0.0064763,0,0.012522,0,0,0,0.0056126,-9.4266e-05,0.00055183,5.7531,0.0020234,0.0054128,7.7551e-09,0.56,0.92,0
0.020018,0.028788,0.0056899,-2.8404e-05,0.00056615,0.00055606,0,0,0.056362,-0.0065401,0,0.012233,0,0,0,0.0057435,-8.1975e-05,0.00056615,5.5028,0.0020759,0.00553,8.2846e-09,0.58,0.92,0
0.021159,0.029857,0.0058232,-1.7991e-05,0.00058052,0.00054706,0,0,0.057669,-0.0065836,0,0.012035,0,0,0,0.005874,-6.8785e-05,0.00058052,5.3046,0.0021286,0.0056462,8.8336e-09,0.6,0.92,0
0.022325,0.030916,0.0059557,-5.8109e-06,0.00059499,0.00054297,0,0,0.058968,-0.0066088,0,0.011945,0,0,0,0.0060047,-5.486e-05,0.00059499,5.1618,0.0021816,0.0057622,9.4064e-09,0.62,0.92,0
0.023517,0.031964,0.0060885,7.9631e-06,0.00060965,0.00054448,0,0,0.060267,-0.0066185,0,0.011979,0,0,0,0.0061369,-4.0408e-05,0.00060965,5.0767,0.0022354,0.0058792,1.0008e-08,0.64,0.92,0
0.024736,0.033004,0.0062225,2.3141e-05,0.00062457,0.00055223,0,0,0.061577,-0.0066157,0,0.012149,0,0,0,0.0062713,-2.5665e-05,0.00062457,5.0508,0.0022901,0.0059984,1.0647e-08,0.66,0.92,0
0.02598,0.034038,0.0063589,3.9548e-05,0.00063984,0.00056673,0,0,0.062909,-0.0066032,0,0.012468,0,0,0,0.0064093,-1.0875e-05,0.00063984,5.0843,0.0023461,0.0061208,1.133e-08,0.68,0.92,0
0.027252,0.035067,0.0064986,5.7056e-05,0.00065557,0.00058843,0,0,0.064273,-0.0065836,0,0.012946,0,0,0,0.0065519,3.744e-06,0.00065557,5.1768,0.0024038,0.0062478,1.2067e-08,0.7,0.92,0
0.028551,0.036092,0.0066429,7.5629e-05,0.00067185,0.00061773,0,0,0.065681,-0.0065584,0,0.01359,0,0,0,0.0067005,1.803e-05,0.00067185,5.3271,0.0024634,0.0063807,1.2871e-08,0.72,0.92,0
0.029879,0.037117,0.0067926,9.5366e-05,0.0006888,0.00065497,0,0,0.067142,-0.0065277,0,0.014409,0,0,0,0.0068561,3.1913e-05,0.0006888,5.5335,0.0025256,0.0065206,1.3753e-08,0.74,0.92,0
0.031237,0.038142,0.0069488,0.00011655,0.00070653,0.00070053,0,0,0.068665,-0.0064898,0,0.015412,0,0,0,0.0070199,4.5464e-05,0.00070653,5.7944,0.0025906,0.0066685,1.4727e-08,0.76,0.92,0
0.032626,0.039169,0.007112,0.00013973,0.00072518,0.00075488,0,0,0.070255,-0.0064399,0,0.016607,0,0,0,0.0071928,5.894e-05,0.00072518,6.109,0.002659,0.0068252,1.5806e-08,0.78,0.92,0
0.034047,0.040198,0.0072828,0.00016579,0.00074486,0.00081858,0,0,0.071917,-0.0063697,0,0.018009,0,0,0,0.0073757,7.2857e-05,0.00074486,6.4773,0.0027311,0.0069911,1.7004e-08,0.8,0.92,0
0.035502,0.041231,0.0074609,0.00019611,0.0007657,0.00089239,0,0,0.073647,-0.0062655,0,0.019633,0,0,0,0.0075689,8.8096e-05,0.0007657,6.9014,0.0028076,0.0071661,1.8332e-08,0.82,0.92,0
0.036993,0.042267,0.0076455,0.00023273,0.00078782,0.00097724,0,0,0.075434,-0.006106,0,0.021499,0,0,0,0.0077721,0.00010606,0.00078782,7.3854,0.0028887,0.0073489,1.9794e-08,0.84,0.92,0
0.03852,0.043305,0.007834,0.00027867,0.00081127,0.0010741,0,0,0.07725,-0.0058585,0,0.02363,0,0,0,0.0079837,0.00012895,0.00081127,7.9359,0.0029747,0.0075368,2.1382e-08,0.86,0.92,0
0.040083,0.044344,0.0080218,0.00033836,0.00083601,0.0011834,0,0,0.079043,-0.0054742,0,0.026036,0,0,0,0.0081999,0.00016021,0.00083601,8.5607,0.0030654,0.007724,2.3058e-08,0.88,0.92,0
0.041682,0.045378,0.0082001,0.00041798,0.00086181,0.0013041,0,0,0.080721,-0.0048821,0,0.02869,0,0,0,0.0084128,0.00020526,0.00086181,9.2644,0.00316,0.0078998,2.4732e-08,0.9,0.92,0
0.043312,0.046401,0.0083555,0.00052515,0.00088806,0.00143,0,0,0.082142,-0.003992,0,0.031461,0,0,0,0.0086085,0.00027216,0.00088806,10.033,0.0032562,0.0080461,2.6225e-08,0.92,0.92,0
0.044967,0.0474,0.0084739,0.00066581,0.00091397,0.0015459,0,0,0.083159,-0.0027297,0,0.034011,0,0,0,0.0087688,0.00037087,0.00091397,10.801,0.0033512,0.00814,2.7286e-08,0.94,0.92,0
0.046638,0.048352,0.0085499,0.00082521,0.00093751,0.0016251,0,0,0.083737,-0.0012354,0,0.035753,0,0,0,0.0088779,0.00049724,0.00093751,11.41,0.0034376,0.0081694,2.7729e-08,0.96,0.92,0
0.048317,0.049228,0.0085945,0.00094903,0.00095436,0.0016477,0,0,0.084042,-5.8541e-05,0,0.036248,0,0,0,0.0089345,0.00060907,0.00095436,11.658,0.0034993,0.0081583,2.7719e-08,0.98,0.92,0
0.05,0.05,0.0086076,0.00095639,0.00095639,0.0017548,0,0,0.084163,1.0389e-16,0,0.038605,0,0,0,0.0089908,0.00057314,0.00095639,12.32,0.0035068,0.0082327,2.8449e-08,1,0.92,0
0,0,0.0010338,0.00011486,0.00011486,0.00082933,0,0,0.010108,1.0842e-19,0,0.018245,0,0,0,0.0015224,-0.00037378,0.00011486,30.507,0.00042116,0.0017052,1.8592e-10,0,0.94,0
0.00020216,0.00036491,0.0010709,-4.5691e-05,0.00010252,0.00073568,0,0,0.010652,-0.0016303,0,0.016185,0,0,0,0.0014361,-0.00041093,0.00010252,26.403,0.00037591,0.0016513,1.5814e-10,0.02,0.94,0
0.00042609,0.0008513,0.0011766,-9.0664e-05,0.0001086,0.00076879,0,0,0.011748,-0.0021919,0,0.016913,0,0,0,0.0015393,-0.00045328,0.0001086,25.252,0.00039819,0.0017794,1.9509e-10,0.04,0.94,0
0.0006721,0.0014434,0.001298,-8.7662e-05,0.00012103,0.00077438,0,0,0.012947,-0.0022957,0,0.017036,0,0,0,0.0016443,-0.00043391,0.00012103,24.091,0.00044379,0.0018637,2.3579e-10,0.06,0.94,0
0.00094396,0.0021224,0.0014418,-7.4782e-05,0.00013671,0.00076274,0,0,0.014356,-0.0023264,0,0.01678,0,0,0,0.0017591,-0.00039202,0.00013671,22.584,0.00050125,0.0019415,2.84e-10,0.08,0.94,0
0.0012464,0.0028735,0.0016054,-6.1301e-05,0.00015441,0.00074442,0,0,0.015961,-0.0023728,0,0.016377,0,0,0,0.0018894,-0.00034538,0.00015441,20.887,0.00056616,0.0020316,3.4437e-10,0.1,0.94,0
0.0015824,0.0036863,0.0017811,-4.961e-05,0.00017315,0.00072534,0,0,0.017687,-0.0024504,0,0.015957,0,0,0,0.0020336,-0.00030216,0.00017315,19.197,0.00063488,0.0021381,4.1961e-10,0.12,0.94,0
0.0019539,0.0045526,0.0019637,-4.0052e-05,0.00019236,0.00070773,0,0,0.019484,-0.0025565,0,0.01557,0,0,0,0.0021884,-0.00026482,0.00019236,17.619,0.00070532,0.0022596,5.1174e-10,0.14,0.94,0
0.0023618,0.0054662,0.0021498,-3.2466e-05,0.00021174,0.00069225,0,0,0.021319,-0.0026862,0,0.015229,0,0,0,0.0023509,-0.00023353,0.00021174,16.196,0.00077637,0.0023931,6.2251e-10,0.16,0.94,0
0.0028066,0.0064218,0.0023377,-2.6597e-05,0.00023111,0.00067887,0,0,0.023173,-0.0028348,0,0.014935,0,0,0,0.0025188,-0.00020766,0.00023111,14.934,0.00084741,0.0025357,7.5353e-10,0.18,0.94,0
0.0032887,0.0074146,0.0025262,-2.2208e-05,0.0002504,0.00066729,0,0,0.025034,-0.0029986,0,0.01468,0,0,0,0.0026903,-0.00018636,0.0002504,13.82,0.00091812,0.0026851,9.0622e-10,0.2,0.94,0
0.003808,0.0084403,0.0027146,-1.9103e-05,0.00026954,0.0006571,0,0,0.026895,-0.0031751,0,0.014456,0,0,0,0.0028643,-0.00016885,0.00026954,12.838,0.00098833,0.0028394,1.0819e-09,0.22,0.94,0
0.0043645,0.009495,0.0029024,-1.7124e-05,0.00028852,0.00064786,0,0,0.028752,-0.0033621,0,0.014253,0,0,0,0.0030397,-0.00015443,0.00028852,11.966,0.0010579,0.0029973,1.2817e-09,0.24,0.94,0
0.0049581,0.010575,0.0030893,-1.6136e-05,0.00030732,0.00063911,0,0,0.030602,-0.003558,0,0.01406,0,0,0,0.0032157,-0.00014252,0.00030732,11.186,0.0011268,0.0031574,1.5066e-09,0.26,0.94,0
0.0055885,0.011676,0.0032751,-1.6019e-05,0.00032591,0.00063044,0,0,0.032441,-0.0037612,0,0.01387,0,0,0,0.0033917,-0.00013265,0.00032591,10.481,0.001195,0.0033189,1.7574e-09,0.28,0.94,0
0.0062557,0.012796,0.0034594,-1.6657e-05,0.00034428,0.00062146,0,0,0.034266,-0.0039703,0,0.013672,0,0,0,0.0035672,-0.00012442,0.00034428,9.8376,0.0012623,0.003481,2.0346e-09,0.3,0.94,0
0.0069592,0.013929,0.003642,-1.7928e-05,0.0003624,0.00061183,0,0,0.036075,-0.0041837,0,0.01346,0,0,0,0.0037416,-0.0001175,0.0003624,9.2434,0.0013288,0.0036429,2.3383e-09,0.32,0.94,0
0.0076987,0.015074,0.0038225,-1.9699e-05,0.00038028,0.00060127,0,0,0.037864,-0.0043998,0,0.013228,0,0,0,0.0039144,-0.0001116,0.00038028,8.6897,0.0013943,0.003804,2.6684e-09,0.34,0.94,0
0.0084738,0.016227,0.0040006,-2.1821e-05,0.00039788,0.00058958,0,0,0.03963,-0.0046166,0,0.012971,0,0,0,0.0040852,-0.00010646,0.00039788,8.1692,0.0014589,0.0039636,3.0243e-09,0.36,0.94,0
0.0092839,0.017384,0.0041759,-2.4129e-05,0.00041518,0.00057662,0,0,0.041368,-0.0048324,0,0.012686,0,0,0,0.0042536,-0.00010185,0.00041518,7.6769,0.0015223,0.0041214,3.4053e-09,0.38,0.94,0
0.010129,0.018542,0.0043481,-2.6441e-05,0.00043216,0.00056235,0,0,0.043075,-0.0050447,0,0.012372,0,0,0,0.0044192,-9.7575e-05,0.00043216,7.2093,0.0015846,0.0042766,3.8102e-09,0.4,0.94,0
0.011007,0.019699,0.0045168,-2.8565e-05,0.00044883,0.00054686,0,0,0.044748,-0.0052513,0,0.012031,0,0,0,0.0045817,-9.3431e-05,0.00044883,6.7646,0.0016457,0.004429,4.2374e-09,0.42,0.94,0
0.011918,0.020852,0.0046819,-3.0302e-05,0.00046515,0.0005303,0,0,0.046384,-0.00545,0,0.011667,0,0,0,0.0047408,-8.9245e-05,0.00046515,6.3423,0.0017056,0.0045781,4.6853e-09,0.44,0.94,0
0.012862,0.021998,0.0048429,-3.1457e-05,0.00048114,0.00051297,0,0,0.047979,-0.0056386,0,0.011285,0,0,0,0.0048963,-8.4857e-05,0.00048114,5.943,0.0017642,0.0047237,5.1521e-09,0.46,0.94,0
0.013838,0.023136,0.0049998,-3.1844e-05,0.0004968,0.00049526,0,0,0.049533,-0.0058151,0,0.010896,0,0,0,0.0050481,-8.0129e-05,0.0004968,5.5683,0.0018216,0.0048655,5.6363e-09,0.48,0.94,0
0.014844,0.024264,0.0051527,-3.1303e-05,0.00051214,0.00047765,0,0,0.051046,-0.0059778,0,0.010508,0,0,0,0.0051963,-7.4947e-05,0.00051214,5.2207,0.0018778,0.0050036,6.1363e-09,0.5,0.94,0
0.015879,0.025381,0.0053015,-2.9702e-05,0.00052718,0.00046072,0,0,0.052518,-0.0061257,0,0.010136,0,0,0,0.005341,-6.9224e-05,0.00052718,4.903,0.001933,0.0051381,6.6513e-09,0.52,0.94,0
0.016944,0.026485,0.0054467,-2.6951e-05,0.00054197,0.00044509,0,0,0.053952,-0.0062581,0,0.0097919,0,0,0,0.0054826,-6.2907e-05,0.00054197,4.6186,0.0019872,0.0052692,7.181e-09,0.54,0.94,0
0.018038,0.027578,0.0055886,-2.3001e-05,0.00055656,0.00043142,0,0,0.055352,-0.0063751,0,0.0094913,0,0,0,0.0056215,-5.5975e-05,0.00055656,4.3707,0.0020407,0.0053974,7.7259e-09,0.56,0.94,0
0.019158,0.028657,0.0057278,-1.7851e-05,0.000571,0.00042041,0,0,0.056725,-0.0064773,0,0.009249,0,0,0,0.0057584,-4.845e-05,0.000571,4.1628,0.0020936,0.0055233,8.2879e-09,0.58,0.94,0
0.020307,0.029726,0.0058652,-1.1542e-05,0.00058537,0.00041272,0,0,0.058078,-0.006566,0,0.0090797,0,0,0,0.0058941,-4.0385e-05,0.00058537,3.9976,0.0021463,0.0056476,8.8699e-09,0.6,0.94,0
0.021482,0.030783,0.0060017,-4.1503e-06,0.00059976,0.00040898,0,0,0.059422,-0.006643,0,0.0089975,0,0,0,0.0060294,-3.1872e-05,0.00059976,3.8777,0.0021991,0.0057715,9.4763e-09,0.62,0.94,0
0.022683,0.031831,0.0061384,4.2234e-06,0.00061427,0.00040977,0,0,0.060766,-0.0067105,0,0.009015,0,0,0,0.0061657,-2.3029e-05,0.00061427,3.8049,0.0022523,0.005896,1.0113e-08,0.64,0.94,0
0.023912,0.03287,0.0062766,1.347e-05,0.000629,0.00041563,0,0,0.062123,-0.0067709,0,0.0091438,0,0,0,0.006304,-1.3992e-05,0.000629,3.7801,0.0023063,0.0060223,1.0788e-08,0.66,0.94,0
0.025168,0.033903,0.0064175,2.3489e-05,0.0006441,0.000427,0,0,0.063507,-0.0068267,0,0.0093941,0,0,0,0.0064459,-4.9011e-06,0.0006441,3.8038,0.0023617,0.006152,1.1511e-08,0.68,0.94,0
0.026452,0.034932,0.0065626,3.4217e-05,0.00065968,0.00044431,0,0,0.064932,-0.0068801,0,0.0097747,0,0,0,0.0065927,4.1173e-06,0.00065968,3.8756,0.0024188,0.0062864,1.2293e-08,0.7,0.94,0
0.027765,0.035957,0.0067132,4.5649e-05,0.00067589,0.00046792,0,0,0.066411,-0.0069327,0,0.010294,0,0,0,0.0067459,1.2972e-05,0.00067589,3.9948,0.0024783,0.0064272,1.3148e-08,0.72,0.94,0
0.029109,0.036981,0.0068711,5.7872e-05,0.0006929,0.00049823,0,0,0.06796,-0.0069853,0,0.010961,0,0,0,0.0069073,2.1632e-05,0.0006929,4.1603,0.0025406,0.0065758,1.4092e-08,0.74,0.94,0
0.030484,0.038006,0.0070376,7.1106e-05,0.00071087,0.00053569,0,0,0.069594,-0.0070374,0,0.011785,0,0,0,0.0070785,3.0155e-05,0.00071087,4.3715,0.0026065,0.0067339,1.5144e-08,0.76,0.94,0
0.031893,0.039033,0.0072142,8.5755e-05,0.00073,0.00058089,0,0,0.071326,-0.0070867,0,0.01278,0,0,0,0.0072612,3.8729e-05,0.00073,4.6283,0.0026767,0.0069029,1.6323e-08,0.78,0.94,0
0.033337,0.040062,0.0074024,0.00010249,0.00075048,0.00063465,0,0,0.073171,-0.007128,0,0.013962,0,0,0,0.0074571,4.7723e-05,0.00075048,4.932,0.0027518,0.0070842,1.7655e-08,0.8,0.94,0
0.034819,0.041096,0.0076033,0.00012237,0.00077256,0.00069814,0,0,0.075138,-0.0071521,0,0.015359,0,0,0,0.0076679,5.7777e-05,0.00077256,5.2862,0.0028327,0.0072791,1.9166e-08,0.82,0.94,0
0.036342,0.042134,0.0078178,0.00014707,0.00079649,0.000773,0,0,0.077234,-0.0071436,0,0.017006,0,0,0,0.0078949,6.9949e-05,0.00079649,5.6975,0.0029205,0.0074882,2.0882e-08,0.84,0.94,0
0.037909,0.043175,0.0080459,0.00017924,0.00082251,0.00086154,0,0,0.079457,-0.007076,0,0.018954,0,0,0,0.0081391,8.5989e-05,0.00082251,6.1774,0.0030159,0.0077113,2.2828e-08,0.86,0.94,0
0.039521,0.04422,0.0082856,0.00022316,0.00085088,0.00096678,0,0,0.081782,-0.006905,0,0.021269,0,0,0,0.0083999,0.00010885,0.00085088,6.7431,0.0031199,0.0079461,2.5012e-08,0.88,0.94,0
0.04118,0.045264,0.008531,0.00028588,0.00088168,0.001092,0,0,0.084142,-0.0065538,0,0.024025,0,0,0,0.0086731,0.0001437,0.00088168,7.4183,0.0032328,0.0081855,2.7397e-08,0.9,0.94,0
0.042887,0.046304,0.0087671,0.00037919,0.00091463,0.001239,0,0,0.086377,-0.0058898,0,0.027258,0,0,0,0.0089463,0.0002,0.00091463,8.2293,0.0033536,0.0084118,2.9827e-08,0.92,0.94,0
0.044635,0.047329,0.0089633,0.00052083,0.00094841,0.0013988,0,0,0.088164,-0.0047035,0,0.030773,0,0,0,0.009189,0.00029511,0.00094841,9.1667,0.0034775,0.0085859,3.1874e-08,0.94,0.94,0
0.046413,0.048316,0.0090948,0.00073335,0.00098281,0.0015403,0,0,0.089231,-0.0027441,0,0.033886,0,0,0,0.0093695,0.00045864,0.00098281,10.112,0.0036036,0.0086606,3.2952e-08,0.96,0.94,0
0.048204,0.049223,0.0091641,0.00095538,0.0010119,0.0016047,0,0,0.089674,-0.00062231,0,0.035303,0,0,0,0.0094667,0.00065285,0.0010119,10.677,0.0037105,0.0086399,3.2931e-08,0.98,0.94,0
0.05,0.05,0.0091818,0.0010202,0.0010202,0.0017659,0,0,0.089777,2.3717e-17,0,0.03885,0,0,0,0.0095475,0.00065449,0.0010202,11.7,0.0037407,0.0087159,3.3804e-08,1,0.94,0
0,0,0.00045447,5.0497e-05,5.0497e-05,0.00075547,0,0,0.0044437,2.7105e-19,0,0.01662,0,0,0,0.0010345,-0.00052953,5.0497e-05,37.516,0.00018515,0.0013695,5.6674e-11,0,0.96,0
8.8874e-05,0.00033241,0.00050343,-9.3165e-05,4.1026e-05,0.00061912,0,0,0.0050864,-0.0014761,0,0.013621,0,0,0,0.00089237,-0.0004821,4.1026e-05,32.137,0.00015043,0.0012016,3.5599e-11,0.02,0.96,0
0.00020346,0.00081102,0.00064267,-8.4855e-05,5.5782e-05,0.00062335,0,0,0.0064558,-0.001547,0,0.013714,0,0,0,0.0010006,-0.00044282,5.5782e-05,29.867,0.00020453,0.0012698,5.3154e-11,0.04,0.96,0
0.00034711,0.0014034,0.00081563,-6.6161e-05,7.4946e-05,0.00060222,0,0,0.0081475,-0.0015522,0,0.013249,0,0,0,0.0011211,-0.00037163,7.4946e-05,26.896,0.0002748,0.001327,7.5808e-11,0.06,0.96,0
0.00052936,0.0020822,0.0010224,-5.0349e-05,9.7207e-05,0.00057271,0,0,0.010177,-0.0016231,0,0.0126,0,0,0,0.0012707,-0.00029864,9.7207e-05,23.438,0.00035642,0.0014136,1.0764e-10,0.08,0.96,0
0.0007542,0.002832,0.001242,-3.857e-05,0.00012034,0.00054573,0,0,0.012338,-0.0017481,0,0.012006,0,0,0,0.001443,-0.00023958,0.00012034,20.221,0.00044126,0.0015346,1.5176e-10,0.1,0.96,0
0.0010229,0.0036426,0.0014647,-2.9853e-05,0.00014349,0.00052301,0,0,0.014533,-0.0019067,0,0.011506,0,0,0,0.0016296,-0.0001947,0.00014349,17.494,0.00052611,0.0016809,2.1101e-10,0.12,0.96,0
0.0013355,0.0045062,0.0016866,-2.3355e-05,0.00016632,0.00050441,0,0,0.016723,-0.0020865,0,0.011097,0,0,0,0.0018243,-0.00016106,0.00016632,15.27,0.00060985,0.0018436,2.8791e-10,0.14,0.96,0
0.0016918,0.0054166,0.0019062,-1.8486e-05,0.00018877,0.00048927,0,0,0.018891,-0.0022798,0,0.010764,0,0,0,0.0020234,-0.00013572,0.00018877,13.475,0.00069215,0.0020166,3.8466e-10,0.16,0.96,0
0.0020912,0.0063687,0.002123,-1.4853e-05,0.00021082,0.00047689,0,0,0.021034,-0.0024824,0,0.010492,0,0,0,0.0022246,-0.00011641,0.00021082,12.022,0.00077299,0.0021957,5.0323e-10,0.18,0.96,0
0.0025332,0.0073577,0.0023371,-1.2194e-05,0.00023249,0.00046663,0,0,0.023151,-0.0026915,0,0.010266,0,0,0,0.0024264,-0.00010148,0.00023249,10.833,0.00085247,0.0023785,6.4542e-10,0.2,0.96,0
0.0030172,0.0083796,0.0025485,-1.0326e-05,0.00025382,0.00045793,0,0,0.025242,-0.0029056,0,0.010075,0,0,0,0.002628,-8.981e-05,0.00025382,9.8467,0.00093067,0.0025633,8.1288e-10,0.22,0.96,0
0.0035428,0.0094303,0.0027574,-9.1215e-06,0.00027483,0.0004503,0,0,0.027308,-0.0031234,0,0.0099066,0,0,0,0.0028288,-8.0571e-05,0.00027483,9.016,0.0010077,0.002749,1.0071e-09,0.24,0.96,0
0.0041095,0.010506,0.0029637,-8.4817e-06,0.00029553,0.00044329,0,0,0.02935,-0.0033441,0,0.0097524,0,0,0,0.0030284,-7.3188e-05,0.00029553,8.3047,0.0010836,0.0029347,1.2293e-09,0.26,0.96,0
0.0047168,0.011603,0.0031676,-8.3273e-06,0.00031593,0.00043653,0,0,0.031368,-0.0035668,0,0.0096036,0,0,0,0.0032265,-6.7235e-05,0.00031593,7.6854,0.0011584,0.0031198,1.4806e-09,0.28,0.96,0
0.0053643,0.012718,0.0033688,-8.5866e-06,0.00033602,0.00042967,0,0,0.033361,-0.0037907,0,0.0094527,0,0,0,0.0034226,-6.2391e-05,0.00033602,7.1376,0.0012321,0.0033039,1.7617e-09,0.3,0.96,0
0.0060513,0.013848,0.0035673,-9.1897e-06,0.00035581,0.00042243,0,0,0.035326,-0.004015,0,0.0092934,0,0,0,0.0036165,-5.8407e-05,0.00035581,6.6456,0.0013046,0.0034863,2.073e-09,0.32,0.96,0
0.0067773,0.014988,0.0037626,-1.0063e-05,0.00037526,0.00041458,0,0,0.037261,-0.0042385,0,0.0091207,0,0,0,0.0038077,-5.5084e-05,0.00037526,6.1976,0.0013759,0.0036666,2.4145e-09,0.34,0.96,0
0.0075417,0.016136,0.0039546,-1.1128e-05,0.00039435,0.00040594,0,0,0.039163,-0.0044603,0,0.0089307,0,0,0,0.0039958,-5.2255e-05,0.00039435,5.785,0.001446,0.0038442,2.7854e-09,0.36,0.96,0
0.0083438,0.017289,0.0041429,-1.2298e-05,0.00041306,0.00039642,0,0,0.041029,-0.004679,0,0.0087211,0,0,0,0.0041804,-4.9778e-05,0.00041306,5.4012,0.0015146,0.0040188,3.185e-09,0.38,0.96,0
0.0091829,0.018443,0.0043271,-1.3477e-05,0.00043136,0.00038596,0,0,0.042853,-0.0048932,0,0.008491,0,0,0,0.0043612,-4.7528e-05,0.00043136,5.0419,0.0015817,0.0041898,3.6117e-09,0.4,0.96,0
0.010058,0.019596,0.0045068,-1.4568e-05,0.00044922,0.0003746,0,0,0.044633,-0.0051017,0,0.0082413,0,0,0,0.0045376,-4.5394e-05,0.00044922,4.7043,0.0016472,0.0043568,4.0635e-09,0.42,0.96,0
0.010968,0.020744,0.0046818,-1.5467e-05,0.00046663,0.00036248,0,0,0.046366,-0.0053031,0,0.0079746,0,0,0,0.0047096,-4.3274e-05,0.00046663,4.3868,0.001711,0.0045195,4.5385e-09,0.44,0.96,0
0.011913,0.021887,0.0048517,-1.6074e-05,0.00048356,0.00034978,0,0,0.048049,-0.005496,0,0.0076952,0,0,0,0.0048767,-4.108e-05,0.00048356,4.0891,0.001773,0.0046776,5.034e-09,0.46,0.96,0
0.01289,0.023021,0.0050164,-1.6295e-05,0.00050001,0.00033679,0,0,0.049681,-0.0056794,0,0.0074094,0,0,0,0.0050389,-3.8733e-05,0.00050001,3.8116,0.0018334,0.0048308,5.548e-09,0.48,0.96,0
0.0139,0.024146,0.005176,-1.6047e-05,0.00051599,0.00032385,0,0,0.05126,-0.0058525,0,0.0071247,0,0,0,0.0051961,-3.617e-05,0.00051599,3.5554,0.001892,0.0049792,6.0782e-09,0.5,0.96,0
0.014941,0.025259,0.0053305,-1.5264e-05,0.00053153,0.00031137,0,0,0.052789,-0.0060147,0,0.0068502,0,0,0,0.0053486,-3.3339e-05,0.00053153,3.3223,0.0019489,0.0051229,6.6231e-09,0.52,0.96,0
0.016011,0.026361,0.0054804,-1.3898e-05,0.00054665,0.0002998,0,0,0.054271,-0.0061661,0,0.0065956,0,0,0,0.0054967,-3.0209e-05,0.00054665,3.1141,0.0020044,0.0052623,7.1818e-09,0.54,0.96,0
0.017111,0.027451,0.0056261,-1.1925e-05,0.00056142,0.00028963,0,0,0.055712,-0.0063068,0,0.0063717,0,0,0,0.005641,-2.6763e-05,0.00056142,2.933,0.0020585,0.0053977,7.7546e-09,0.56,0.96,0
0.01824,0.028528,0.0057684,-9.3422e-06,0.0005759,0.00028133,0,0,0.057117,-0.0064377,0,0.0061893,0,0,0,0.0057821,-2.3008e-05,0.0005759,2.7811,0.0021117,0.00553,8.343e-09,0.58,0.96,0
0.019396,0.029595,0.0059081,-6.1713e-06,0.0005902,0.0002754,0,0,0.058497,-0.0065601,0,0.0060589,0,0,0,0.0059209,-1.8968e-05,0.0005902,2.6603,0.002164,0.00566,8.9498e-09,0.6,0.96,0
0.02058,0.03065,0.0060465,-2.4499e-06,0.00060441,0.0002723,0,0,0.059863,-0.0066754,0,0.0059907,0,0,0,0.0060587,-1.4683e-05,0.00060441,2.5723,0.0022162,0.0057888,9.5796e-09,0.62,0.96,0
0.021791,0.031696,0.0061848,1.7716e-06,0.00061865,0.00027245,0,0,0.061227,-0.0067857,0,0.005994,0,0,0,0.0061968,-1.0211e-05,0.00061865,2.5182,0.0022684,0.0059177,1.0239e-08,0.64,0.96,0
0.023029,0.032734,0.0063244,6.4391e-06,0.00063309,0.00027624,0,0,0.062605,-0.0068931,0,0.0060773,0,0,0,0.0063365,-5.616e-06,0.00063309,2.4988,0.0023213,0.0060481,1.0937e-08,0.66,0.96,0
0.024295,0.033765,0.0064671,1.1504e-05,0.00064786,0.00028401,0,0,0.064012,-0.0069999,0,0.0062482,0,0,0,0.0064796,-9.6635e-07,0.00064786,2.5142,0.0023755,0.0061817,1.1683e-08,0.68,0.96,0
0.025589,0.034791,0.0066146,1.6938e-05,0.00066315,0.00029607,0,0,0.065465,-0.0071083,0,0.0065136,0,0,0,0.0066278,3.6779e-06,0.00066315,2.5643,0.0024316,0.0063203,1.2492e-08,0.7,0.96,0
0.026913,0.035815,0.0067686,2.2742e-05,0.00067914,0.00031274,0,0,0.066984,-0.0072203,0,0.0068802,0,0,0,0.0067831,8.2751e-06,0.00067914,2.6486,0.0024902,0.0064655,1.3379e-08,0.72,0.96,0
0.028269,0.036837,0.0069313,2.8971e-05,0.00069603,0.00033432,0,0,0.068588,-0.0073376,0,0.0073551,0,0,0,0.0069475,1.2816e-05,0.00069603,2.7666,0.0025521,0.0066195,1.4363e-08,0.74,0.96,0
0.029657,0.03786,0.0071047,3.5751e-05,0.00071405,0.00036123,0,0,0.070297,-0.0074613,0,0.0079469,0,0,0,0.0071231,1.734e-05,0.00071405,2.9177,0.0026182,0.0067843,1.5469e-08,0.76,0.96,0
0.031081,0.038885,0.0072912,4.3314e-05,0.00073345,0.00039398,0,0,0.072135,-0.0075915,0,0.0086676,0,0,0,0.0073125,2.1961e-05,0.00073345,3.1023,0.0026893,0.0069621,1.6723e-08,0.78,0.96,0
0.032542,0.039913,0.0074931,5.2049e-05,0.00075451,0.00043336,0,0,0.074124,-0.0077271,0,0.0095339,0,0,0,0.0075182,2.6896e-05,0.00075451,3.3219,0.0027665,0.0071553,1.8161e-08,0.8,0.96,0
0.034046,0.040945,0.0077131,6.2588e-05,0.00077757,0.00048051,0,0,0.076291,-0.0078648,0,0.010571,0,0,0,0.0077432,3.2527e-05,0.00077757,3.5799,0.0028511,0.0073664,1.9824e-08,0.82,0.96,0
0.035594,0.041981,0.0079543,7.5959e-05,0.00080302,0.00053719,0,0,0.078664,-0.0079977,0,0.011818,0,0,0,0.0079907,3.9499e-05,0.00080302,3.8828,0.0029444,0.0075983,2.1765e-08,0.84,0.96,0
0.037192,0.043022,0.0082199,9.3874e-05,0.00083137,0.00060609,0,0,0.081273,-0.0081125,0,0.013334,0,0,0,0.0082648,4.8915e-05,0.00083137,4.2423,0.0030484,0.007854,2.4051e-08,0.86,0.96,0
0.038845,0.044067,0.0085131,0.00011931,0.00086324,0.00069143,0,0,0.084149,-0.0081833,0,0.015211,0,0,0,0.0085697,6.2732e-05,0.00086324,4.6777,0.0031652,0.0081363,2.6762e-08,0.88,0.96,0
0.040558,0.045116,0.0088362,0.00015771,0.00089939,0.00079981,0,0,0.087305,-0.0081585,0,0.017596,0,0,0,0.0089093,8.4617e-05,0.00089939,5.2218,0.0032978,0.0084468,2.9984e-08,0.9,0.96,0
0.042337,0.046166,0.0091857,0.00021959,0.00094053,0.00094078,0,0,0.090697,-0.0079303,0,0.020697,0,0,0,0.0092833,0.00012194,0.00094053,5.9258,0.0034486,0.0087808,3.3754e-08,0.92,0.96,0
0.044186,0.047212,0.0095387,0.0003269,0.00098656,0.001127,0,0,0.094073,-0.0072562,0,0.024795,0,0,0,0.0096746,0.00019101,0.00098656,6.8749,0.0036174,0.0091119,3.7858e-08,0.94,0.96,0
0.0461,0.048242,0.0098035,0.00052099,0.0010325,0.0013425,0,0,0.096482,-0.0056261,0,0.029535,0,0,0,0.0099938,0.00033073,0.0010325,8.0664,0.0037857,0.009332,4.0945e-08,0.96,0.96,0
0.048045,0.049203,0.0099484,0.00090115,0.001085,0.0015314,0,0,0.097498,-0.0020218,0,0.03369,0,0,0,0.010201,0.00064898,0.001085,9.3512,0.0039782,0.0093413,4.1556e-08,0.98,0.96,0
0.05,0.05,0.009996,0.0011107,0.0011107,0.0018113,0,0,0.097739,-1.6805e-17,0,0.039849,0,0,0,0.010351,0.00075561,0.0011107,11.091,0.0040725,0.009423,4.2767e-08,1,0.96,0
0,0,-0.00032747,-3.6385e-05,-3.6385e-05,0.00069514,0,0,-0.0032019,-3.2526e-19,0,0.015293,0,0,0,0.00052828,-0.00089214,-3.6385e-05,50.913,-0.00013341,0.0012387,-3.3775e-11,0,0.98,0
-6.4038e-05,0.00030586,-0.00025155,-7.3802e-05,-3.2535e-05,0.00039996,0,0,-0.0024091,-0.00045394,0,0.0087991,0,0,0,0.00024704,-0.00057239,-3.2535e-05,51.264,-0.00011929,0.00072148,-9.985e-12,0.02,0.98,0
-9.6365e-05,0.00078942,-1.8452e-05,-5.0815e-05,-6.9267e-06,0.00038061,0,0,-0.00012677,-0.00048278,0,0.0083734,0,0,0,0.00034632,-0.00041558,-6.9267e-06,43.783,-2.5398e-05,0.00066041,-1.8575e-12,0.04,0.98,0
-6.9109e-05,0.0013813,0.00028844,-3.3538e-05,2.549e-05,0.00034386,0,0,0.0028924,-0.00064931,0,0.0075648,0,0,0,0.00050712,-0.00025223,2.549e-05,32.456,9.3462e-05,0.00066548,6.7395e-12,0.06,0.98,0
1.9331e-05,0.0020575,0.00059158,-2.3329e-05,5.6825e-05,0.00031559,0,0,0.0058823,-0.0008817,0,0.0069429,0,0,0,0.00072472,-0.00015647,5.6825e-05,22.874,0.00020836,0.00079626,1.9793e-11,0.08,0.98,0
0.00016619,0.0028036,0.00087981,-1.6916e-05,8.629e-05,0.00029423,0,0,0.0087288,-0.0011353,0,0.006473,0,0,0,0.00096773,-0.00010483,8.629e-05,16.637,0.0003164,0.00099092,4.3773e-11,0.1,0.98,0
0.00036848,0.00361,0.0011539,-1.2635e-05,0.00011413,0.0002781,0,0,0.011438,-0.0013944,0,0.0061182,0,0,0,0.0012169,-7.5539e-05,0.00011413,12.745,0.00041848,0.0012088,8.323e-11,0.12,0.98,0
0.0006237,0.0044691,0.0014164,-9.6395e-06,0.00014068,0.00026571,0,0,0.014033,-0.0016535,0,0.0058457,0,0,0,0.0014643,-5.754e-05,0.00014068,10.219,0.00051582,0.0014331,1.4146e-10,0.14,0.98,0
0.00092981,0.005375,0.0016695,-7.4854e-06,0.0001662,0.00025606,0,0,0.016536,-0.0019105,0,0.0056334,0,0,0,0.0017077,-4.5714e-05,0.0001662,8.4911,0.00060939,0.0016576,2.211e-10,0.16,0.98,0
0.0012851,0.0063225,0.0019149,-5.9208e-06,0.0001909,0.00024843,0,0,0.018964,-0.002165,0,0.0054655,0,0,0,0.0019465,-3.7531e-05,0.0001909,7.2514,0.00069996,0.0018803,3.2449e-10,0.18,0.98,0
0.0016884,0.0073069,0.0021541,-4.794e-06,0.00021493,0.00024227,0,0,0.021331,-0.002417,0,0.00533,0,0,0,0.002181,-3.1647e-05,0.00021493,6.3248,0.00078809,0.0021002,4.5376e-10,0.2,0.98,0
0.0021384,0.0083241,0.0023882,-4.0082e-06,0.00023842,0.00023717,0,0,0.023648,-0.0026667,0,0.0052177,0,0,0,0.0024115,-2.7295e-05,0.00023842,5.6077,0.0008742,0.0023174,6.1093e-10,0.22,0.98,0
0.0026343,0.0093701,0.0026179,-3.4989e-06,0.00026144,0.00023279,0,0,0.025921,-0.0029143,0,0.0051213,0,0,0,0.0026384,-2.401e-05,0.00026144,5.0355,0.0009586,0.0025318,7.9785e-10,0.24,0.98,0
0.0031752,0.010441,0.0028436,-3.2196e-06,0.00028404,0.00022884,0,0,0.028155,-0.0031598,0,0.0050344,0,0,0,0.0028618,-2.1497e-05,0.00028404,4.5666,0.0010415,0.0027434,1.0162e-09,0.26,0.98,0
0.0037605,0.011534,0.0030656,-3.1347e-06,0.00030625,0.00022508,0,0,0.030353,-0.0034032,0,0.0049518,0,0,0,0.003082,-1.9556e-05,0.00030625,4.1727,0.0011229,0.0029522,1.2674e-09,0.28,0.98,0
0.0043893,0.012644,0.0032841,-3.2137e-06,0.00032809,0.00022133,0,0,0.032516,-0.0036443,0,0.0048692,0,0,0,0.0032989,-1.8048e-05,0.00032809,3.8345,0.001203,0.0031582,1.5525e-09,0.3,0.98,0
0.0050611,0.013769,0.0034988,-3.428e-06,0.00034954,0.0002174,0,0,0.034642,-0.0038827,0,0.0047827,0,0,0,0.0035123,-1.6871e-05,0.00034954,3.5384,0.0012817,0.003361,1.872e-09,0.32,0.98,0
0.005775,0.014905,0.0037097,-3.7487e-06,0.00037059,0.00021315,0,0,0.03673,-0.0041178,0,0.0046894,0,0,0,0.0037219,-1.5944e-05,0.00037059,3.2745,0.0013588,0.0035603,2.226e-09,0.34,0.98,0
0.0065303,0.016048,0.0039163,-4.145e-06,0.00039121,0.0002085,0,0,0.038776,-0.0043489,0,0.004587,0,0,0,0.0039273,-1.5202e-05,0.00039121,3.0357,0.0014345,0.0037558,2.614e-09,0.36,0.98,0
0.0073261,0.017196,0.0041182,-4.5837e-06,0.00041136,0.00020336,0,0,0.040775,-0.0045754,0,0.004474,0,0,0,0.0041282,-1.4591e-05,0.00041136,2.8171,0.0015083,0.0039471,3.0346e-09,0.38,0.98,0
0.0081613,0.018346,0.004315,-5.029e-06,0.000431,0.00019773,0,0,0.042724,-0.0047963,0,0.00435,0,0,0,0.004324,-1.406e-05,0.000431,2.6151,0.0015803,0.0041336,3.486e-09,0.4,0.98,0
0.009035,0.019495,0.0045062,-5.4434e-06,0.00045008,0.0001916,0,0,0.044618,-0.0050108,0,0.0042152,0,0,0,0.0045144,-1.3566e-05,0.00045008,2.4274,0.0016503,0.0043148,3.9657e-09,0.42,0.98,0
0.009946,0.02064,0.0046915,-5.7883e-06,0.00046857,0.00018505,0,0,0.046453,-0.005218,0,0.0040711,0,0,0,0.0046988,-1.3067e-05,0.00046857,2.2525,0.0017181,0.0044905,4.4706e-09,0.44,0.98,0
0.010893,0.021778,0.0048705,-6.0256e-06,0.00048645,0.00017818,0,0,0.048225,-0.0054172,0,0.0039199,0,0,0,0.004877,-1.2527e-05,0.00048645,2.0897,0.0017836,0.0046602,4.9975e-09,0.46,0.98,0
0.011875,0.022909,0.005043,-6.12e-06,0.00050369,0.00017113,0,0,0.049933,-0.0056079,0,0.0037648,0,0,0,0.0050488,-1.1913e-05,0.00050369,1.9389,0.0018469,0.0048237,5.5429e-09,0.48,0.98,0
0.01289,0.02403,0.005209,-6.0402e-06,0.0005203,0.00016409,0,0,0.051576,-0.0057897,0,0.0036099,0,0,0,0.0052142,-1.1198e-05,0.0005203,1.8004,0.0019078,0.0049809,6.1038e-09,0.5,0.98,0
0.013938,0.02514,0.0053686,-5.7609e-06,0.00053628,0.00015728,0,0,0.053155,-0.0059625,0,0.0034601,0,0,0,0.0053732,-1.036e-05,0.00053628,1.6748,0.0019664,0.0051321,6.6775e-09,0.52,0.98,0
0.015017,0.026239,0.0055221,-5.2644e-06,0.00055168,0.00015093,0,0,0.054675,-0.0061264,0,0.0033206,0,0,0,0.0055262,-9.3829e-06,0.00055168,1.563,0.0020228,0.0052775,7.2623e-09,0.54,0.98,0
0.016125,0.027325,0.0056702,-4.5415e-06,0.00056656,0.00014532,0,0,0.05614,-0.0062821,0,0.003197,0,0,0,0.0056739,-8.2605e-06,0.00056656,1.466,0.0020774,0.0054177,7.8577e-09,0.56,0.98,0
0.017262,0.0284,0.0058136,-3.5915e-06,0.000581,0.0001407,0,0,0.057558,-0.0064305,0,0.0030953,0,0,0,0.005817,-6.9924e-06,0.000581,1.3847,0.0021303,0.0055534,8.4646e-09,0.58,0.98,0
0.018427,0.029463,0.0059535,-2.4218e-06,0.0005951,0.00013732,0,0,0.058942,-0.0065728,0,0.0030211,0,0,0,0.0059566,-5.5864e-06,0.0005951,1.3201,0.0021821,0.0056857,9.0859e-09,0.6,0.98,0
0.01962,0.030516,0.0060911,-1.0469e-06,0.00060901,0.00013545,0,0,0.060303,-0.0067106,0,0.0029799,0,0,0,0.0060941,-4.0569e-06,0.00060901,1.273,0.002233,0.0058159,9.7262e-09,0.62,0.98,0
0.02084,0.031559,0.0062281,5.1452e-07,0.00062286,0.0001353,0,0,0.061657,-0.0068458,0,0.0029766,0,0,0,0.006231,-2.4237e-06,0.00062286,1.244,0.0022838,0.0059455,1.0393e-08,0.64,0.98,0
0.022086,0.032595,0.006366,2.2422e-06,0.00063683,0.00013709,0,0,0.063021,-0.0069805,0,0.0030159,0,0,0,0.006369,-7.0961e-07,0.00063683,1.2335,0.002335,0.0060761,1.1095e-08,0.66,0.98,0
0.02336,0.033623,0.006507,4.1181e-06,0.00065111,0.000141,0,0,0.064415,-0.0071169,0,0.0031019,0,0,0,0.0065101,1.0625e-06,0.00065111,1.2415,0.0023874,0.0062096,1.1844e-08,0.68,0.98,0
0.024663,0.034647,0.006653,6.1317e-06,0.00066592,0.0001472,0,0,0.065858,-0.0072577,0,0.0032383,0,0,0,0.0066563,2.8736e-06,0.00066592,1.268,0.0024417,0.0063479,1.2656e-08,0.7,0.98,0
0.025995,0.035668,0.0068064,8.2847e-06,0.00068147,0.00015585,0,0,0.067375,-0.0074051,0,0.0034288,0,0,0,0.00681,4.7134e-06,0.00068147,1.3126,0.0024987,0.0064934,1.3548e-08,0.72,0.98,0
0.027358,0.036688,0.0069696,1.0599e-05,0.00069802,0.00016715,0,0,0.068988,-0.0075617,0,0.0036774,0,0,0,0.0069736,6.5858e-06,0.00069802,1.3752,0.0025594,0.0066484,1.4544e-08,0.74,0.98,0
0.028754,0.037707,0.0071453,1.3124e-05,0.00071584,0.00018132,0,0,0.070724,-0.0077299,0,0.0039891,0,0,0,0.0071499,8.5167e-06,0.00071584,1.4554,0.0026247,0.0068153,1.5669e-08,0.76,0.98,0
0.030187,0.038729,0.0073363,1.5953e-05,0.00073523,0.00019867,0,0,0.072612,-0.007912,0,0.0043708,0,0,0,0.0073417,1.0565e-05,0.00073523,1.5535,0.0026958,0.006997,1.6959e-08,0.78,0.98,0
0.031659,0.039753,0.007546,1.9242e-05,0.00075652,0.00021966,0,0,0.074684,-0.0081101,0,0.0048326,0,0,0,0.0075524,1.2837e-05,0.00075652,1.6702,0.0027739,0.0071966,1.8455e-08,0.8,0.98,0
0.033174,0.040781,0.0077783,2.3251e-05,0.00078015,0.000245,0,0,0.076979,-0.0083259,0,0.00539,0,0,0,0.007786,1.5519e-05,0.00078015,1.8077,0.0028606,0.0074178,2.0214e-08,0.82,0.98,0
0.034738,0.041814,0.0080379,2.8412e-05,0.00080663,0.00027581,0,0,0.079544,-0.0085604,0,0.0060677,0,0,0,0.0080474,1.8926e-05,0.00080663,1.9699,0.0029577,0.007665,2.2308e-08,0.84,0.98,0
0.036356,0.042851,0.008331,3.5469e-05,0.00083665,0.00031388,0,0,0.082438,-0.008813,0,0.0069054,0,0,0,0.0083429,2.361e-05,0.00083665,2.1638,0.0030677,0.007944,2.4841e-08,0.86,0.98,0
0.038035,0.043892,0.0086661,4.5788e-05,0.00087119,0.00036227,0,0,0.085744,-0.0090794,0,0.0079699,0,0,0,0.0086813,3.0591e-05,0.00087119,2.4022,0.0031944,0.0082626,2.7963e-08,0.88,0.98,0
0.039786,0.044938,0.0090554,6.2048e-05,0.00091175,0.00042627,0,0,0.08958,-0.0093467,0,0.0093779,0,0,0,0.0090756,4.1889e-05,0.00091175,2.7076,0.0033431,0.0086317,3.1902e-08,0.9,0.98,0
0.041619,0.045987,0.0095175,9.0125e-05,0.00096076,0.00051621,0,0,0.094124,-0.009577,0,0.011357,0,0,0,0.0095457,6.1943e-05,0.00096076,3.1248,0.0035228,0.0090678,3.7028e-08,0.92,0.98,0
0.043551,0.047039,0.010078,0.00014397,0.0010222,0.00065003,0,0,0.099613,-0.0096605,0,0.014301,0,0,0,0.01012,0.00010161,0.0010222,3.728,0.003748,0.0095916,4.3916e-08,0.94,0.98,0
0.045603,0.048091,0.010745,0.00026335,0.0011009,0.0008746,0,0,0.10609,-0.0092127,0,0.019241,0,0,0,0.010818,0.00019088,0.0011009,4.737,0.0040365,0.010202,5.3082e-08,0.96,0.98,0
0.047794,0.049142,0.011162,0.0005268,0.0011688,0.0011145,0,0,0.10992,-0.0070625,0,0.02452,0,0,0,0.011277,0.00041125,0.0011688,5.9189,0.0042858,0.010508,5.8543e-08,0.98,0.98,0
0.05,0.05,0.01128,0.0012533,0.0012533,0.0019497,0,0,0.11029,2.0036e-16,0,0.042894,0,0,0,0.011646,0.00088752,0.0012533,10.626,0.0045955,0.01058,6.0578e-08,1,0.98,0
0,0,-0.0017825,-0.00019806,-0.00019806,0.00071421,0,0,-0.017429,5.421e-19,0,0.015713,0,0,0,7.6348e-05,-0.0020569,-0.00019806,68.983,-0.00072622,0.0020102,-3.911e-10,0,1,0
-0.00034858,0.00031425,-0.0013683,-0.00010966,-0.0001478,0.00025298,0,0,-0.013426,0.00041948,0,0.0055655,0,0,0,-6.0719e-05,-0.0014173,-0.0001478,79.05,-0.00054192,0.0013151,-1.151e-10,0.02,1,0
-0.00053702,0.00079171,-0.00068843,-6.4931e-05,-7.5337e-05,0.00020667,0,0,-0.0067441,0.00011446,0,0.0045469,0,0,0,-2.6459e-06,-0.00075072,-7.5337e-05,73.229,-0.00027623,0.00071451,-1.8082e-11,0.04,1,0
-0.00061835,0.0013774,-0.00020224,-4.1843e-05,-2.4408e-05,0.00017809,0,0,-0.0019561,-0.00019178,0,0.003918,0,0,0,7.3276e-05,-0.00031736,-2.4408e-05,57.121,-8.9496e-05,0.00035211,-1.6738e-12,0.06,1,0
-0.00061527,0.0020469,0.00019585,-3.158e-05,1.6428e-05,0.00015906,0,0,0.0019737,-0.00052808,0,0.0034994,0,0,0,0.00027767,-0.00011339,1.6428e-05,27.219,6.0234e-05,0.00034499,1.1467e-12,0.08,1,0
-0.0005394,0.0027866,0.00054609,-2.5187e-05,5.209e-05,0.00014629,0,0,0.005434,-0.00085005,0,0.0032184,0,0,0,0.00058137,-6.047e-05,5.209e-05,13.56,0.000191,0.00059362,9.4545e-12,0.1,1,0
-0.00039791,0.0035868,0.00086567,-2.0864e-05,8.448e-05,0.00013709,0,0,0.0085931,-0.0011588,0,0.003016,0,0,0,0.00088638,-4.1579e-05,8.448e-05,8.5928,0.00030976,0.0008718,3.1645e-11,0.12,1,0
-0.00019568,0.00444,0.001164,-1.7661e-05,0.00011463,0.00013026,0,0,0.011543,-0.0014552,0,0.0028656,0,0,0,0.0011782,-3.1849e-05,0.00011463,6.2164,0.00042032,0.0011438,7.2631e-11,0.14,1,0
6.3805e-05,0.0053402,0.0014468,-1.5159e-05,0.00014317,0.00012505,0,0,0.01434,-0.0017416,0,0.002751,0,0,0,0.0014575,-2.5777e-05,0.00014317,4.8535,0.00052495,0.0014064,1.3595e-10,0.16,1,0
0.00037794,0.0062821,0.0017181,-1.3119e-05,0.0001705,0.00012099,0,0,0.017024,-0.0020198,0,0.0026618,0,0,0,0.0017265,-2.1533e-05,0.0001705,3.9785,0.00062517,0.0016604,2.2454e-10,0.18,1,0
0.00074476,0.0072611,0.0019805,-1.1402e-05,0.00019691,0.00011777,0,0,0.019619,-0.0022914,0,0.0025909,0,0,0,0.0019874,-1.834e-05,0.00019691,3.3718,0.000722,0.0019073,3.4108e-10,0.2,1,0
0.0011627,0.0082729,0.0022358,-9.9195e-06,0.00022259,0.00011513,0,0,0.022145,-0.0025576,0,0.0025328,0,0,0,0.0022417,-1.5806e-05,0.00022259,2.927,0.00081616,0.0021483,4.8812e-10,0.22,1,0
0.0016306,0.0093137,0.0024854,-8.6148e-06,0.00024768,0.00011288,0,0,0.024615,-0.0028192,0,0.0024834,0,0,0,0.0024905,-1.3714e-05,0.00024768,2.5863,0.00090816,0.0023843,6.6802e-10,0.24,1,0
0.0021473,0.01038,0.0027301,-7.4495e-06,0.00027226,0.00011088,0,0,0.027036,-0.0030768,0,0.0024395,0,0,0,0.0027346,-1.1934e-05,0.00027226,2.3157,0.0009983,0.002616,8.8298e-10,0.26,1,0
0.002712,0.011467,0.0029703,-6.3976e-06,0.00029639,0.000109,0,0,0.029413,-0.0033307,0,0.002398,0,0,0,0.0029743,-1.0384e-05,0.00029639,2.0943,0.0010868,0.0028437,1.1349e-09,0.28,1,0
0.0033238,0.012573,0.0032063,-5.4415e-06,0.00032008,0.00010713,0,0,0.031748,-0.0035808,0,0.0023567,0,0,0,0.0032099,-9.0106e-06,0.00032008,1.9082,0.0011736,0.0030676,1.4252e-09,0.3,1,0
0.0039819,0.013692,0.0034379,-4.569e-06,0.00034334,0.00010517,0,0,0.034041,-0.003827,0,0.0023137,0,0,0,0.0034412,-7.7789e-06,0.00034334,1.7482,0.0012589,0.0032875,1.7548e-09,0.32,1,0
0.0046855,0.014823,0.003665,-3.7715e-06,0.00036612,0.00010306,0,0,0.036288,-0.0040688,0,0.0022674,0,0,0,0.0036679,-6.6645e-06,0.00036612,1.6079,0.0013425,0.0035031,2.1238e-09,0.34,1,0
0.0054335,0.015962,0.0038871,-3.0429e-06,0.0003884,0.00010075,0,0,0.038485,-0.0043059,0,0.0022165,0,0,0,0.0038897,-5.6506e-06,0.0003884,1.4826,0.0014241,0.003714,2.5316e-09,0.36,1,0
0.0062249,0.017106,0.0041036,-2.3785e-06,0.00041013,9.8202e-05,0,0,0.040629,-0.0045375,0,0.0021604,0,0,0,0.004106,-4.7258e-06,0.00041013,1.3693,0.0015038,0.0039198,2.9767e-09,0.38,1,0
0.0070586,0.018251,0.004314,-1.774e-06,0.00043123,9.5398e-05,0,0,0.042711,-0.004763,0,0.0020988,0,0,0,0.0043162,-3.8817e-06,0.00043123,1.2657,0.0015812,0.0041198,3.4565e-09,0.4,1,0
0.0079333,0.019395,0.0045177,-1.2259e-06,0.00045165,9.2347e-05,0,0,0.044727,-0.0049816,0,0.0020316,0,0,0,0.0045196,-3.1122e-06,0.00045165,1.1702,0.0016561,0.0043134,3.9676e-09,0.42,1,0
0.0088477,0.020536,0.0047141,-7.2995e-07,0.00047134,8.9078e-05,0,0,0.04667,-0.0051927,0,0.0019597,0,0,0,0.0047158,-2.4123e-06,0.00047134,1.082,0.0017282,0.0045001,4.5059e-09,0.44,1,0
0.0098001,0.02167,0.0049027,-2.8215e-07,0.00049024,8.5643e-05,0,0,0.048537,-0.0053957,0,0.0018842,0,0,0,0.0049042,-1.7777e-06,0.00049024,1.0004,0.0017975,0.0046794,5.0668e-09,0.46,1,0
0.010789,0.022797,0.0050831,1.2209e-07,0.00050832,8.2114e-05,0,0,0.050322,-0.0055902,0,0.0018065,0,0,0,0.0050844,-1.2041e-06,0.00050832,0.92527,0.0018638,0.004851,5.6453e-09,0.48,1,0
0.011813,0.023914,0.0052552,4.8764e-07,0.00052557,7.8582e-05,0,0,0.052026,-0.0057759,0,0.0017288,0,0,0,0.0052564,-6.8725e-07,0.00052557,0.85658,0.0019271,0.0050147,6.2369e-09,0.5,1,0
0.01287,0.025021,0.0054191,8.1968e-07,0.00054199,7.5156e-05,0,0,0.053648,-0.0059529,0,0.0016534,0,0,0,0.0054202,-2.2259e-07,0.00054199,0.79453,0.0019873,0.0051706,6.8374e-09,0.52,1,0
0.013959,0.026116,0.0055751,1.1236e-06,0.00055762,7.1956e-05,0,0,0.055192,-0.0061215,0,0.001583,0,0,0,0.005576,1.9489e-07,0.00055762,0.73949,0.0020446,0.0053191,7.4437e-09,0.54,1,0
0.015078,0.0272,0.0057239,1.4052e-06,0.00057253,6.9112e-05,0,0,0.056665,-0.0062823,0,0.0015205,0,0,0,0.0057247,5.7065e-07,0.00057253,0.69184,0.0020993,0.0054607,8.0544e-09,0.56,1,0
0.016226,0.028271,0.0058663,1.6704e-06,0.0005868,6.6753e-05,0,0,0.058075,-0.0064364,0,0.0014686,0,0,0,0.0058671,9.1067e-07,0.0005868,0.65204,0.0021516,0.0055963,8.6698e-09,0.58,1,0
0.017401,0.029332,0.0060037,1.9256e-06,0.00060056,6.5009e-05,0,0,0.059434,-0.006585,0,0.0014302,0,0,0,0.0060044,1.2215e-06,0.00060056,0.62052,0.0022021,0.0057271,9.2922e-09,0.6,1,0
0.018603,0.030381,0.0061375,2.1781e-06,0.00061396,6.4004e-05,0,0,0.060759,-0.0067297,0,0.0014081,0,0,0,0.0061381,1.5105e-06,0.00061396,0.59763,0.0022512,0.0058545,9.9267e-09,0.62,1,0
0.019831,0.031422,0.0062695,2.4364e-06,0.0006272,6.3852e-05,0,0,0.062066,-0.0068724,0,0.0014047,0,0,0,0.0062702,1.7859e-06,0.0006272,0.58368,0.0022997,0.0059803,1.0581e-08,0.64,1,0
0.021086,0.032454,0.0064019,2.7107e-06,0.00064046,6.4655e-05,0,0,0.063376,-0.0070153,0,0.0014224,0,0,0,0.0064026,2.0575e-06,0.00064046,0.57882,0.0023484,0.0061064,1.1265e-08,0.66,1,0
0.022366,0.03348,0.0065369,3.0138e-06,0.00065399,6.6507e-05,0,0,0.064712,-0.0071608,0,0.0014632,0,0,0,0.0065376,2.3369e-06,0.00065399,0.58312,0.002398,0.006235,1.1992e-08,0.68,1,0
0.023674,0.034501,0.006677,3.3625e-06,0.00066803,6.9491e-05,0,0,0.066098,-0.0073114,0,0.0015288,0,0,0,0.0066777,2.639e-06,0.00066803,0.59652,0.0024495,0.0063685,1.2779e-08,0.7,1,0
0.02501,0.035519,0.0068248,3.7788e-06,0.00068285,7.369e-05,0,0,0.067561,-0.0074698,0,0.0016212,0,0,0,0.0068255,2.9828e-06,0.00068285,0.6189,0.0025038,0.0065093,1.3646e-08,0.72,1,0
0.026377,0.036535,0.0069831,4.292e-06,0.00069874,7.9197e-05,0,0,0.069128,-0.0076389,0,0.0017423,0,0,0,0.006984,3.3933e-06,0.00069874,0.65009,0.002562,0.0066602,1.4617e-08,0.74,1,0
0.027775,0.037551,0.0071551,4.9423e-06,0.000716,8.6124e-05,0,0,0.07083,-0.0078217,0,0.0018947,0,0,0,0.0071561,3.9051e-06,0.000716,0.69,0.0026253,0.0068241,1.5724e-08,0.76,1,0
0.02921,0.038569,0.0073441,5.786e-06,0.00073499,9.463e-05,0,0,0.0727,-0.0080212,0,0.0020819,0,0,0,0.0073453,4.5659e-06,0.00073499,0.73869,0.002695,0.0070041,1.7002e-08,0.78,1,0
0.030683,0.039588,0.0075538,6.9045e-06,0.00075608,0.00010495,0,0,0.074775,-0.0082409,0,0.0023089,0,0,0,0.0075553,5.4453e-06,0.00075608,0.79658,0.0027723,0.0072039,1.85e-08,0.8,1,0
0.032201,0.040612,0.0077888,8.4211e-06,0.00077973,0.00011746,0,0,0.0771,-0.0084844,0,0.0025841,0,0,0,0.0077906,6.6483e-06,0.00077973,0.86471,0.002859,0.0074277,2.028e-08,0.82,1,0
0.033767,0.041639,0.0080546,1.0533e-05,0.00080651,0.00013274,0,0,0.079729,-0.0087558,0,0.0029202,0,0,0,0.0080568,8.3432e-06,0.00080651,0.9451,0.0029572,0.0076805,2.2425e-08,0.84,1,0
0.03539,0.04267,0.0083584,1.3573e-05,0.0008372,0.00015177,0,0,0.082734,-0.0090599,0,0.0033388,0,0,0,0.0083612,1.0814e-05,0.0008372,1.0416,0.0030697,0.0079694,2.5055e-08,0.86,1,0
0.037077,0.043704,0.0087108,1.8177e-05,0.0008729,0.00017623,0,0,0.086217,-0.0094019,0,0.0038771,0,0,0,0.0087144,1.4605e-05,0.0008729,1.161,0.0032006,0.0083039,2.8352e-08,0.88,1,0
0.038838,0.044742,0.0091279,2.5536e-05,0.00091534,0.00020933,0,0,0.090338,-0.0097879,0,0.0046054,0,0,0,0.0091327,2.0724e-05,0.00091534,1.3168,0.0033562,0.0086992,3.2609e-08,0.9,1,0
0.04069,0.045783,0.0096382,3.9167e-05,0.00096774,0.00025722,0,0,0.095376,-0.010214,0,0.0056588,0,0,0,0.0096451,3.228e-05,0.00096774,1.5338,0.0035484,0.0091809,3.8357e-08,0.92,1,0
0.042654,0.046825,0.010301,6.4889e-05,0.0010366,0.00033738,0,0,0.10191,-0.010689,0,0.0074223,0,0,0,0.010313,5.3781e-05,0.0010366,1.8857,0.003801,0.0098043,4.6767e-08,0.94,1,0
0.044767,0.047874,0.011289,0.00015474,0.0011444,0.00047988,0,0,0.11159,-0.010886,0,0.010557,0,0,0,0.01131,0.00013409,0.0011444,2.4632,0.0041962,0.010707,6.1146e-08,0.96,1,0
0.047117,0.04892,0.013255,0.0003535,0.0013608,0.00087811,0,0,0.13083,-0.011081,0,0.019318,0,0,0,0.013314,0.00029401,0.0013608,3.876,0.0049897,0.012521,9.8353e-08,0.98,1,0
0.05,0.05,0.014741,0.0016379,0.0016379,0.0024534,0,0,0.14413,2.0643e-16,0,0.053974,0,0,0,0.015185,0.0011936,0.0016379,10.265,0.0060055,0.013775,1.3377e-07,1,1,0
